
     Program PWSCF v.7.0 starts on 19Jul2026 at  1:25:39 

     This program is part of the open-source Quantum ESPRESSO suite
     for quantum simulation of materials; please cite
         "P. Giannozzi et al., J. Phys.:Condens. Matter 21 395502 (2009);
         "P. Giannozzi et al., J. Phys.:Condens. Matter 29 465901 (2017);
         "P. Giannozzi et al., J. Chem. Phys. 152 154105 (2020);
          URL http://www.quantum-espresso.org", 
     in publications or presentations arising from this work. More details at
     http://www.quantum-espresso.org/quote

     Parallel version (MPI), running on    38 processors

     MPI processes distributed on     1 nodes
     R & G space division:  proc/nbgrp/npool/nimage =      38
     372472 MiB available memory on the printing compute node when the environment starts

     Reading input from beta_Ga2O3.scf_ideal.in

     Current dimensions of program PWSCF are:
     Max number of different atomic species (ntypx) = 10
     Max number of k-points (npk) =  40000
     Max angular momentum in pseudopotentials (lmaxx) =  4
     file Ga.pbe-dn-kjpaw_psl.1.0.0.UPF: wavefunction(s)  4S renormalized
     file O.pbe-n-kjpaw_psl.1.0.0.UPF: wavefunction(s)  2S 2P renormalized

     IMPORTANT: XC functional enforced from input :
     Exchange-correlation= PBE
                           (   1   4   3   4   0   0   0)
     Any further DFT definition will be discarded
     Please, verify this is what you really want

     Message from routine setup:
     using ibrav=0 with symmetry is DISCOURAGED, use correct ibrav instead

     Subspace diagonalization in iterative solution of the eigenvalue problem:
     one sub-group per band group will be used
     scalapack distributed-memory algorithm (size of sub-group:  6*  6 procs)


     Parallelization info
     --------------------
     sticks:   dense  smooth     PW     G-vecs:    dense   smooth      PW
     Min          88      44     13                 5078     1794     309
     Max          89      45     14                 5083     1800     316
     Sum        3359    1685    521               193033    68259   11869

     Using Slab Decomposition



     bravais-lattice index     =            0
     lattice parameter (alat)  =      11.9022  a.u.
     unit-cell volume          =     706.4068 (a.u.)^3
     number of atoms/cell      =           10
     number of atomic types    =            2
     number of electrons       =        88.00
     number of Kohn-Sham states=           44
     kinetic-energy cutoff     =      80.0000  Ry
     charge density cutoff     =     640.0000  Ry
     scf convergence threshold =      1.0E-10
     mixing beta               =       0.2000
     number of iterations used =            8  plain     mixing
     Exchange-correlation= PBE
                           (   1   4   3   4   0   0   0)

     celldm(1)=  11.902179  celldm(2)=   0.000000  celldm(3)=   0.000000
     celldm(4)=   0.000000  celldm(5)=   0.000000  celldm(6)=   0.000000

     crystal axes: (cart. coord. in units of alat)
               a(1) = (   0.241044   0.970514   0.000000 )  
               a(2) = (  -0.241044   0.970514   0.000000 )  
               a(3) = (   0.000000   0.219185   0.895463 )  

     reciprocal axes: (cart. coord. in units 2 pi/alat)
               b(1) = (  2.074313  0.515191 -0.126105 )  
               b(2) = ( -2.074313  0.515191 -0.126105 )  
               b(3) = (  0.000000 -0.000000  1.116740 )  


     PseudoPot. # 1 for Ga read from file:
     /scratch/dajuarez4/ga2o3_new/pseudo/Ga.pbe-dn-kjpaw_psl.1.0.0.UPF
     MD5 check sum: 50ce49cbf7e0a40ad8623bf41840a268
     Pseudo is Projector augmented-wave + core cor, Zval = 13.0
     Generated using &quot;atomic&quot; code by A. Dal Corso  v.6.3
     Shape of augmentation charge: PSQ
     Using radial grid of 1205 points,  6 beta functions with: 
                l(1) =   0
                l(2) =   0
                l(3) =   1
                l(4) =   1
                l(5) =   2
                l(6) =   2
     Q(r) pseudized with 0 coefficients 


     PseudoPot. # 2 for O  read from file:
     /scratch/dajuarez4/ga2o3_new/pseudo/O.pbe-n-kjpaw_psl.1.0.0.UPF
     MD5 check sum: e99d9cef9b487d1ca56f5b95ecd0fd7a
     Pseudo is Projector augmented-wave + core cor, Zval =  6.0
     Generated using &quot;atomic&quot; code by A. Dal Corso  v.6.3
     Shape of augmentation charge: PSQ
     Using radial grid of 1095 points,  4 beta functions with: 
                l(1) =   0
                l(2) =   0
                l(3) =   1
                l(4) =   1
     Q(r) pseudized with 0 coefficients 


     atomic species   valence    mass     pseudopotential
        Ga            13.00    69.72300     Ga( 1.00)
        O              6.00    15.99900     O ( 1.00)

      4 Sym. Ops., with inversion, found


                                    s                        frac. trans.

      isym =  1     identity                                     

 cryst.   s( 1) = (     1          0          0      )
                  (     0          1          0      )
                  (     0          0          1      )

 cart.    s( 1) = (  1.0000000  0.0000000  0.0000000 )
                  (  0.0000000  1.0000000  0.0000000 )
                  (  0.0000000  0.0000000  1.0000000 )


      isym =  2     180 deg rotation - cart. axis [1,0,0]        

 cryst.   s( 2) = (     0         -1          0      )
                  (    -1          0          0      )
                  (     0          0         -1      )

 cart.    s( 2) = (  1.0000000  0.0000000  0.0000000 )
                  (  0.0000000 -1.0000000 -0.0000000 )
                  (  0.0000000  0.0000000 -1.0000000 )


      isym =  3     inversion                                    

 cryst.   s( 3) = (    -1          0          0      )
                  (     0         -1          0      )
                  (     0          0         -1      )

 cart.    s( 3) = ( -1.0000000  0.0000000  0.0000000 )
                  (  0.0000000 -1.0000000 -0.0000000 )
                  (  0.0000000  0.0000000 -1.0000000 )


      isym =  4     inv. 180 deg rotation - cart. axis [1,0,0]   

 cryst.   s( 4) = (     0          1          0      )
                  (     1          0          0      )
                  (     0          0          1      )

 cart.    s( 4) = ( -1.0000000  0.0000000  0.0000000 )
                  (  0.0000000  1.0000000  0.0000000 )
                  (  0.0000000  0.0000000  1.0000000 )


   Cartesian axes

     site n.     atom                  positions (alat units)
         1           Ga  tau(   1) = (   0.0000000   1.9404041   0.7122606  )
         2           Ga  tau(   2) = (   0.0000000   0.2198093   0.1832029  )
         3           Ga  tau(   3) = (   0.0000000   0.7318021   0.2813278  )
         4           Ga  tau(   4) = (   0.0000000   1.4284112   0.6141357  )
         5           O   tau(   5) = (   0.0000000   1.6425781   0.0988950  )
         6           O   tau(   6) = (   0.0000000   0.5176352   0.7965685  )
         7           O   tau(   7) = (   0.0000000   1.7282409   0.5042623  )
         8           O   tau(   8) = (   0.0000000   0.4319725   0.3912011  )
         9           O   tau(   9) = (   0.0000000   1.0352294   0.2294177  )
        10           O   tau(  10) = (   0.0000000   1.1249840   0.6660457  )

   Crystallographic axes

     site n.     atom                  positions (cryst. coord.)
         1           Ga  tau(   1) = (  0.9098590  0.9098590  0.7954100  )
         2           Ga  tau(   2) = (  0.0901410  0.0901410  0.2045900  )
         3           Ga  tau(   3) = (  0.3415410  0.3415410  0.3141700  )
         4           Ga  tau(   4) = (  0.6584590  0.6584590  0.6858300  )
         5           O   tau(   5) = (  0.8337700  0.8337700  0.1104400  )
         6           O   tau(   6) = (  0.1662300  0.1662300  0.8895600  )
         7           O   tau(   7) = (  0.8267840  0.8267840  0.5631300  )
         8           O   tau(   8) = (  0.1732160  0.1732160  0.4368700  )
         9           O   tau(   9) = (  0.5044100  0.5044100  0.2562000  )
        10           O   tau(  10) = (  0.4955900  0.4955900  0.7438000  )

     number of k points=   476
                       cart. coord. in units 2pi/alat
        k(    1) = (   0.0000000   0.0000000   0.0000000), wk =   0.0011574
        k(    2) = (   0.0000000   0.0000000   0.0930617), wk =   0.0023148
        k(    3) = (   0.0000000   0.0000000   0.1861234), wk =   0.0023148
        k(    4) = (   0.0000000   0.0000000   0.2791850), wk =   0.0023148
        k(    5) = (   0.0000000   0.0000000   0.3722467), wk =   0.0023148
        k(    6) = (   0.0000000   0.0000000   0.4653084), wk =   0.0023148
        k(    7) = (   0.0000000   0.0000000  -0.5583701), wk =   0.0011574
        k(    8) = (  -0.1728594   0.0429326  -0.0105087), wk =   0.0046296
        k(    9) = (  -0.1728594   0.0429326   0.0825530), wk =   0.0046296
        k(   10) = (  -0.1728594   0.0429326   0.1756146), wk =   0.0046296
        k(   11) = (  -0.1728594   0.0429326   0.2686763), wk =   0.0046296
        k(   12) = (  -0.1728594   0.0429326   0.3617380), wk =   0.0046296
        k(   13) = (  -0.1728594   0.0429326   0.4547997), wk =   0.0046296
        k(   14) = (  -0.1728594   0.0429326  -0.5688788), wk =   0.0046296
        k(   15) = (  -0.1728594   0.0429326  -0.4758171), wk =   0.0046296
        k(   16) = (  -0.1728594   0.0429326  -0.3827554), wk =   0.0046296
        k(   17) = (  -0.1728594   0.0429326  -0.2896937), wk =   0.0046296
        k(   18) = (  -0.1728594   0.0429326  -0.1966321), wk =   0.0046296
        k(   19) = (  -0.1728594   0.0429326  -0.1035704), wk =   0.0046296
        k(   20) = (  -0.3457189   0.0858651  -0.0210174), wk =   0.0046296
        k(   21) = (  -0.3457189   0.0858651   0.0720443), wk =   0.0046296
        k(   22) = (  -0.3457189   0.0858651   0.1651059), wk =   0.0046296
        k(   23) = (  -0.3457189   0.0858651   0.2581676), wk =   0.0046296
        k(   24) = (  -0.3457189   0.0858651   0.3512293), wk =   0.0046296
        k(   25) = (  -0.3457189   0.0858651   0.4442910), wk =   0.0046296
        k(   26) = (  -0.3457189   0.0858651  -0.5793875), wk =   0.0046296
        k(   27) = (  -0.3457189   0.0858651  -0.4863258), wk =   0.0046296
        k(   28) = (  -0.3457189   0.0858651  -0.3932641), wk =   0.0046296
        k(   29) = (  -0.3457189   0.0858651  -0.3002025), wk =   0.0046296
        k(   30) = (  -0.3457189   0.0858651  -0.2071408), wk =   0.0046296
        k(   31) = (  -0.3457189   0.0858651  -0.1140791), wk =   0.0046296
        k(   32) = (  -0.5185783   0.1287977  -0.0315261), wk =   0.0046296
        k(   33) = (  -0.5185783   0.1287977   0.0615356), wk =   0.0046296
        k(   34) = (  -0.5185783   0.1287977   0.1545972), wk =   0.0046296
        k(   35) = (  -0.5185783   0.1287977   0.2476589), wk =   0.0046296
        k(   36) = (  -0.5185783   0.1287977   0.3407206), wk =   0.0046296
        k(   37) = (  -0.5185783   0.1287977   0.4337823), wk =   0.0046296
        k(   38) = (  -0.5185783   0.1287977  -0.5898962), wk =   0.0046296
        k(   39) = (  -0.5185783   0.1287977  -0.4968345), wk =   0.0046296
        k(   40) = (  -0.5185783   0.1287977  -0.4037728), wk =   0.0046296
        k(   41) = (  -0.5185783   0.1287977  -0.3107112), wk =   0.0046296
        k(   42) = (  -0.5185783   0.1287977  -0.2176495), wk =   0.0046296
        k(   43) = (  -0.5185783   0.1287977  -0.1245878), wk =   0.0046296
        k(   44) = (  -0.6914377   0.1717303  -0.0420348), wk =   0.0046296
        k(   45) = (  -0.6914377   0.1717303   0.0510268), wk =   0.0046296
        k(   46) = (  -0.6914377   0.1717303   0.1440885), wk =   0.0046296
        k(   47) = (  -0.6914377   0.1717303   0.2371502), wk =   0.0046296
        k(   48) = (  -0.6914377   0.1717303   0.3302119), wk =   0.0046296
        k(   49) = (  -0.6914377   0.1717303   0.4232736), wk =   0.0046296
        k(   50) = (  -0.6914377   0.1717303  -0.6004049), wk =   0.0046296
        k(   51) = (  -0.6914377   0.1717303  -0.5073432), wk =   0.0046296
        k(   52) = (  -0.6914377   0.1717303  -0.4142816), wk =   0.0046296
        k(   53) = (  -0.6914377   0.1717303  -0.3212199), wk =   0.0046296
        k(   54) = (  -0.6914377   0.1717303  -0.2281582), wk =   0.0046296
        k(   55) = (  -0.6914377   0.1717303  -0.1350965), wk =   0.0046296
        k(   56) = (  -0.8642972   0.2146628  -0.0525435), wk =   0.0046296
        k(   57) = (  -0.8642972   0.2146628   0.0405181), wk =   0.0046296
        k(   58) = (  -0.8642972   0.2146628   0.1335798), wk =   0.0046296
        k(   59) = (  -0.8642972   0.2146628   0.2266415), wk =   0.0046296
        k(   60) = (  -0.8642972   0.2146628   0.3197032), wk =   0.0046296
        k(   61) = (  -0.8642972   0.2146628   0.4127649), wk =   0.0046296
        k(   62) = (  -0.8642972   0.2146628  -0.6109136), wk =   0.0046296
        k(   63) = (  -0.8642972   0.2146628  -0.5178519), wk =   0.0046296
        k(   64) = (  -0.8642972   0.2146628  -0.4247903), wk =   0.0046296
        k(   65) = (  -0.8642972   0.2146628  -0.3317286), wk =   0.0046296
        k(   66) = (  -0.8642972   0.2146628  -0.2386669), wk =   0.0046296
        k(   67) = (  -0.8642972   0.2146628  -0.1456052), wk =   0.0046296
        k(   68) = (   1.0371566  -0.2575954   0.0630523), wk =   0.0023148
        k(   69) = (   1.0371566  -0.2575954   0.1561139), wk =   0.0046296
        k(   70) = (   1.0371566  -0.2575954   0.2491756), wk =   0.0046296
        k(   71) = (   1.0371566  -0.2575954   0.3422373), wk =   0.0046296
        k(   72) = (   1.0371566  -0.2575954   0.4352990), wk =   0.0046296
        k(   73) = (   1.0371566  -0.2575954   0.5283606), wk =   0.0046296
        k(   74) = (   1.0371566  -0.2575954  -0.4953178), wk =   0.0023148
        k(   75) = (   0.0000000   0.0858651  -0.0210174), wk =   0.0023148
        k(   76) = (   0.0000000   0.0858651   0.0720443), wk =   0.0023148
        k(   77) = (   0.0000000   0.0858651   0.1651059), wk =   0.0023148
        k(   78) = (   0.0000000   0.0858651   0.2581676), wk =   0.0023148
        k(   79) = (   0.0000000   0.0858651   0.3512293), wk =   0.0023148
        k(   80) = (   0.0000000   0.0858651   0.4442910), wk =   0.0023148
        k(   81) = (   0.0000000   0.0858651  -0.5793875), wk =   0.0023148
        k(   82) = (   0.0000000   0.0858651  -0.4863258), wk =   0.0023148
        k(   83) = (   0.0000000   0.0858651  -0.3932641), wk =   0.0023148
        k(   84) = (   0.0000000   0.0858651  -0.3002025), wk =   0.0023148
        k(   85) = (   0.0000000   0.0858651  -0.2071408), wk =   0.0023148
        k(   86) = (   0.0000000   0.0858651  -0.1140791), wk =   0.0023148
        k(   87) = (  -0.1728594   0.1287977  -0.0315261), wk =   0.0046296
        k(   88) = (  -0.1728594   0.1287977   0.0615356), wk =   0.0046296
        k(   89) = (  -0.1728594   0.1287977   0.1545972), wk =   0.0046296
        k(   90) = (  -0.1728594   0.1287977   0.2476589), wk =   0.0046296
        k(   91) = (  -0.1728594   0.1287977   0.3407206), wk =   0.0046296
        k(   92) = (  -0.1728594   0.1287977   0.4337823), wk =   0.0046296
        k(   93) = (  -0.1728594   0.1287977  -0.5898962), wk =   0.0046296
        k(   94) = (  -0.1728594   0.1287977  -0.4968345), wk =   0.0046296
        k(   95) = (  -0.1728594   0.1287977  -0.4037728), wk =   0.0046296
        k(   96) = (  -0.1728594   0.1287977  -0.3107112), wk =   0.0046296
        k(   97) = (  -0.1728594   0.1287977  -0.2176495), wk =   0.0046296
        k(   98) = (  -0.1728594   0.1287977  -0.1245878), wk =   0.0046296
        k(   99) = (  -0.3457189   0.1717303  -0.0420348), wk =   0.0046296
        k(  100) = (  -0.3457189   0.1717303   0.0510268), wk =   0.0046296
        k(  101) = (  -0.3457189   0.1717303   0.1440885), wk =   0.0046296
        k(  102) = (  -0.3457189   0.1717303   0.2371502), wk =   0.0046296
        k(  103) = (  -0.3457189   0.1717303   0.3302119), wk =   0.0046296
        k(  104) = (  -0.3457189   0.1717303   0.4232736), wk =   0.0046296
        k(  105) = (  -0.3457189   0.1717303  -0.6004049), wk =   0.0046296
        k(  106) = (  -0.3457189   0.1717303  -0.5073432), wk =   0.0046296
        k(  107) = (  -0.3457189   0.1717303  -0.4142816), wk =   0.0046296
        k(  108) = (  -0.3457189   0.1717303  -0.3212199), wk =   0.0046296
        k(  109) = (  -0.3457189   0.1717303  -0.2281582), wk =   0.0046296
        k(  110) = (  -0.3457189   0.1717303  -0.1350965), wk =   0.0046296
        k(  111) = (  -0.5185783   0.2146628  -0.0525435), wk =   0.0046296
        k(  112) = (  -0.5185783   0.2146628   0.0405181), wk =   0.0046296
        k(  113) = (  -0.5185783   0.2146628   0.1335798), wk =   0.0046296
        k(  114) = (  -0.5185783   0.2146628   0.2266415), wk =   0.0046296
        k(  115) = (  -0.5185783   0.2146628   0.3197032), wk =   0.0046296
        k(  116) = (  -0.5185783   0.2146628   0.4127649), wk =   0.0046296
        k(  117) = (  -0.5185783   0.2146628  -0.6109136), wk =   0.0046296
        k(  118) = (  -0.5185783   0.2146628  -0.5178519), wk =   0.0046296
        k(  119) = (  -0.5185783   0.2146628  -0.4247903), wk =   0.0046296
        k(  120) = (  -0.5185783   0.2146628  -0.3317286), wk =   0.0046296
        k(  121) = (  -0.5185783   0.2146628  -0.2386669), wk =   0.0046296
        k(  122) = (  -0.5185783   0.2146628  -0.1456052), wk =   0.0046296
        k(  123) = (  -0.6914377   0.2575954  -0.0630523), wk =   0.0046296
        k(  124) = (  -0.6914377   0.2575954   0.0300094), wk =   0.0046296
        k(  125) = (  -0.6914377   0.2575954   0.1230711), wk =   0.0046296
        k(  126) = (  -0.6914377   0.2575954   0.2161328), wk =   0.0046296
        k(  127) = (  -0.6914377   0.2575954   0.3091945), wk =   0.0046296
        k(  128) = (  -0.6914377   0.2575954   0.4022561), wk =   0.0046296
        k(  129) = (  -0.6914377   0.2575954  -0.6214223), wk =   0.0046296
        k(  130) = (  -0.6914377   0.2575954  -0.5283606), wk =   0.0046296
        k(  131) = (  -0.6914377   0.2575954  -0.4352990), wk =   0.0046296
        k(  132) = (  -0.6914377   0.2575954  -0.3422373), wk =   0.0046296
        k(  133) = (  -0.6914377   0.2575954  -0.2491756), wk =   0.0046296
        k(  134) = (  -0.6914377   0.2575954  -0.1561139), wk =   0.0046296
        k(  135) = (   1.2100161  -0.2146628   0.0525435), wk =   0.0046296
        k(  136) = (   1.2100161  -0.2146628   0.1456052), wk =   0.0046296
        k(  137) = (   1.2100161  -0.2146628   0.2386669), wk =   0.0046296
        k(  138) = (   1.2100161  -0.2146628   0.3317286), wk =   0.0046296
        k(  139) = (   1.2100161  -0.2146628   0.4247903), wk =   0.0046296
        k(  140) = (   1.2100161  -0.2146628   0.5178519), wk =   0.0046296
        k(  141) = (   1.2100161  -0.2146628  -0.5058265), wk =   0.0046296
        k(  142) = (   1.2100161  -0.2146628  -0.4127649), wk =   0.0046296
        k(  143) = (   1.2100161  -0.2146628  -0.3197032), wk =   0.0046296
        k(  144) = (   1.2100161  -0.2146628  -0.2266415), wk =   0.0046296
        k(  145) = (   1.2100161  -0.2146628  -0.1335798), wk =   0.0046296
        k(  146) = (   1.2100161  -0.2146628  -0.0405181), wk =   0.0046296
        k(  147) = (   1.0371566  -0.1717303   0.0420348), wk =   0.0046296
        k(  148) = (   1.0371566  -0.1717303   0.1350965), wk =   0.0046296
        k(  149) = (   1.0371566  -0.1717303   0.2281582), wk =   0.0046296
        k(  150) = (   1.0371566  -0.1717303   0.3212199), wk =   0.0046296
        k(  151) = (   1.0371566  -0.1717303   0.4142816), wk =   0.0046296
        k(  152) = (   1.0371566  -0.1717303   0.5073432), wk =   0.0046296
        k(  153) = (   1.0371566  -0.1717303  -0.5163352), wk =   0.0046296
        k(  154) = (   1.0371566  -0.1717303  -0.4232736), wk =   0.0046296
        k(  155) = (   1.0371566  -0.1717303  -0.3302119), wk =   0.0046296
        k(  156) = (   1.0371566  -0.1717303  -0.2371502), wk =   0.0046296
        k(  157) = (   1.0371566  -0.1717303  -0.1440885), wk =   0.0046296
        k(  158) = (   1.0371566  -0.1717303  -0.0510268), wk =   0.0046296
        k(  159) = (   0.8642972  -0.1287977   0.0315261), wk =   0.0046296
        k(  160) = (   0.8642972  -0.1287977   0.1245878), wk =   0.0046296
        k(  161) = (   0.8642972  -0.1287977   0.2176495), wk =   0.0046296
        k(  162) = (   0.8642972  -0.1287977   0.3107112), wk =   0.0046296
        k(  163) = (   0.8642972  -0.1287977   0.4037728), wk =   0.0046296
        k(  164) = (   0.8642972  -0.1287977   0.4968345), wk =   0.0046296
        k(  165) = (   0.8642972  -0.1287977  -0.5268439), wk =   0.0046296
        k(  166) = (   0.8642972  -0.1287977  -0.4337823), wk =   0.0046296
        k(  167) = (   0.8642972  -0.1287977  -0.3407206), wk =   0.0046296
        k(  168) = (   0.8642972  -0.1287977  -0.2476589), wk =   0.0046296
        k(  169) = (   0.8642972  -0.1287977  -0.1545972), wk =   0.0046296
        k(  170) = (   0.8642972  -0.1287977  -0.0615356), wk =   0.0046296
        k(  171) = (   0.6914377  -0.0858651   0.0210174), wk =   0.0046296
        k(  172) = (   0.6914377  -0.0858651   0.1140791), wk =   0.0046296
        k(  173) = (   0.6914377  -0.0858651   0.2071408), wk =   0.0046296
        k(  174) = (   0.6914377  -0.0858651   0.3002025), wk =   0.0046296
        k(  175) = (   0.6914377  -0.0858651   0.3932641), wk =   0.0046296
        k(  176) = (   0.6914377  -0.0858651   0.4863258), wk =   0.0046296
        k(  177) = (   0.6914377  -0.0858651  -0.5373527), wk =   0.0046296
        k(  178) = (   0.6914377  -0.0858651  -0.4442910), wk =   0.0046296
        k(  179) = (   0.6914377  -0.0858651  -0.3512293), wk =   0.0046296
        k(  180) = (   0.6914377  -0.0858651  -0.2581676), wk =   0.0046296
        k(  181) = (   0.6914377  -0.0858651  -0.1651059), wk =   0.0046296
        k(  182) = (   0.6914377  -0.0858651  -0.0720443), wk =   0.0046296
        k(  183) = (   0.5185783  -0.0429326   0.0105087), wk =   0.0046296
        k(  184) = (   0.5185783  -0.0429326   0.1035704), wk =   0.0046296
        k(  185) = (   0.5185783  -0.0429326   0.1966321), wk =   0.0046296
        k(  186) = (   0.5185783  -0.0429326   0.2896937), wk =   0.0046296
        k(  187) = (   0.5185783  -0.0429326   0.3827554), wk =   0.0046296
        k(  188) = (   0.5185783  -0.0429326   0.4758171), wk =   0.0046296
        k(  189) = (   0.5185783  -0.0429326  -0.5478614), wk =   0.0046296
        k(  190) = (   0.5185783  -0.0429326  -0.4547997), wk =   0.0046296
        k(  191) = (   0.5185783  -0.0429326  -0.3617380), wk =   0.0046296
        k(  192) = (   0.5185783  -0.0429326  -0.2686763), wk =   0.0046296
        k(  193) = (   0.5185783  -0.0429326  -0.1756146), wk =   0.0046296
        k(  194) = (   0.5185783  -0.0429326  -0.0825530), wk =   0.0046296
        k(  195) = (   0.3457189  -0.0000000   0.0000000), wk =   0.0023148
        k(  196) = (   0.3457189  -0.0000000   0.0930617), wk =   0.0046296
        k(  197) = (   0.3457189  -0.0000000   0.1861234), wk =   0.0046296
        k(  198) = (   0.3457189  -0.0000000   0.2791850), wk =   0.0046296
        k(  199) = (   0.3457189  -0.0000000   0.3722467), wk =   0.0046296
        k(  200) = (   0.3457189  -0.0000000   0.4653084), wk =   0.0046296
        k(  201) = (   0.3457189  -0.0000000  -0.5583701), wk =   0.0023148
        k(  202) = (   0.0000000   0.1717303  -0.0420348), wk =   0.0023148
        k(  203) = (   0.0000000   0.1717303   0.0510268), wk =   0.0023148
        k(  204) = (   0.0000000   0.1717303   0.1440885), wk =   0.0023148
        k(  205) = (   0.0000000   0.1717303   0.2371502), wk =   0.0023148
        k(  206) = (   0.0000000   0.1717303   0.3302119), wk =   0.0023148
        k(  207) = (   0.0000000   0.1717303   0.4232736), wk =   0.0023148
        k(  208) = (   0.0000000   0.1717303  -0.6004049), wk =   0.0023148
        k(  209) = (   0.0000000   0.1717303  -0.5073432), wk =   0.0023148
        k(  210) = (   0.0000000   0.1717303  -0.4142816), wk =   0.0023148
        k(  211) = (   0.0000000   0.1717303  -0.3212199), wk =   0.0023148
        k(  212) = (   0.0000000   0.1717303  -0.2281582), wk =   0.0023148
        k(  213) = (   0.0000000   0.1717303  -0.1350965), wk =   0.0023148
        k(  214) = (  -0.1728594   0.2146628  -0.0525435), wk =   0.0046296
        k(  215) = (  -0.1728594   0.2146628   0.0405181), wk =   0.0046296
        k(  216) = (  -0.1728594   0.2146628   0.1335798), wk =   0.0046296
        k(  217) = (  -0.1728594   0.2146628   0.2266415), wk =   0.0046296
        k(  218) = (  -0.1728594   0.2146628   0.3197032), wk =   0.0046296
        k(  219) = (  -0.1728594   0.2146628   0.4127649), wk =   0.0046296
        k(  220) = (  -0.1728594   0.2146628  -0.6109136), wk =   0.0046296
        k(  221) = (  -0.1728594   0.2146628  -0.5178519), wk =   0.0046296
        k(  222) = (  -0.1728594   0.2146628  -0.4247903), wk =   0.0046296
        k(  223) = (  -0.1728594   0.2146628  -0.3317286), wk =   0.0046296
        k(  224) = (  -0.1728594   0.2146628  -0.2386669), wk =   0.0046296
        k(  225) = (  -0.1728594   0.2146628  -0.1456052), wk =   0.0046296
        k(  226) = (  -0.3457189   0.2575954  -0.0630523), wk =   0.0046296
        k(  227) = (  -0.3457189   0.2575954   0.0300094), wk =   0.0046296
        k(  228) = (  -0.3457189   0.2575954   0.1230711), wk =   0.0046296
        k(  229) = (  -0.3457189   0.2575954   0.2161328), wk =   0.0046296
        k(  230) = (  -0.3457189   0.2575954   0.3091945), wk =   0.0046296
        k(  231) = (  -0.3457189   0.2575954   0.4022561), wk =   0.0046296
        k(  232) = (  -0.3457189   0.2575954  -0.6214223), wk =   0.0046296
        k(  233) = (  -0.3457189   0.2575954  -0.5283606), wk =   0.0046296
        k(  234) = (  -0.3457189   0.2575954  -0.4352990), wk =   0.0046296
        k(  235) = (  -0.3457189   0.2575954  -0.3422373), wk =   0.0046296
        k(  236) = (  -0.3457189   0.2575954  -0.2491756), wk =   0.0046296
        k(  237) = (  -0.3457189   0.2575954  -0.1561139), wk =   0.0046296
        k(  238) = (  -0.5185783   0.3005279  -0.0735610), wk =   0.0046296
        k(  239) = (  -0.5185783   0.3005279   0.0195007), wk =   0.0046296
        k(  240) = (  -0.5185783   0.3005279   0.1125624), wk =   0.0046296
        k(  241) = (  -0.5185783   0.3005279   0.2056241), wk =   0.0046296
        k(  242) = (  -0.5185783   0.3005279   0.2986858), wk =   0.0046296
        k(  243) = (  -0.5185783   0.3005279   0.3917474), wk =   0.0046296
        k(  244) = (  -0.5185783   0.3005279  -0.6319310), wk =   0.0046296
        k(  245) = (  -0.5185783   0.3005279  -0.5388694), wk =   0.0046296
        k(  246) = (  -0.5185783   0.3005279  -0.4458077), wk =   0.0046296
        k(  247) = (  -0.5185783   0.3005279  -0.3527460), wk =   0.0046296
        k(  248) = (  -0.5185783   0.3005279  -0.2596843), wk =   0.0046296
        k(  249) = (  -0.5185783   0.3005279  -0.1666226), wk =   0.0046296
        k(  250) = (   1.3828755  -0.1717303   0.0420348), wk =   0.0046296
        k(  251) = (   1.3828755  -0.1717303   0.1350965), wk =   0.0046296
        k(  252) = (   1.3828755  -0.1717303   0.2281582), wk =   0.0046296
        k(  253) = (   1.3828755  -0.1717303   0.3212199), wk =   0.0046296
        k(  254) = (   1.3828755  -0.1717303   0.4142816), wk =   0.0046296
        k(  255) = (   1.3828755  -0.1717303   0.5073432), wk =   0.0046296
        k(  256) = (   1.3828755  -0.1717303  -0.5163352), wk =   0.0046296
        k(  257) = (   1.3828755  -0.1717303  -0.4232736), wk =   0.0046296
        k(  258) = (   1.3828755  -0.1717303  -0.3302119), wk =   0.0046296
        k(  259) = (   1.3828755  -0.1717303  -0.2371502), wk =   0.0046296
        k(  260) = (   1.3828755  -0.1717303  -0.1440885), wk =   0.0046296
        k(  261) = (   1.3828755  -0.1717303  -0.0510268), wk =   0.0046296
        k(  262) = (   1.2100161  -0.1287977   0.0315261), wk =   0.0046296
        k(  263) = (   1.2100161  -0.1287977   0.1245878), wk =   0.0046296
        k(  264) = (   1.2100161  -0.1287977   0.2176495), wk =   0.0046296
        k(  265) = (   1.2100161  -0.1287977   0.3107112), wk =   0.0046296
        k(  266) = (   1.2100161  -0.1287977   0.4037728), wk =   0.0046296
        k(  267) = (   1.2100161  -0.1287977   0.4968345), wk =   0.0046296
        k(  268) = (   1.2100161  -0.1287977  -0.5268439), wk =   0.0046296
        k(  269) = (   1.2100161  -0.1287977  -0.4337823), wk =   0.0046296
        k(  270) = (   1.2100161  -0.1287977  -0.3407206), wk =   0.0046296
        k(  271) = (   1.2100161  -0.1287977  -0.2476589), wk =   0.0046296
        k(  272) = (   1.2100161  -0.1287977  -0.1545972), wk =   0.0046296
        k(  273) = (   1.2100161  -0.1287977  -0.0615356), wk =   0.0046296
        k(  274) = (   1.0371566  -0.0858651   0.0210174), wk =   0.0046296
        k(  275) = (   1.0371566  -0.0858651   0.1140791), wk =   0.0046296
        k(  276) = (   1.0371566  -0.0858651   0.2071408), wk =   0.0046296
        k(  277) = (   1.0371566  -0.0858651   0.3002025), wk =   0.0046296
        k(  278) = (   1.0371566  -0.0858651   0.3932641), wk =   0.0046296
        k(  279) = (   1.0371566  -0.0858651   0.4863258), wk =   0.0046296
        k(  280) = (   1.0371566  -0.0858651  -0.5373527), wk =   0.0046296
        k(  281) = (   1.0371566  -0.0858651  -0.4442910), wk =   0.0046296
        k(  282) = (   1.0371566  -0.0858651  -0.3512293), wk =   0.0046296
        k(  283) = (   1.0371566  -0.0858651  -0.2581676), wk =   0.0046296
        k(  284) = (   1.0371566  -0.0858651  -0.1651059), wk =   0.0046296
        k(  285) = (   1.0371566  -0.0858651  -0.0720443), wk =   0.0046296
        k(  286) = (   0.8642972  -0.0429326   0.0105087), wk =   0.0046296
        k(  287) = (   0.8642972  -0.0429326   0.1035704), wk =   0.0046296
        k(  288) = (   0.8642972  -0.0429326   0.1966321), wk =   0.0046296
        k(  289) = (   0.8642972  -0.0429326   0.2896937), wk =   0.0046296
        k(  290) = (   0.8642972  -0.0429326   0.3827554), wk =   0.0046296
        k(  291) = (   0.8642972  -0.0429326   0.4758171), wk =   0.0046296
        k(  292) = (   0.8642972  -0.0429326  -0.5478614), wk =   0.0046296
        k(  293) = (   0.8642972  -0.0429326  -0.4547997), wk =   0.0046296
        k(  294) = (   0.8642972  -0.0429326  -0.3617380), wk =   0.0046296
        k(  295) = (   0.8642972  -0.0429326  -0.2686763), wk =   0.0046296
        k(  296) = (   0.8642972  -0.0429326  -0.1756146), wk =   0.0046296
        k(  297) = (   0.8642972  -0.0429326  -0.0825530), wk =   0.0046296
        k(  298) = (   0.6914377   0.0000000  -0.0000000), wk =   0.0023148
        k(  299) = (   0.6914377   0.0000000   0.0930617), wk =   0.0046296
        k(  300) = (   0.6914377   0.0000000   0.1861234), wk =   0.0046296
        k(  301) = (   0.6914377   0.0000000   0.2791850), wk =   0.0046296
        k(  302) = (   0.6914377   0.0000000   0.3722467), wk =   0.0046296
        k(  303) = (   0.6914377   0.0000000   0.4653084), wk =   0.0046296
        k(  304) = (   0.6914377   0.0000000  -0.5583701), wk =   0.0023148
        k(  305) = (   0.0000000   0.2575954  -0.0630523), wk =   0.0023148
        k(  306) = (   0.0000000   0.2575954   0.0300094), wk =   0.0023148
        k(  307) = (   0.0000000   0.2575954   0.1230711), wk =   0.0023148
        k(  308) = (   0.0000000   0.2575954   0.2161328), wk =   0.0023148
        k(  309) = (   0.0000000   0.2575954   0.3091945), wk =   0.0023148
        k(  310) = (   0.0000000   0.2575954   0.4022561), wk =   0.0023148
        k(  311) = (   0.0000000   0.2575954  -0.6214223), wk =   0.0023148
        k(  312) = (   0.0000000   0.2575954  -0.5283606), wk =   0.0023148
        k(  313) = (   0.0000000   0.2575954  -0.4352990), wk =   0.0023148
        k(  314) = (   0.0000000   0.2575954  -0.3422373), wk =   0.0023148
        k(  315) = (   0.0000000   0.2575954  -0.2491756), wk =   0.0023148
        k(  316) = (   0.0000000   0.2575954  -0.1561139), wk =   0.0023148
        k(  317) = (  -0.1728594   0.3005279  -0.0735610), wk =   0.0046296
        k(  318) = (  -0.1728594   0.3005279   0.0195007), wk =   0.0046296
        k(  319) = (  -0.1728594   0.3005279   0.1125624), wk =   0.0046296
        k(  320) = (  -0.1728594   0.3005279   0.2056241), wk =   0.0046296
        k(  321) = (  -0.1728594   0.3005279   0.2986858), wk =   0.0046296
        k(  322) = (  -0.1728594   0.3005279   0.3917474), wk =   0.0046296
        k(  323) = (  -0.1728594   0.3005279  -0.6319310), wk =   0.0046296
        k(  324) = (  -0.1728594   0.3005279  -0.5388694), wk =   0.0046296
        k(  325) = (  -0.1728594   0.3005279  -0.4458077), wk =   0.0046296
        k(  326) = (  -0.1728594   0.3005279  -0.3527460), wk =   0.0046296
        k(  327) = (  -0.1728594   0.3005279  -0.2596843), wk =   0.0046296
        k(  328) = (  -0.1728594   0.3005279  -0.1666226), wk =   0.0046296
        k(  329) = (  -0.3457189   0.3434605  -0.0840697), wk =   0.0046296
        k(  330) = (  -0.3457189   0.3434605   0.0089920), wk =   0.0046296
        k(  331) = (  -0.3457189   0.3434605   0.1020537), wk =   0.0046296
        k(  332) = (  -0.3457189   0.3434605   0.1951154), wk =   0.0046296
        k(  333) = (  -0.3457189   0.3434605   0.2881770), wk =   0.0046296
        k(  334) = (  -0.3457189   0.3434605   0.3812387), wk =   0.0046296
        k(  335) = (  -0.3457189   0.3434605  -0.6424397), wk =   0.0046296
        k(  336) = (  -0.3457189   0.3434605  -0.5493781), wk =   0.0046296
        k(  337) = (  -0.3457189   0.3434605  -0.4563164), wk =   0.0046296
        k(  338) = (  -0.3457189   0.3434605  -0.3632547), wk =   0.0046296
        k(  339) = (  -0.3457189   0.3434605  -0.2701930), wk =   0.0046296
        k(  340) = (  -0.3457189   0.3434605  -0.1771313), wk =   0.0046296
        k(  341) = (   1.5557349  -0.1287977   0.0315261), wk =   0.0046296
        k(  342) = (   1.5557349  -0.1287977   0.1245878), wk =   0.0046296
        k(  343) = (   1.5557349  -0.1287977   0.2176495), wk =   0.0046296
        k(  344) = (   1.5557349  -0.1287977   0.3107112), wk =   0.0046296
        k(  345) = (   1.5557349  -0.1287977   0.4037728), wk =   0.0046296
        k(  346) = (   1.5557349  -0.1287977   0.4968345), wk =   0.0046296
        k(  347) = (   1.5557349  -0.1287977  -0.5268439), wk =   0.0046296
        k(  348) = (   1.5557349  -0.1287977  -0.4337823), wk =   0.0046296
        k(  349) = (   1.5557349  -0.1287977  -0.3407206), wk =   0.0046296
        k(  350) = (   1.5557349  -0.1287977  -0.2476589), wk =   0.0046296
        k(  351) = (   1.5557349  -0.1287977  -0.1545972), wk =   0.0046296
        k(  352) = (   1.5557349  -0.1287977  -0.0615356), wk =   0.0046296
        k(  353) = (   1.3828755  -0.0858651   0.0210174), wk =   0.0046296
        k(  354) = (   1.3828755  -0.0858651   0.1140791), wk =   0.0046296
        k(  355) = (   1.3828755  -0.0858651   0.2071408), wk =   0.0046296
        k(  356) = (   1.3828755  -0.0858651   0.3002025), wk =   0.0046296
        k(  357) = (   1.3828755  -0.0858651   0.3932641), wk =   0.0046296
        k(  358) = (   1.3828755  -0.0858651   0.4863258), wk =   0.0046296
        k(  359) = (   1.3828755  -0.0858651  -0.5373527), wk =   0.0046296
        k(  360) = (   1.3828755  -0.0858651  -0.4442910), wk =   0.0046296
        k(  361) = (   1.3828755  -0.0858651  -0.3512293), wk =   0.0046296
        k(  362) = (   1.3828755  -0.0858651  -0.2581676), wk =   0.0046296
        k(  363) = (   1.3828755  -0.0858651  -0.1651059), wk =   0.0046296
        k(  364) = (   1.3828755  -0.0858651  -0.0720443), wk =   0.0046296
        k(  365) = (   1.2100161  -0.0429326   0.0105087), wk =   0.0046296
        k(  366) = (   1.2100161  -0.0429326   0.1035704), wk =   0.0046296
        k(  367) = (   1.2100161  -0.0429326   0.1966321), wk =   0.0046296
        k(  368) = (   1.2100161  -0.0429326   0.2896937), wk =   0.0046296
        k(  369) = (   1.2100161  -0.0429326   0.3827554), wk =   0.0046296
        k(  370) = (   1.2100161  -0.0429326   0.4758171), wk =   0.0046296
        k(  371) = (   1.2100161  -0.0429326  -0.5478614), wk =   0.0046296
        k(  372) = (   1.2100161  -0.0429326  -0.4547997), wk =   0.0046296
        k(  373) = (   1.2100161  -0.0429326  -0.3617380), wk =   0.0046296
        k(  374) = (   1.2100161  -0.0429326  -0.2686763), wk =   0.0046296
        k(  375) = (   1.2100161  -0.0429326  -0.1756146), wk =   0.0046296
        k(  376) = (   1.2100161  -0.0429326  -0.0825530), wk =   0.0046296
        k(  377) = (   1.0371566   0.0000000   0.0000000), wk =   0.0023148
        k(  378) = (   1.0371566   0.0000000   0.0930617), wk =   0.0046296
        k(  379) = (   1.0371566   0.0000000   0.1861234), wk =   0.0046296
        k(  380) = (   1.0371566   0.0000000   0.2791850), wk =   0.0046296
        k(  381) = (   1.0371566   0.0000000   0.3722467), wk =   0.0046296
        k(  382) = (   1.0371566   0.0000000   0.4653084), wk =   0.0046296
        k(  383) = (   1.0371566   0.0000000  -0.5583701), wk =   0.0023148
        k(  384) = (   0.0000000   0.3434605  -0.0840697), wk =   0.0023148
        k(  385) = (   0.0000000   0.3434605   0.0089920), wk =   0.0023148
        k(  386) = (   0.0000000   0.3434605   0.1020537), wk =   0.0023148
        k(  387) = (   0.0000000   0.3434605   0.1951154), wk =   0.0023148
        k(  388) = (   0.0000000   0.3434605   0.2881770), wk =   0.0023148
        k(  389) = (   0.0000000   0.3434605   0.3812387), wk =   0.0023148
        k(  390) = (   0.0000000   0.3434605  -0.6424397), wk =   0.0023148
        k(  391) = (   0.0000000   0.3434605  -0.5493781), wk =   0.0023148
        k(  392) = (   0.0000000   0.3434605  -0.4563164), wk =   0.0023148
        k(  393) = (   0.0000000   0.3434605  -0.3632547), wk =   0.0023148
        k(  394) = (   0.0000000   0.3434605  -0.2701930), wk =   0.0023148
        k(  395) = (   0.0000000   0.3434605  -0.1771313), wk =   0.0023148
        k(  396) = (  -0.1728594   0.3863931  -0.0945784), wk =   0.0046296
        k(  397) = (  -0.1728594   0.3863931  -0.0015167), wk =   0.0046296
        k(  398) = (  -0.1728594   0.3863931   0.0915450), wk =   0.0046296
        k(  399) = (  -0.1728594   0.3863931   0.1846067), wk =   0.0046296
        k(  400) = (  -0.1728594   0.3863931   0.2776683), wk =   0.0046296
        k(  401) = (  -0.1728594   0.3863931   0.3707300), wk =   0.0046296
        k(  402) = (  -0.1728594   0.3863931  -0.6529485), wk =   0.0046296
        k(  403) = (  -0.1728594   0.3863931  -0.5598868), wk =   0.0046296
        k(  404) = (  -0.1728594   0.3863931  -0.4668251), wk =   0.0046296
        k(  405) = (  -0.1728594   0.3863931  -0.3737634), wk =   0.0046296
        k(  406) = (  -0.1728594   0.3863931  -0.2807017), wk =   0.0046296
        k(  407) = (  -0.1728594   0.3863931  -0.1876401), wk =   0.0046296
        k(  408) = (   1.7285944  -0.0858651   0.0210174), wk =   0.0046296
        k(  409) = (   1.7285944  -0.0858651   0.1140791), wk =   0.0046296
        k(  410) = (   1.7285944  -0.0858651   0.2071408), wk =   0.0046296
        k(  411) = (   1.7285944  -0.0858651   0.3002025), wk =   0.0046296
        k(  412) = (   1.7285944  -0.0858651   0.3932641), wk =   0.0046296
        k(  413) = (   1.7285944  -0.0858651   0.4863258), wk =   0.0046296
        k(  414) = (   1.7285944  -0.0858651  -0.5373527), wk =   0.0046296
        k(  415) = (   1.7285944  -0.0858651  -0.4442910), wk =   0.0046296
        k(  416) = (   1.7285944  -0.0858651  -0.3512293), wk =   0.0046296
        k(  417) = (   1.7285944  -0.0858651  -0.2581676), wk =   0.0046296
        k(  418) = (   1.7285944  -0.0858651  -0.1651059), wk =   0.0046296
        k(  419) = (   1.7285944  -0.0858651  -0.0720443), wk =   0.0046296
        k(  420) = (   1.5557349  -0.0429326   0.0105087), wk =   0.0046296
        k(  421) = (   1.5557349  -0.0429326   0.1035704), wk =   0.0046296
        k(  422) = (   1.5557349  -0.0429326   0.1966321), wk =   0.0046296
        k(  423) = (   1.5557349  -0.0429326   0.2896937), wk =   0.0046296
        k(  424) = (   1.5557349  -0.0429326   0.3827554), wk =   0.0046296
        k(  425) = (   1.5557349  -0.0429326   0.4758171), wk =   0.0046296
        k(  426) = (   1.5557349  -0.0429326  -0.5478614), wk =   0.0046296
        k(  427) = (   1.5557349  -0.0429326  -0.4547997), wk =   0.0046296
        k(  428) = (   1.5557349  -0.0429326  -0.3617380), wk =   0.0046296
        k(  429) = (   1.5557349  -0.0429326  -0.2686763), wk =   0.0046296
        k(  430) = (   1.5557349  -0.0429326  -0.1756146), wk =   0.0046296
        k(  431) = (   1.5557349  -0.0429326  -0.0825530), wk =   0.0046296
        k(  432) = (   1.3828755  -0.0000000   0.0000000), wk =   0.0023148
        k(  433) = (   1.3828755  -0.0000000   0.0930617), wk =   0.0046296
        k(  434) = (   1.3828755  -0.0000000   0.1861234), wk =   0.0046296
        k(  435) = (   1.3828755  -0.0000000   0.2791850), wk =   0.0046296
        k(  436) = (   1.3828755  -0.0000000   0.3722467), wk =   0.0046296
        k(  437) = (   1.3828755  -0.0000000   0.4653084), wk =   0.0046296
        k(  438) = (   1.3828755  -0.0000000  -0.5583701), wk =   0.0023148
        k(  439) = (   0.0000000   0.4293256  -0.1050871), wk =   0.0023148
        k(  440) = (   0.0000000   0.4293256  -0.0120254), wk =   0.0023148
        k(  441) = (   0.0000000   0.4293256   0.0810363), wk =   0.0023148
        k(  442) = (   0.0000000   0.4293256   0.1740980), wk =   0.0023148
        k(  443) = (   0.0000000   0.4293256   0.2671596), wk =   0.0023148
        k(  444) = (   0.0000000   0.4293256   0.3602213), wk =   0.0023148
        k(  445) = (   0.0000000   0.4293256  -0.6634572), wk =   0.0023148
        k(  446) = (   0.0000000   0.4293256  -0.5703955), wk =   0.0023148
        k(  447) = (   0.0000000   0.4293256  -0.4773338), wk =   0.0023148
        k(  448) = (   0.0000000   0.4293256  -0.3842721), wk =   0.0023148
        k(  449) = (   0.0000000   0.4293256  -0.2912104), wk =   0.0023148
        k(  450) = (   0.0000000   0.4293256  -0.1981488), wk =   0.0023148
        k(  451) = (   1.9014538  -0.0429326   0.0105087), wk =   0.0046296
        k(  452) = (   1.9014538  -0.0429326   0.1035704), wk =   0.0046296
        k(  453) = (   1.9014538  -0.0429326   0.1966321), wk =   0.0046296
        k(  454) = (   1.9014538  -0.0429326   0.2896937), wk =   0.0046296
        k(  455) = (   1.9014538  -0.0429326   0.3827554), wk =   0.0046296
        k(  456) = (   1.9014538  -0.0429326   0.4758171), wk =   0.0046296
        k(  457) = (   1.9014538  -0.0429326  -0.5478614), wk =   0.0046296
        k(  458) = (   1.9014538  -0.0429326  -0.4547997), wk =   0.0046296
        k(  459) = (   1.9014538  -0.0429326  -0.3617380), wk =   0.0046296
        k(  460) = (   1.9014538  -0.0429326  -0.2686763), wk =   0.0046296
        k(  461) = (   1.9014538  -0.0429326  -0.1756146), wk =   0.0046296
        k(  462) = (   1.9014538  -0.0429326  -0.0825530), wk =   0.0046296
        k(  463) = (   1.7285944   0.0000000  -0.0000000), wk =   0.0023148
        k(  464) = (   1.7285944   0.0000000   0.0930617), wk =   0.0046296
        k(  465) = (   1.7285944   0.0000000   0.1861234), wk =   0.0046296
        k(  466) = (   1.7285944   0.0000000   0.2791850), wk =   0.0046296
        k(  467) = (   1.7285944   0.0000000   0.3722467), wk =   0.0046296
        k(  468) = (   1.7285944   0.0000000   0.4653084), wk =   0.0046296
        k(  469) = (   1.7285944   0.0000000  -0.5583701), wk =   0.0023148
        k(  470) = (   0.0000000  -0.5151908   0.1261045), wk =   0.0011574
        k(  471) = (   0.0000000  -0.5151908   0.2191662), wk =   0.0023148
        k(  472) = (   0.0000000  -0.5151908   0.3122279), wk =   0.0023148
        k(  473) = (   0.0000000  -0.5151908   0.4052895), wk =   0.0023148
        k(  474) = (   0.0000000  -0.5151908   0.4983512), wk =   0.0023148
        k(  475) = (   0.0000000  -0.5151908   0.5914129), wk =   0.0023148
        k(  476) = (   0.0000000  -0.5151908  -0.4322656), wk =   0.0011574

                       cryst. coord.
        k(    1) = (   0.0000000   0.0000000   0.0000000), wk =   0.0011574
        k(    2) = (   0.0000000   0.0000000   0.0833333), wk =   0.0023148
        k(    3) = (   0.0000000   0.0000000   0.1666667), wk =   0.0023148
        k(    4) = (   0.0000000   0.0000000   0.2500000), wk =   0.0023148
        k(    5) = (   0.0000000   0.0000000   0.3333333), wk =   0.0023148
        k(    6) = (   0.0000000   0.0000000   0.4166667), wk =   0.0023148
        k(    7) = (   0.0000000   0.0000000  -0.5000000), wk =   0.0011574
        k(    8) = (  -0.0000000   0.0833333   0.0000000), wk =   0.0046296
        k(    9) = (  -0.0000000   0.0833333   0.0833333), wk =   0.0046296
        k(   10) = (  -0.0000000   0.0833333   0.1666667), wk =   0.0046296
        k(   11) = (  -0.0000000   0.0833333   0.2500000), wk =   0.0046296
        k(   12) = (  -0.0000000   0.0833333   0.3333333), wk =   0.0046296
        k(   13) = (  -0.0000000   0.0833333   0.4166667), wk =   0.0046296
        k(   14) = (  -0.0000000   0.0833333  -0.5000000), wk =   0.0046296
        k(   15) = (  -0.0000000   0.0833333  -0.4166667), wk =   0.0046296
        k(   16) = (  -0.0000000   0.0833333  -0.3333333), wk =   0.0046296
        k(   17) = (  -0.0000000   0.0833333  -0.2500000), wk =   0.0046296
        k(   18) = (  -0.0000000   0.0833333  -0.1666667), wk =   0.0046296
        k(   19) = (  -0.0000000   0.0833333  -0.0833333), wk =   0.0046296
        k(   20) = (  -0.0000000   0.1666667   0.0000000), wk =   0.0046296
        k(   21) = (  -0.0000000   0.1666667   0.0833333), wk =   0.0046296
        k(   22) = (  -0.0000000   0.1666667   0.1666667), wk =   0.0046296
        k(   23) = (  -0.0000000   0.1666667   0.2500000), wk =   0.0046296
        k(   24) = (  -0.0000000   0.1666667   0.3333333), wk =   0.0046296
        k(   25) = (  -0.0000000   0.1666667   0.4166667), wk =   0.0046296
        k(   26) = (  -0.0000000   0.1666667  -0.5000000), wk =   0.0046296
        k(   27) = (  -0.0000000   0.1666667  -0.4166667), wk =   0.0046296
        k(   28) = (  -0.0000000   0.1666667  -0.3333333), wk =   0.0046296
        k(   29) = (  -0.0000000   0.1666667  -0.2500000), wk =   0.0046296
        k(   30) = (  -0.0000000   0.1666667  -0.1666667), wk =   0.0046296
        k(   31) = (  -0.0000000   0.1666667  -0.0833333), wk =   0.0046296
        k(   32) = (  -0.0000000   0.2500000   0.0000000), wk =   0.0046296
        k(   33) = (  -0.0000000   0.2500000   0.0833333), wk =   0.0046296
        k(   34) = (  -0.0000000   0.2500000   0.1666667), wk =   0.0046296
        k(   35) = (  -0.0000000   0.2500000   0.2500000), wk =   0.0046296
        k(   36) = (  -0.0000000   0.2500000   0.3333333), wk =   0.0046296
        k(   37) = (  -0.0000000   0.2500000   0.4166667), wk =   0.0046296
        k(   38) = (  -0.0000000   0.2500000  -0.5000000), wk =   0.0046296
        k(   39) = (  -0.0000000   0.2500000  -0.4166667), wk =   0.0046296
        k(   40) = (  -0.0000000   0.2500000  -0.3333333), wk =   0.0046296
        k(   41) = (  -0.0000000   0.2500000  -0.2500000), wk =   0.0046296
        k(   42) = (  -0.0000000   0.2500000  -0.1666667), wk =   0.0046296
        k(   43) = (  -0.0000000   0.2500000  -0.0833333), wk =   0.0046296
        k(   44) = (  -0.0000000   0.3333333   0.0000000), wk =   0.0046296
        k(   45) = (  -0.0000000   0.3333333   0.0833333), wk =   0.0046296
        k(   46) = (  -0.0000000   0.3333333   0.1666667), wk =   0.0046296
        k(   47) = (  -0.0000000   0.3333333   0.2500000), wk =   0.0046296
        k(   48) = (  -0.0000000   0.3333333   0.3333333), wk =   0.0046296
        k(   49) = (  -0.0000000   0.3333333   0.4166667), wk =   0.0046296
        k(   50) = (  -0.0000000   0.3333333  -0.5000000), wk =   0.0046296
        k(   51) = (  -0.0000000   0.3333333  -0.4166667), wk =   0.0046296
        k(   52) = (  -0.0000000   0.3333333  -0.3333333), wk =   0.0046296
        k(   53) = (  -0.0000000   0.3333333  -0.2500000), wk =   0.0046296
        k(   54) = (  -0.0000000   0.3333333  -0.1666667), wk =   0.0046296
        k(   55) = (  -0.0000000   0.3333333  -0.0833333), wk =   0.0046296
        k(   56) = (  -0.0000000   0.4166667   0.0000000), wk =   0.0046296
        k(   57) = (  -0.0000000   0.4166667   0.0833333), wk =   0.0046296
        k(   58) = (  -0.0000000   0.4166667   0.1666667), wk =   0.0046296
        k(   59) = (  -0.0000000   0.4166667   0.2500000), wk =   0.0046296
        k(   60) = (  -0.0000000   0.4166667   0.3333333), wk =   0.0046296
        k(   61) = (  -0.0000000   0.4166667   0.4166667), wk =   0.0046296
        k(   62) = (  -0.0000000   0.4166667  -0.5000000), wk =   0.0046296
        k(   63) = (  -0.0000000   0.4166667  -0.4166667), wk =   0.0046296
        k(   64) = (  -0.0000000   0.4166667  -0.3333333), wk =   0.0046296
        k(   65) = (  -0.0000000   0.4166667  -0.2500000), wk =   0.0046296
        k(   66) = (  -0.0000000   0.4166667  -0.1666667), wk =   0.0046296
        k(   67) = (  -0.0000000   0.4166667  -0.0833333), wk =   0.0046296
        k(   68) = (   0.0000000  -0.5000000  -0.0000000), wk =   0.0023148
        k(   69) = (   0.0000000  -0.5000000   0.0833333), wk =   0.0046296
        k(   70) = (   0.0000000  -0.5000000   0.1666667), wk =   0.0046296
        k(   71) = (   0.0000000  -0.5000000   0.2500000), wk =   0.0046296
        k(   72) = (   0.0000000  -0.5000000   0.3333333), wk =   0.0046296
        k(   73) = (   0.0000000  -0.5000000   0.4166667), wk =   0.0046296
        k(   74) = (   0.0000000  -0.5000000  -0.5000000), wk =   0.0023148
        k(   75) = (   0.0833333   0.0833333   0.0000000), wk =   0.0023148
        k(   76) = (   0.0833333   0.0833333   0.0833333), wk =   0.0023148
        k(   77) = (   0.0833333   0.0833333   0.1666667), wk =   0.0023148
        k(   78) = (   0.0833333   0.0833333   0.2500000), wk =   0.0023148
        k(   79) = (   0.0833333   0.0833333   0.3333333), wk =   0.0023148
        k(   80) = (   0.0833333   0.0833333   0.4166667), wk =   0.0023148
        k(   81) = (   0.0833333   0.0833333  -0.5000000), wk =   0.0023148
        k(   82) = (   0.0833333   0.0833333  -0.4166667), wk =   0.0023148
        k(   83) = (   0.0833333   0.0833333  -0.3333333), wk =   0.0023148
        k(   84) = (   0.0833333   0.0833333  -0.2500000), wk =   0.0023148
        k(   85) = (   0.0833333   0.0833333  -0.1666667), wk =   0.0023148
        k(   86) = (   0.0833333   0.0833333  -0.0833333), wk =   0.0023148
        k(   87) = (   0.0833333   0.1666667  -0.0000000), wk =   0.0046296
        k(   88) = (   0.0833333   0.1666667   0.0833333), wk =   0.0046296
        k(   89) = (   0.0833333   0.1666667   0.1666667), wk =   0.0046296
        k(   90) = (   0.0833333   0.1666667   0.2500000), wk =   0.0046296
        k(   91) = (   0.0833333   0.1666667   0.3333333), wk =   0.0046296
        k(   92) = (   0.0833333   0.1666667   0.4166667), wk =   0.0046296
        k(   93) = (   0.0833333   0.1666667  -0.5000000), wk =   0.0046296
        k(   94) = (   0.0833333   0.1666667  -0.4166667), wk =   0.0046296
        k(   95) = (   0.0833333   0.1666667  -0.3333333), wk =   0.0046296
        k(   96) = (   0.0833333   0.1666667  -0.2500000), wk =   0.0046296
        k(   97) = (   0.0833333   0.1666667  -0.1666667), wk =   0.0046296
        k(   98) = (   0.0833333   0.1666667  -0.0833333), wk =   0.0046296
        k(   99) = (   0.0833333   0.2500000   0.0000000), wk =   0.0046296
        k(  100) = (   0.0833333   0.2500000   0.0833333), wk =   0.0046296
        k(  101) = (   0.0833333   0.2500000   0.1666667), wk =   0.0046296
        k(  102) = (   0.0833333   0.2500000   0.2500000), wk =   0.0046296
        k(  103) = (   0.0833333   0.2500000   0.3333333), wk =   0.0046296
        k(  104) = (   0.0833333   0.2500000   0.4166667), wk =   0.0046296
        k(  105) = (   0.0833333   0.2500000  -0.5000000), wk =   0.0046296
        k(  106) = (   0.0833333   0.2500000  -0.4166667), wk =   0.0046296
        k(  107) = (   0.0833333   0.2500000  -0.3333333), wk =   0.0046296
        k(  108) = (   0.0833333   0.2500000  -0.2500000), wk =   0.0046296
        k(  109) = (   0.0833333   0.2500000  -0.1666667), wk =   0.0046296
        k(  110) = (   0.0833333   0.2500000  -0.0833333), wk =   0.0046296
        k(  111) = (   0.0833333   0.3333333   0.0000000), wk =   0.0046296
        k(  112) = (   0.0833333   0.3333333   0.0833333), wk =   0.0046296
        k(  113) = (   0.0833333   0.3333333   0.1666667), wk =   0.0046296
        k(  114) = (   0.0833333   0.3333333   0.2500000), wk =   0.0046296
        k(  115) = (   0.0833333   0.3333333   0.3333333), wk =   0.0046296
        k(  116) = (   0.0833333   0.3333333   0.4166667), wk =   0.0046296
        k(  117) = (   0.0833333   0.3333333  -0.5000000), wk =   0.0046296
        k(  118) = (   0.0833333   0.3333333  -0.4166667), wk =   0.0046296
        k(  119) = (   0.0833333   0.3333333  -0.3333333), wk =   0.0046296
        k(  120) = (   0.0833333   0.3333333  -0.2500000), wk =   0.0046296
        k(  121) = (   0.0833333   0.3333333  -0.1666667), wk =   0.0046296
        k(  122) = (   0.0833333   0.3333333  -0.0833333), wk =   0.0046296
        k(  123) = (   0.0833333   0.4166667   0.0000000), wk =   0.0046296
        k(  124) = (   0.0833333   0.4166667   0.0833333), wk =   0.0046296
        k(  125) = (   0.0833333   0.4166667   0.1666667), wk =   0.0046296
        k(  126) = (   0.0833333   0.4166667   0.2500000), wk =   0.0046296
        k(  127) = (   0.0833333   0.4166667   0.3333333), wk =   0.0046296
        k(  128) = (   0.0833333   0.4166667   0.4166667), wk =   0.0046296
        k(  129) = (   0.0833333   0.4166667  -0.5000000), wk =   0.0046296
        k(  130) = (   0.0833333   0.4166667  -0.4166667), wk =   0.0046296
        k(  131) = (   0.0833333   0.4166667  -0.3333333), wk =   0.0046296
        k(  132) = (   0.0833333   0.4166667  -0.2500000), wk =   0.0046296
        k(  133) = (   0.0833333   0.4166667  -0.1666667), wk =   0.0046296
        k(  134) = (   0.0833333   0.4166667  -0.0833333), wk =   0.0046296
        k(  135) = (   0.0833333  -0.5000000   0.0000000), wk =   0.0046296
        k(  136) = (   0.0833333  -0.5000000   0.0833333), wk =   0.0046296
        k(  137) = (   0.0833333  -0.5000000   0.1666667), wk =   0.0046296
        k(  138) = (   0.0833333  -0.5000000   0.2500000), wk =   0.0046296
        k(  139) = (   0.0833333  -0.5000000   0.3333333), wk =   0.0046296
        k(  140) = (   0.0833333  -0.5000000   0.4166667), wk =   0.0046296
        k(  141) = (   0.0833333  -0.5000000  -0.5000000), wk =   0.0046296
        k(  142) = (   0.0833333  -0.5000000  -0.4166667), wk =   0.0046296
        k(  143) = (   0.0833333  -0.5000000  -0.3333333), wk =   0.0046296
        k(  144) = (   0.0833333  -0.5000000  -0.2500000), wk =   0.0046296
        k(  145) = (   0.0833333  -0.5000000  -0.1666667), wk =   0.0046296
        k(  146) = (   0.0833333  -0.5000000  -0.0833333), wk =   0.0046296
        k(  147) = (   0.0833333  -0.4166667   0.0000000), wk =   0.0046296
        k(  148) = (   0.0833333  -0.4166667   0.0833333), wk =   0.0046296
        k(  149) = (   0.0833333  -0.4166667   0.1666667), wk =   0.0046296
        k(  150) = (   0.0833333  -0.4166667   0.2500000), wk =   0.0046296
        k(  151) = (   0.0833333  -0.4166667   0.3333333), wk =   0.0046296
        k(  152) = (   0.0833333  -0.4166667   0.4166667), wk =   0.0046296
        k(  153) = (   0.0833333  -0.4166667  -0.5000000), wk =   0.0046296
        k(  154) = (   0.0833333  -0.4166667  -0.4166667), wk =   0.0046296
        k(  155) = (   0.0833333  -0.4166667  -0.3333333), wk =   0.0046296
        k(  156) = (   0.0833333  -0.4166667  -0.2500000), wk =   0.0046296
        k(  157) = (   0.0833333  -0.4166667  -0.1666667), wk =   0.0046296
        k(  158) = (   0.0833333  -0.4166667  -0.0833333), wk =   0.0046296
        k(  159) = (   0.0833333  -0.3333333  -0.0000000), wk =   0.0046296
        k(  160) = (   0.0833333  -0.3333333   0.0833333), wk =   0.0046296
        k(  161) = (   0.0833333  -0.3333333   0.1666667), wk =   0.0046296
        k(  162) = (   0.0833333  -0.3333333   0.2500000), wk =   0.0046296
        k(  163) = (   0.0833333  -0.3333333   0.3333333), wk =   0.0046296
        k(  164) = (   0.0833333  -0.3333333   0.4166667), wk =   0.0046296
        k(  165) = (   0.0833333  -0.3333333  -0.5000000), wk =   0.0046296
        k(  166) = (   0.0833333  -0.3333333  -0.4166667), wk =   0.0046296
        k(  167) = (   0.0833333  -0.3333333  -0.3333333), wk =   0.0046296
        k(  168) = (   0.0833333  -0.3333333  -0.2500000), wk =   0.0046296
        k(  169) = (   0.0833333  -0.3333333  -0.1666667), wk =   0.0046296
        k(  170) = (   0.0833333  -0.3333333  -0.0833333), wk =   0.0046296
        k(  171) = (   0.0833333  -0.2500000  -0.0000000), wk =   0.0046296
        k(  172) = (   0.0833333  -0.2500000   0.0833333), wk =   0.0046296
        k(  173) = (   0.0833333  -0.2500000   0.1666667), wk =   0.0046296
        k(  174) = (   0.0833333  -0.2500000   0.2500000), wk =   0.0046296
        k(  175) = (   0.0833333  -0.2500000   0.3333333), wk =   0.0046296
        k(  176) = (   0.0833333  -0.2500000   0.4166667), wk =   0.0046296
        k(  177) = (   0.0833333  -0.2500000  -0.5000000), wk =   0.0046296
        k(  178) = (   0.0833333  -0.2500000  -0.4166667), wk =   0.0046296
        k(  179) = (   0.0833333  -0.2500000  -0.3333333), wk =   0.0046296
        k(  180) = (   0.0833333  -0.2500000  -0.2500000), wk =   0.0046296
        k(  181) = (   0.0833333  -0.2500000  -0.1666667), wk =   0.0046296
        k(  182) = (   0.0833333  -0.2500000  -0.0833333), wk =   0.0046296
        k(  183) = (   0.0833333  -0.1666667   0.0000000), wk =   0.0046296
        k(  184) = (   0.0833333  -0.1666667   0.0833333), wk =   0.0046296
        k(  185) = (   0.0833333  -0.1666667   0.1666667), wk =   0.0046296
        k(  186) = (   0.0833333  -0.1666667   0.2500000), wk =   0.0046296
        k(  187) = (   0.0833333  -0.1666667   0.3333333), wk =   0.0046296
        k(  188) = (   0.0833333  -0.1666667   0.4166667), wk =   0.0046296
        k(  189) = (   0.0833333  -0.1666667  -0.5000000), wk =   0.0046296
        k(  190) = (   0.0833333  -0.1666667  -0.4166667), wk =   0.0046296
        k(  191) = (   0.0833333  -0.1666667  -0.3333333), wk =   0.0046296
        k(  192) = (   0.0833333  -0.1666667  -0.2500000), wk =   0.0046296
        k(  193) = (   0.0833333  -0.1666667  -0.1666667), wk =   0.0046296
        k(  194) = (   0.0833333  -0.1666667  -0.0833333), wk =   0.0046296
        k(  195) = (   0.0833333  -0.0833333   0.0000000), wk =   0.0023148
        k(  196) = (   0.0833333  -0.0833333   0.0833333), wk =   0.0046296
        k(  197) = (   0.0833333  -0.0833333   0.1666667), wk =   0.0046296
        k(  198) = (   0.0833333  -0.0833333   0.2500000), wk =   0.0046296
        k(  199) = (   0.0833333  -0.0833333   0.3333333), wk =   0.0046296
        k(  200) = (   0.0833333  -0.0833333   0.4166667), wk =   0.0046296
        k(  201) = (   0.0833333  -0.0833333  -0.5000000), wk =   0.0023148
        k(  202) = (   0.1666667   0.1666667   0.0000000), wk =   0.0023148
        k(  203) = (   0.1666667   0.1666667   0.0833333), wk =   0.0023148
        k(  204) = (   0.1666667   0.1666667   0.1666667), wk =   0.0023148
        k(  205) = (   0.1666667   0.1666667   0.2500000), wk =   0.0023148
        k(  206) = (   0.1666667   0.1666667   0.3333333), wk =   0.0023148
        k(  207) = (   0.1666667   0.1666667   0.4166667), wk =   0.0023148
        k(  208) = (   0.1666667   0.1666667  -0.5000000), wk =   0.0023148
        k(  209) = (   0.1666667   0.1666667  -0.4166667), wk =   0.0023148
        k(  210) = (   0.1666667   0.1666667  -0.3333333), wk =   0.0023148
        k(  211) = (   0.1666667   0.1666667  -0.2500000), wk =   0.0023148
        k(  212) = (   0.1666667   0.1666667  -0.1666667), wk =   0.0023148
        k(  213) = (   0.1666667   0.1666667  -0.0833333), wk =   0.0023148
        k(  214) = (   0.1666667   0.2500000   0.0000000), wk =   0.0046296
        k(  215) = (   0.1666667   0.2500000   0.0833333), wk =   0.0046296
        k(  216) = (   0.1666667   0.2500000   0.1666667), wk =   0.0046296
        k(  217) = (   0.1666667   0.2500000   0.2500000), wk =   0.0046296
        k(  218) = (   0.1666667   0.2500000   0.3333333), wk =   0.0046296
        k(  219) = (   0.1666667   0.2500000   0.4166667), wk =   0.0046296
        k(  220) = (   0.1666667   0.2500000  -0.5000000), wk =   0.0046296
        k(  221) = (   0.1666667   0.2500000  -0.4166667), wk =   0.0046296
        k(  222) = (   0.1666667   0.2500000  -0.3333333), wk =   0.0046296
        k(  223) = (   0.1666667   0.2500000  -0.2500000), wk =   0.0046296
        k(  224) = (   0.1666667   0.2500000  -0.1666667), wk =   0.0046296
        k(  225) = (   0.1666667   0.2500000  -0.0833333), wk =   0.0046296
        k(  226) = (   0.1666667   0.3333333  -0.0000000), wk =   0.0046296
        k(  227) = (   0.1666667   0.3333333   0.0833333), wk =   0.0046296
        k(  228) = (   0.1666667   0.3333333   0.1666667), wk =   0.0046296
        k(  229) = (   0.1666667   0.3333333   0.2500000), wk =   0.0046296
        k(  230) = (   0.1666667   0.3333333   0.3333333), wk =   0.0046296
        k(  231) = (   0.1666667   0.3333333   0.4166667), wk =   0.0046296
        k(  232) = (   0.1666667   0.3333333  -0.5000000), wk =   0.0046296
        k(  233) = (   0.1666667   0.3333333  -0.4166667), wk =   0.0046296
        k(  234) = (   0.1666667   0.3333333  -0.3333333), wk =   0.0046296
        k(  235) = (   0.1666667   0.3333333  -0.2500000), wk =   0.0046296
        k(  236) = (   0.1666667   0.3333333  -0.1666667), wk =   0.0046296
        k(  237) = (   0.1666667   0.3333333  -0.0833333), wk =   0.0046296
        k(  238) = (   0.1666667   0.4166667   0.0000000), wk =   0.0046296
        k(  239) = (   0.1666667   0.4166667   0.0833333), wk =   0.0046296
        k(  240) = (   0.1666667   0.4166667   0.1666667), wk =   0.0046296
        k(  241) = (   0.1666667   0.4166667   0.2500000), wk =   0.0046296
        k(  242) = (   0.1666667   0.4166667   0.3333333), wk =   0.0046296
        k(  243) = (   0.1666667   0.4166667   0.4166667), wk =   0.0046296
        k(  244) = (   0.1666667   0.4166667  -0.5000000), wk =   0.0046296
        k(  245) = (   0.1666667   0.4166667  -0.4166667), wk =   0.0046296
        k(  246) = (   0.1666667   0.4166667  -0.3333333), wk =   0.0046296
        k(  247) = (   0.1666667   0.4166667  -0.2500000), wk =   0.0046296
        k(  248) = (   0.1666667   0.4166667  -0.1666667), wk =   0.0046296
        k(  249) = (   0.1666667   0.4166667  -0.0833333), wk =   0.0046296
        k(  250) = (   0.1666667  -0.5000000  -0.0000000), wk =   0.0046296
        k(  251) = (   0.1666667  -0.5000000   0.0833333), wk =   0.0046296
        k(  252) = (   0.1666667  -0.5000000   0.1666667), wk =   0.0046296
        k(  253) = (   0.1666667  -0.5000000   0.2500000), wk =   0.0046296
        k(  254) = (   0.1666667  -0.5000000   0.3333333), wk =   0.0046296
        k(  255) = (   0.1666667  -0.5000000   0.4166667), wk =   0.0046296
        k(  256) = (   0.1666667  -0.5000000  -0.5000000), wk =   0.0046296
        k(  257) = (   0.1666667  -0.5000000  -0.4166667), wk =   0.0046296
        k(  258) = (   0.1666667  -0.5000000  -0.3333333), wk =   0.0046296
        k(  259) = (   0.1666667  -0.5000000  -0.2500000), wk =   0.0046296
        k(  260) = (   0.1666667  -0.5000000  -0.1666667), wk =   0.0046296
        k(  261) = (   0.1666667  -0.5000000  -0.0833333), wk =   0.0046296
        k(  262) = (   0.1666667  -0.4166667  -0.0000000), wk =   0.0046296
        k(  263) = (   0.1666667  -0.4166667   0.0833333), wk =   0.0046296
        k(  264) = (   0.1666667  -0.4166667   0.1666667), wk =   0.0046296
        k(  265) = (   0.1666667  -0.4166667   0.2500000), wk =   0.0046296
        k(  266) = (   0.1666667  -0.4166667   0.3333333), wk =   0.0046296
        k(  267) = (   0.1666667  -0.4166667   0.4166667), wk =   0.0046296
        k(  268) = (   0.1666667  -0.4166667  -0.5000000), wk =   0.0046296
        k(  269) = (   0.1666667  -0.4166667  -0.4166667), wk =   0.0046296
        k(  270) = (   0.1666667  -0.4166667  -0.3333333), wk =   0.0046296
        k(  271) = (   0.1666667  -0.4166667  -0.2500000), wk =   0.0046296
        k(  272) = (   0.1666667  -0.4166667  -0.1666667), wk =   0.0046296
        k(  273) = (   0.1666667  -0.4166667  -0.0833333), wk =   0.0046296
        k(  274) = (   0.1666667  -0.3333333   0.0000000), wk =   0.0046296
        k(  275) = (   0.1666667  -0.3333333   0.0833333), wk =   0.0046296
        k(  276) = (   0.1666667  -0.3333333   0.1666667), wk =   0.0046296
        k(  277) = (   0.1666667  -0.3333333   0.2500000), wk =   0.0046296
        k(  278) = (   0.1666667  -0.3333333   0.3333333), wk =   0.0046296
        k(  279) = (   0.1666667  -0.3333333   0.4166667), wk =   0.0046296
        k(  280) = (   0.1666667  -0.3333333  -0.5000000), wk =   0.0046296
        k(  281) = (   0.1666667  -0.3333333  -0.4166667), wk =   0.0046296
        k(  282) = (   0.1666667  -0.3333333  -0.3333333), wk =   0.0046296
        k(  283) = (   0.1666667  -0.3333333  -0.2500000), wk =   0.0046296
        k(  284) = (   0.1666667  -0.3333333  -0.1666667), wk =   0.0046296
        k(  285) = (   0.1666667  -0.3333333  -0.0833333), wk =   0.0046296
        k(  286) = (   0.1666667  -0.2500000  -0.0000000), wk =   0.0046296
        k(  287) = (   0.1666667  -0.2500000   0.0833333), wk =   0.0046296
        k(  288) = (   0.1666667  -0.2500000   0.1666667), wk =   0.0046296
        k(  289) = (   0.1666667  -0.2500000   0.2500000), wk =   0.0046296
        k(  290) = (   0.1666667  -0.2500000   0.3333333), wk =   0.0046296
        k(  291) = (   0.1666667  -0.2500000   0.4166667), wk =   0.0046296
        k(  292) = (   0.1666667  -0.2500000  -0.5000000), wk =   0.0046296
        k(  293) = (   0.1666667  -0.2500000  -0.4166667), wk =   0.0046296
        k(  294) = (   0.1666667  -0.2500000  -0.3333333), wk =   0.0046296
        k(  295) = (   0.1666667  -0.2500000  -0.2500000), wk =   0.0046296
        k(  296) = (   0.1666667  -0.2500000  -0.1666667), wk =   0.0046296
        k(  297) = (   0.1666667  -0.2500000  -0.0833333), wk =   0.0046296
        k(  298) = (   0.1666667  -0.1666667  -0.0000000), wk =   0.0023148
        k(  299) = (   0.1666667  -0.1666667   0.0833333), wk =   0.0046296
        k(  300) = (   0.1666667  -0.1666667   0.1666667), wk =   0.0046296
        k(  301) = (   0.1666667  -0.1666667   0.2500000), wk =   0.0046296
        k(  302) = (   0.1666667  -0.1666667   0.3333333), wk =   0.0046296
        k(  303) = (   0.1666667  -0.1666667   0.4166667), wk =   0.0046296
        k(  304) = (   0.1666667  -0.1666667  -0.5000000), wk =   0.0023148
        k(  305) = (   0.2500000   0.2500000   0.0000000), wk =   0.0023148
        k(  306) = (   0.2500000   0.2500000   0.0833333), wk =   0.0023148
        k(  307) = (   0.2500000   0.2500000   0.1666667), wk =   0.0023148
        k(  308) = (   0.2500000   0.2500000   0.2500000), wk =   0.0023148
        k(  309) = (   0.2500000   0.2500000   0.3333333), wk =   0.0023148
        k(  310) = (   0.2500000   0.2500000   0.4166667), wk =   0.0023148
        k(  311) = (   0.2500000   0.2500000  -0.5000000), wk =   0.0023148
        k(  312) = (   0.2500000   0.2500000  -0.4166667), wk =   0.0023148
        k(  313) = (   0.2500000   0.2500000  -0.3333333), wk =   0.0023148
        k(  314) = (   0.2500000   0.2500000  -0.2500000), wk =   0.0023148
        k(  315) = (   0.2500000   0.2500000  -0.1666667), wk =   0.0023148
        k(  316) = (   0.2500000   0.2500000  -0.0833333), wk =   0.0023148
        k(  317) = (   0.2500000   0.3333333   0.0000000), wk =   0.0046296
        k(  318) = (   0.2500000   0.3333333   0.0833333), wk =   0.0046296
        k(  319) = (   0.2500000   0.3333333   0.1666667), wk =   0.0046296
        k(  320) = (   0.2500000   0.3333333   0.2500000), wk =   0.0046296
        k(  321) = (   0.2500000   0.3333333   0.3333333), wk =   0.0046296
        k(  322) = (   0.2500000   0.3333333   0.4166667), wk =   0.0046296
        k(  323) = (   0.2500000   0.3333333  -0.5000000), wk =   0.0046296
        k(  324) = (   0.2500000   0.3333333  -0.4166667), wk =   0.0046296
        k(  325) = (   0.2500000   0.3333333  -0.3333333), wk =   0.0046296
        k(  326) = (   0.2500000   0.3333333  -0.2500000), wk =   0.0046296
        k(  327) = (   0.2500000   0.3333333  -0.1666667), wk =   0.0046296
        k(  328) = (   0.2500000   0.3333333  -0.0833333), wk =   0.0046296
        k(  329) = (   0.2500000   0.4166667   0.0000000), wk =   0.0046296
        k(  330) = (   0.2500000   0.4166667   0.0833333), wk =   0.0046296
        k(  331) = (   0.2500000   0.4166667   0.1666667), wk =   0.0046296
        k(  332) = (   0.2500000   0.4166667   0.2500000), wk =   0.0046296
        k(  333) = (   0.2500000   0.4166667   0.3333333), wk =   0.0046296
        k(  334) = (   0.2500000   0.4166667   0.4166667), wk =   0.0046296
        k(  335) = (   0.2500000   0.4166667  -0.5000000), wk =   0.0046296
        k(  336) = (   0.2500000   0.4166667  -0.4166667), wk =   0.0046296
        k(  337) = (   0.2500000   0.4166667  -0.3333333), wk =   0.0046296
        k(  338) = (   0.2500000   0.4166667  -0.2500000), wk =   0.0046296
        k(  339) = (   0.2500000   0.4166667  -0.1666667), wk =   0.0046296
        k(  340) = (   0.2500000   0.4166667  -0.0833333), wk =   0.0046296
        k(  341) = (   0.2500000  -0.5000000  -0.0000000), wk =   0.0046296
        k(  342) = (   0.2500000  -0.5000000   0.0833333), wk =   0.0046296
        k(  343) = (   0.2500000  -0.5000000   0.1666667), wk =   0.0046296
        k(  344) = (   0.2500000  -0.5000000   0.2500000), wk =   0.0046296
        k(  345) = (   0.2500000  -0.5000000   0.3333333), wk =   0.0046296
        k(  346) = (   0.2500000  -0.5000000   0.4166667), wk =   0.0046296
        k(  347) = (   0.2500000  -0.5000000  -0.5000000), wk =   0.0046296
        k(  348) = (   0.2500000  -0.5000000  -0.4166667), wk =   0.0046296
        k(  349) = (   0.2500000  -0.5000000  -0.3333333), wk =   0.0046296
        k(  350) = (   0.2500000  -0.5000000  -0.2500000), wk =   0.0046296
        k(  351) = (   0.2500000  -0.5000000  -0.1666667), wk =   0.0046296
        k(  352) = (   0.2500000  -0.5000000  -0.0833333), wk =   0.0046296
        k(  353) = (   0.2500000  -0.4166667  -0.0000000), wk =   0.0046296
        k(  354) = (   0.2500000  -0.4166667   0.0833333), wk =   0.0046296
        k(  355) = (   0.2500000  -0.4166667   0.1666667), wk =   0.0046296
        k(  356) = (   0.2500000  -0.4166667   0.2500000), wk =   0.0046296
        k(  357) = (   0.2500000  -0.4166667   0.3333333), wk =   0.0046296
        k(  358) = (   0.2500000  -0.4166667   0.4166667), wk =   0.0046296
        k(  359) = (   0.2500000  -0.4166667  -0.5000000), wk =   0.0046296
        k(  360) = (   0.2500000  -0.4166667  -0.4166667), wk =   0.0046296
        k(  361) = (   0.2500000  -0.4166667  -0.3333333), wk =   0.0046296
        k(  362) = (   0.2500000  -0.4166667  -0.2500000), wk =   0.0046296
        k(  363) = (   0.2500000  -0.4166667  -0.1666667), wk =   0.0046296
        k(  364) = (   0.2500000  -0.4166667  -0.0833333), wk =   0.0046296
        k(  365) = (   0.2500000  -0.3333333   0.0000000), wk =   0.0046296
        k(  366) = (   0.2500000  -0.3333333   0.0833333), wk =   0.0046296
        k(  367) = (   0.2500000  -0.3333333   0.1666667), wk =   0.0046296
        k(  368) = (   0.2500000  -0.3333333   0.2500000), wk =   0.0046296
        k(  369) = (   0.2500000  -0.3333333   0.3333333), wk =   0.0046296
        k(  370) = (   0.2500000  -0.3333333   0.4166667), wk =   0.0046296
        k(  371) = (   0.2500000  -0.3333333  -0.5000000), wk =   0.0046296
        k(  372) = (   0.2500000  -0.3333333  -0.4166667), wk =   0.0046296
        k(  373) = (   0.2500000  -0.3333333  -0.3333333), wk =   0.0046296
        k(  374) = (   0.2500000  -0.3333333  -0.2500000), wk =   0.0046296
        k(  375) = (   0.2500000  -0.3333333  -0.1666667), wk =   0.0046296
        k(  376) = (   0.2500000  -0.3333333  -0.0833333), wk =   0.0046296
        k(  377) = (   0.2500000  -0.2500000   0.0000000), wk =   0.0023148
        k(  378) = (   0.2500000  -0.2500000   0.0833333), wk =   0.0046296
        k(  379) = (   0.2500000  -0.2500000   0.1666667), wk =   0.0046296
        k(  380) = (   0.2500000  -0.2500000   0.2500000), wk =   0.0046296
        k(  381) = (   0.2500000  -0.2500000   0.3333333), wk =   0.0046296
        k(  382) = (   0.2500000  -0.2500000   0.4166667), wk =   0.0046296
        k(  383) = (   0.2500000  -0.2500000  -0.5000000), wk =   0.0023148
        k(  384) = (   0.3333333   0.3333333   0.0000000), wk =   0.0023148
        k(  385) = (   0.3333333   0.3333333   0.0833333), wk =   0.0023148
        k(  386) = (   0.3333333   0.3333333   0.1666667), wk =   0.0023148
        k(  387) = (   0.3333333   0.3333333   0.2500000), wk =   0.0023148
        k(  388) = (   0.3333333   0.3333333   0.3333333), wk =   0.0023148
        k(  389) = (   0.3333333   0.3333333   0.4166667), wk =   0.0023148
        k(  390) = (   0.3333333   0.3333333  -0.5000000), wk =   0.0023148
        k(  391) = (   0.3333333   0.3333333  -0.4166667), wk =   0.0023148
        k(  392) = (   0.3333333   0.3333333  -0.3333333), wk =   0.0023148
        k(  393) = (   0.3333333   0.3333333  -0.2500000), wk =   0.0023148
        k(  394) = (   0.3333333   0.3333333  -0.1666667), wk =   0.0023148
        k(  395) = (   0.3333333   0.3333333  -0.0833333), wk =   0.0023148
        k(  396) = (   0.3333333   0.4166667   0.0000000), wk =   0.0046296
        k(  397) = (   0.3333333   0.4166667   0.0833333), wk =   0.0046296
        k(  398) = (   0.3333333   0.4166667   0.1666667), wk =   0.0046296
        k(  399) = (   0.3333333   0.4166667   0.2500000), wk =   0.0046296
        k(  400) = (   0.3333333   0.4166667   0.3333333), wk =   0.0046296
        k(  401) = (   0.3333333   0.4166667   0.4166667), wk =   0.0046296
        k(  402) = (   0.3333333   0.4166667  -0.5000000), wk =   0.0046296
        k(  403) = (   0.3333333   0.4166667  -0.4166667), wk =   0.0046296
        k(  404) = (   0.3333333   0.4166667  -0.3333333), wk =   0.0046296
        k(  405) = (   0.3333333   0.4166667  -0.2500000), wk =   0.0046296
        k(  406) = (   0.3333333   0.4166667  -0.1666667), wk =   0.0046296
        k(  407) = (   0.3333333   0.4166667  -0.0833333), wk =   0.0046296
        k(  408) = (   0.3333333  -0.5000000  -0.0000000), wk =   0.0046296
        k(  409) = (   0.3333333  -0.5000000   0.0833333), wk =   0.0046296
        k(  410) = (   0.3333333  -0.5000000   0.1666667), wk =   0.0046296
        k(  411) = (   0.3333333  -0.5000000   0.2500000), wk =   0.0046296
        k(  412) = (   0.3333333  -0.5000000   0.3333333), wk =   0.0046296
        k(  413) = (   0.3333333  -0.5000000   0.4166667), wk =   0.0046296
        k(  414) = (   0.3333333  -0.5000000  -0.5000000), wk =   0.0046296
        k(  415) = (   0.3333333  -0.5000000  -0.4166667), wk =   0.0046296
        k(  416) = (   0.3333333  -0.5000000  -0.3333333), wk =   0.0046296
        k(  417) = (   0.3333333  -0.5000000  -0.2500000), wk =   0.0046296
        k(  418) = (   0.3333333  -0.5000000  -0.1666667), wk =   0.0046296
        k(  419) = (   0.3333333  -0.5000000  -0.0833333), wk =   0.0046296
        k(  420) = (   0.3333333  -0.4166667  -0.0000000), wk =   0.0046296
        k(  421) = (   0.3333333  -0.4166667   0.0833333), wk =   0.0046296
        k(  422) = (   0.3333333  -0.4166667   0.1666667), wk =   0.0046296
        k(  423) = (   0.3333333  -0.4166667   0.2500000), wk =   0.0046296
        k(  424) = (   0.3333333  -0.4166667   0.3333333), wk =   0.0046296
        k(  425) = (   0.3333333  -0.4166667   0.4166667), wk =   0.0046296
        k(  426) = (   0.3333333  -0.4166667  -0.5000000), wk =   0.0046296
        k(  427) = (   0.3333333  -0.4166667  -0.4166667), wk =   0.0046296
        k(  428) = (   0.3333333  -0.4166667  -0.3333333), wk =   0.0046296
        k(  429) = (   0.3333333  -0.4166667  -0.2500000), wk =   0.0046296
        k(  430) = (   0.3333333  -0.4166667  -0.1666667), wk =   0.0046296
        k(  431) = (   0.3333333  -0.4166667  -0.0833333), wk =   0.0046296
        k(  432) = (   0.3333333  -0.3333333   0.0000000), wk =   0.0023148
        k(  433) = (   0.3333333  -0.3333333   0.0833333), wk =   0.0046296
        k(  434) = (   0.3333333  -0.3333333   0.1666667), wk =   0.0046296
        k(  435) = (   0.3333333  -0.3333333   0.2500000), wk =   0.0046296
        k(  436) = (   0.3333333  -0.3333333   0.3333333), wk =   0.0046296
        k(  437) = (   0.3333333  -0.3333333   0.4166667), wk =   0.0046296
        k(  438) = (   0.3333333  -0.3333333  -0.5000000), wk =   0.0023148
        k(  439) = (   0.4166667   0.4166667   0.0000000), wk =   0.0023148
        k(  440) = (   0.4166667   0.4166667   0.0833333), wk =   0.0023148
        k(  441) = (   0.4166667   0.4166667   0.1666667), wk =   0.0023148
        k(  442) = (   0.4166667   0.4166667   0.2500000), wk =   0.0023148
        k(  443) = (   0.4166667   0.4166667   0.3333333), wk =   0.0023148
        k(  444) = (   0.4166667   0.4166667   0.4166667), wk =   0.0023148
        k(  445) = (   0.4166667   0.4166667  -0.5000000), wk =   0.0023148
        k(  446) = (   0.4166667   0.4166667  -0.4166667), wk =   0.0023148
        k(  447) = (   0.4166667   0.4166667  -0.3333333), wk =   0.0023148
        k(  448) = (   0.4166667   0.4166667  -0.2500000), wk =   0.0023148
        k(  449) = (   0.4166667   0.4166667  -0.1666667), wk =   0.0023148
        k(  450) = (   0.4166667   0.4166667  -0.0833333), wk =   0.0023148
        k(  451) = (   0.4166667  -0.5000000   0.0000000), wk =   0.0046296
        k(  452) = (   0.4166667  -0.5000000   0.0833333), wk =   0.0046296
        k(  453) = (   0.4166667  -0.5000000   0.1666667), wk =   0.0046296
        k(  454) = (   0.4166667  -0.5000000   0.2500000), wk =   0.0046296
        k(  455) = (   0.4166667  -0.5000000   0.3333333), wk =   0.0046296
        k(  456) = (   0.4166667  -0.5000000   0.4166667), wk =   0.0046296
        k(  457) = (   0.4166667  -0.5000000  -0.5000000), wk =   0.0046296
        k(  458) = (   0.4166667  -0.5000000  -0.4166667), wk =   0.0046296
        k(  459) = (   0.4166667  -0.5000000  -0.3333333), wk =   0.0046296
        k(  460) = (   0.4166667  -0.5000000  -0.2500000), wk =   0.0046296
        k(  461) = (   0.4166667  -0.5000000  -0.1666667), wk =   0.0046296
        k(  462) = (   0.4166667  -0.5000000  -0.0833333), wk =   0.0046296
        k(  463) = (   0.4166667  -0.4166667  -0.0000000), wk =   0.0023148
        k(  464) = (   0.4166667  -0.4166667   0.0833333), wk =   0.0046296
        k(  465) = (   0.4166667  -0.4166667   0.1666667), wk =   0.0046296
        k(  466) = (   0.4166667  -0.4166667   0.2500000), wk =   0.0046296
        k(  467) = (   0.4166667  -0.4166667   0.3333333), wk =   0.0046296
        k(  468) = (   0.4166667  -0.4166667   0.4166667), wk =   0.0046296
        k(  469) = (   0.4166667  -0.4166667  -0.5000000), wk =   0.0023148
        k(  470) = (  -0.5000000  -0.5000000  -0.0000000), wk =   0.0011574
        k(  471) = (  -0.5000000  -0.5000000   0.0833333), wk =   0.0023148
        k(  472) = (  -0.5000000  -0.5000000   0.1666667), wk =   0.0023148
        k(  473) = (  -0.5000000  -0.5000000   0.2500000), wk =   0.0023148
        k(  474) = (  -0.5000000  -0.5000000   0.3333333), wk =   0.0023148
        k(  475) = (  -0.5000000  -0.5000000   0.4166667), wk =   0.0023148
        k(  476) = (  -0.5000000  -0.5000000  -0.5000000), wk =   0.0011574

     Dense  grid:   193033 G-vectors     FFT dimensions: (  96,  96,  90)

     Smooth grid:    68259 G-vectors     FFT dimensions: (  72,  72,  64)

     Dynamical RAM for                 wfc:       0.15 MB

     Dynamical RAM for     wfc (w. buffer):      71.74 MB

     Dynamical RAM for           str. fact:       0.16 MB

     Dynamical RAM for           local pot:       0.00 MB

     Dynamical RAM for          nlocal pot:       0.41 MB

     Dynamical RAM for                qrad:       4.06 MB

     Dynamical RAM for          rho,v,vnew:       0.87 MB

     Dynamical RAM for               rhoin:       0.29 MB

     Dynamical RAM for            rho*nmix:       1.24 MB

     Dynamical RAM for           G-vectors:       0.30 MB

     Dynamical RAM for          h,s,v(r/c):       0.01 MB

     Dynamical RAM for          <psi|beta>:       0.08 MB

     Dynamical RAM for                 psi:       0.30 MB

     Dynamical RAM for                hpsi:       0.30 MB

     Dynamical RAM for                spsi:       0.30 MB

     Dynamical RAM for      wfcinit/wfcrot:       0.49 MB

     Dynamical RAM for           addusdens:      14.89 MB

     Dynamical RAM for          addusforce:      15.72 MB

     Dynamical RAM for         addusstress:      15.58 MB

     Estimated static dynamical RAM per process >      79.11 MB

     Estimated max dynamical RAM per process >      96.07 MB

     Estimated total dynamical RAM >       3.57 GB

     Initial potential from superposition of free atoms

     starting charge      87.9882, renormalised to      88.0000
     Starting wfcs are   60 randomized atomic wfcs
     Checking if some PAW data can be deallocated... 
       PAW data deallocated on   22 nodes for type:  1
       PAW data deallocated on   16 nodes for type:  2

     total cpu time spent up to now is       12.3 secs

     Self-consistent Calculation

     iteration #  1     ecut=    80.00 Ry     beta= 0.20
     Davidson diagonalization with overlap

---- Real-time Memory Report at c_bands before calling an iterative solver
           236 MiB given to the printing process from OS
             0 MiB allocation reported by mallinfo(arena+hblkhd)
        368376 MiB available memory on the node where the printing process lives
------------------
     ethr =  1.00E-02,  avg # of iterations =  1.0

     total cpu time spent up to now is       32.0 secs

     total energy              =   -1361.38749276 Ry
     estimated scf accuracy    <       2.69464301 Ry

     iteration #  2     ecut=    80.00 Ry     beta= 0.20
     Davidson diagonalization with overlap

---- Real-time Memory Report at c_bands before calling an iterative solver
           253 MiB given to the printing process from OS
             0 MiB allocation reported by mallinfo(arena+hblkhd)
        367868 MiB available memory on the node where the printing process lives
------------------
     ethr =  3.06E-03,  avg # of iterations =  2.0

     total cpu time spent up to now is       59.8 secs

     total energy              =   -1361.28672803 Ry
     estimated scf accuracy    <       0.80161945 Ry

     iteration #  3     ecut=    80.00 Ry     beta= 0.20
     Davidson diagonalization with overlap

---- Real-time Memory Report at c_bands before calling an iterative solver
           254 MiB given to the printing process from OS
             0 MiB allocation reported by mallinfo(arena+hblkhd)
        367870 MiB available memory on the node where the printing process lives
------------------
     c_bands:  1 eigenvalues not converged
     ethr =  9.11E-04,  avg # of iterations = 11.7

     total cpu time spent up to now is      128.6 secs

     total energy              =   -1361.95416349 Ry
     estimated scf accuracy    <       0.21822869 Ry

     iteration #  4     ecut=    80.00 Ry     beta= 0.20
     Davidson diagonalization with overlap

---- Real-time Memory Report at c_bands before calling an iterative solver
           255 MiB given to the printing process from OS
             0 MiB allocation reported by mallinfo(arena+hblkhd)
        367864 MiB available memory on the node where the printing process lives
------------------
     c_bands:  2 eigenvalues not converged
     c_bands:  1 eigenvalues not converged
     c_bands:  1 eigenvalues not converged
     c_bands:  1 eigenvalues not converged
     c_bands:  1 eigenvalues not converged
     c_bands:  1 eigenvalues not converged
     c_bands:  1 eigenvalues not converged
     ethr =  2.48E-04,  avg # of iterations = 12.7

     total cpu time spent up to now is      203.1 secs

     total energy              =   -1362.11468424 Ry
     estimated scf accuracy    <       0.30185269 Ry

     iteration #  5     ecut=    80.00 Ry     beta= 0.20
     Davidson diagonalization with overlap

---- Real-time Memory Report at c_bands before calling an iterative solver
           255 MiB given to the printing process from OS
             0 MiB allocation reported by mallinfo(arena+hblkhd)
        367828 MiB available memory on the node where the printing process lives
------------------
     ethr =  2.48E-04,  avg # of iterations =  2.1

     total cpu time spent up to now is      228.3 secs

     total energy              =   -1362.06619870 Ry
     estimated scf accuracy    <       0.24107532 Ry

     iteration #  6     ecut=    80.00 Ry     beta= 0.20
     Davidson diagonalization with overlap

---- Real-time Memory Report at c_bands before calling an iterative solver
           255 MiB given to the printing process from OS
             0 MiB allocation reported by mallinfo(arena+hblkhd)
        367827 MiB available memory on the node where the printing process lives
------------------
     ethr =  2.48E-04,  avg # of iterations =  5.0

     total cpu time spent up to now is      272.8 secs

     total energy              =   -1362.15844833 Ry
     estimated scf accuracy    <       0.55009035 Ry

     iteration #  7     ecut=    80.00 Ry     beta= 0.20
     Davidson diagonalization with overlap

---- Real-time Memory Report at c_bands before calling an iterative solver
           258 MiB given to the printing process from OS
             0 MiB allocation reported by mallinfo(arena+hblkhd)
        367822 MiB available memory on the node where the printing process lives
------------------
     ethr =  2.48E-04,  avg # of iterations =  1.2

     total cpu time spent up to now is      294.7 secs

     total energy              =   -1362.11045384 Ry
     estimated scf accuracy    <       0.45639985 Ry

     iteration #  8     ecut=    80.00 Ry     beta= 0.20
     Davidson diagonalization with overlap

---- Real-time Memory Report at c_bands before calling an iterative solver
           265 MiB given to the printing process from OS
             0 MiB allocation reported by mallinfo(arena+hblkhd)
        367823 MiB available memory on the node where the printing process lives
------------------
     ethr =  2.48E-04,  avg # of iterations =  2.5

     total cpu time spent up to now is      323.3 secs

     total energy              =   -1362.13047840 Ry
     estimated scf accuracy    <       0.46168417 Ry

     iteration #  9     ecut=    80.00 Ry     beta= 0.20
     Davidson diagonalization with overlap

---- Real-time Memory Report at c_bands before calling an iterative solver
           270 MiB given to the printing process from OS
             0 MiB allocation reported by mallinfo(arena+hblkhd)
        367812 MiB available memory on the node where the printing process lives
------------------
     ethr =  2.48E-04,  avg # of iterations =  5.8

     total cpu time spent up to now is      372.1 secs

     total energy              =   -1362.30776606 Ry
     estimated scf accuracy    <       1.15148710 Ry

     iteration # 10     ecut=    80.00 Ry     beta= 0.20
     Davidson diagonalization with overlap

---- Real-time Memory Report at c_bands before calling an iterative solver
           270 MiB given to the printing process from OS
             0 MiB allocation reported by mallinfo(arena+hblkhd)
        367815 MiB available memory on the node where the printing process lives
------------------
     ethr =  2.48E-04,  avg # of iterations =  1.3

     total cpu time spent up to now is      394.3 secs

     total energy              =   -1362.27524533 Ry
     estimated scf accuracy    <       1.20823036 Ry

     iteration # 11     ecut=    80.00 Ry     beta= 0.20
     Davidson diagonalization with overlap

---- Real-time Memory Report at c_bands before calling an iterative solver
           271 MiB given to the printing process from OS
             0 MiB allocation reported by mallinfo(arena+hblkhd)
        367811 MiB available memory on the node where the printing process lives
------------------
     ethr =  2.48E-04,  avg # of iterations =  1.2

     total cpu time spent up to now is      416.0 secs

     total energy              =   -1362.25050890 Ry
     estimated scf accuracy    <       1.26072614 Ry

     iteration # 12     ecut=    80.00 Ry     beta= 0.20
     Davidson diagonalization with overlap

---- Real-time Memory Report at c_bands before calling an iterative solver
           271 MiB given to the printing process from OS
             0 MiB allocation reported by mallinfo(arena+hblkhd)
        367795 MiB available memory on the node where the printing process lives
------------------
     ethr =  2.48E-04,  avg # of iterations =  1.3

     total cpu time spent up to now is      438.2 secs

     total energy              =   -1362.49753679 Ry
     estimated scf accuracy    <       0.99037176 Ry

     iteration # 13     ecut=    80.00 Ry     beta= 0.20
     Davidson diagonalization with overlap

---- Real-time Memory Report at c_bands before calling an iterative solver
           271 MiB given to the printing process from OS
             0 MiB allocation reported by mallinfo(arena+hblkhd)
        367790 MiB available memory on the node where the printing process lives
------------------
     ethr =  2.48E-04,  avg # of iterations =  5.0

     total cpu time spent up to now is      480.8 secs

     total energy              =   -1362.53814009 Ry
     estimated scf accuracy    <       1.48398705 Ry

     iteration # 14     ecut=    80.00 Ry     beta= 0.20
     Davidson diagonalization with overlap

---- Real-time Memory Report at c_bands before calling an iterative solver
           271 MiB given to the printing process from OS
             0 MiB allocation reported by mallinfo(arena+hblkhd)
        367778 MiB available memory on the node where the printing process lives
------------------
     ethr =  2.48E-04,  avg # of iterations =  1.1

     total cpu time spent up to now is      502.1 secs

     total energy              =   -1362.36671623 Ry
     estimated scf accuracy    <       1.36926335 Ry

     iteration # 15     ecut=    80.00 Ry     beta= 0.20
     Davidson diagonalization with overlap

---- Real-time Memory Report at c_bands before calling an iterative solver
           271 MiB given to the printing process from OS
             0 MiB allocation reported by mallinfo(arena+hblkhd)
        367780 MiB available memory on the node where the printing process lives
------------------
     ethr =  2.48E-04,  avg # of iterations =  1.2

     total cpu time spent up to now is      523.8 secs

     total energy              =   -1362.29992479 Ry
     estimated scf accuracy    <       1.01610682 Ry

     iteration # 16     ecut=    80.00 Ry     beta= 0.20
     Davidson diagonalization with overlap

---- Real-time Memory Report at c_bands before calling an iterative solver
           271 MiB given to the printing process from OS
             0 MiB allocation reported by mallinfo(arena+hblkhd)
        367779 MiB available memory on the node where the printing process lives
------------------
     ethr =  2.48E-04,  avg # of iterations =  2.0

     total cpu time spent up to now is      550.5 secs

     total energy              =   -1362.12627073 Ry
     estimated scf accuracy    <       0.69458818 Ry

     iteration # 17     ecut=    80.00 Ry     beta= 0.20
     Davidson diagonalization with overlap

---- Real-time Memory Report at c_bands before calling an iterative solver
           271 MiB given to the printing process from OS
             0 MiB allocation reported by mallinfo(arena+hblkhd)
        367775 MiB available memory on the node where the printing process lives
------------------
     ethr =  2.48E-04,  avg # of iterations =  4.6

     total cpu time spent up to now is      586.3 secs

     total energy              =   -1362.03407930 Ry
     estimated scf accuracy    <       0.24537364 Ry

     iteration # 18     ecut=    80.00 Ry     beta= 0.20
     Davidson diagonalization with overlap

---- Real-time Memory Report at c_bands before calling an iterative solver
           271 MiB given to the printing process from OS
             0 MiB allocation reported by mallinfo(arena+hblkhd)
        367751 MiB available memory on the node where the printing process lives
------------------
     ethr =  2.48E-04,  avg # of iterations =  5.0

     total cpu time spent up to now is      629.4 secs

     total energy              =   -1362.12576471 Ry
     estimated scf accuracy    <       0.09266183 Ry

     iteration # 19     ecut=    80.00 Ry     beta= 0.20
     Davidson diagonalization with overlap

---- Real-time Memory Report at c_bands before calling an iterative solver
           271 MiB given to the printing process from OS
             0 MiB allocation reported by mallinfo(arena+hblkhd)
        367744 MiB available memory on the node where the printing process lives
------------------
     ethr =  1.05E-04,  avg # of iterations =  6.0

     total cpu time spent up to now is      680.5 secs

     total energy              =   -1362.19097011 Ry
     estimated scf accuracy    <       0.14296118 Ry

     iteration # 20     ecut=    80.00 Ry     beta= 0.20
     Davidson diagonalization with overlap

---- Real-time Memory Report at c_bands before calling an iterative solver
           271 MiB given to the printing process from OS
             0 MiB allocation reported by mallinfo(arena+hblkhd)
        367762 MiB available memory on the node where the printing process lives
------------------
     ethr =  1.05E-04,  avg # of iterations =  1.0

     total cpu time spent up to now is      701.8 secs

     total energy              =   -1362.16737225 Ry
     estimated scf accuracy    <       0.08817880 Ry

     iteration # 21     ecut=    80.00 Ry     beta= 0.20
     Davidson diagonalization with overlap

---- Real-time Memory Report at c_bands before calling an iterative solver
           271 MiB given to the printing process from OS
             0 MiB allocation reported by mallinfo(arena+hblkhd)
        367761 MiB available memory on the node where the printing process lives
------------------
     ethr =  1.00E-04,  avg # of iterations =  2.0

     total cpu time spent up to now is      727.2 secs

     total energy              =   -1362.17032706 Ry
     estimated scf accuracy    <       0.02884345 Ry

     iteration # 22     ecut=    80.00 Ry     beta= 0.20
     Davidson diagonalization with overlap

---- Real-time Memory Report at c_bands before calling an iterative solver
           271 MiB given to the printing process from OS
             0 MiB allocation reported by mallinfo(arena+hblkhd)
        367755 MiB available memory on the node where the printing process lives
------------------
     ethr =  3.28E-05,  avg # of iterations =  2.2

     total cpu time spent up to now is      753.8 secs

     total energy              =   -1362.16887074 Ry
     estimated scf accuracy    <       0.01740334 Ry

     iteration # 23     ecut=    80.00 Ry     beta= 0.20
     Davidson diagonalization with overlap

---- Real-time Memory Report at c_bands before calling an iterative solver
           271 MiB given to the printing process from OS
             0 MiB allocation reported by mallinfo(arena+hblkhd)
        367751 MiB available memory on the node where the printing process lives
------------------
     ethr =  1.98E-05,  avg # of iterations =  5.6

     total cpu time spent up to now is      792.8 secs

     total energy              =   -1362.17496431 Ry
     estimated scf accuracy    <       0.00144185 Ry

     iteration # 24     ecut=    80.00 Ry     beta= 0.20
     Davidson diagonalization with overlap

---- Real-time Memory Report at c_bands before calling an iterative solver
           271 MiB given to the printing process from OS
             0 MiB allocation reported by mallinfo(arena+hblkhd)
        367750 MiB available memory on the node where the printing process lives
------------------
     c_bands:  2 eigenvalues not converged
     c_bands:  2 eigenvalues not converged
     c_bands:  2 eigenvalues not converged
     c_bands:  2 eigenvalues not converged
     c_bands:  1 eigenvalues not converged
     c_bands:  5 eigenvalues not converged
     c_bands:  2 eigenvalues not converged
     c_bands:  2 eigenvalues not converged
     c_bands:  1 eigenvalues not converged
     c_bands:  1 eigenvalues not converged
     c_bands:  1 eigenvalues not converged
     c_bands:  1 eigenvalues not converged
     c_bands:  1 eigenvalues not converged
     c_bands:  2 eigenvalues not converged
     c_bands:  1 eigenvalues not converged
     c_bands:  1 eigenvalues not converged
     c_bands:  1 eigenvalues not converged
     c_bands:  4 eigenvalues not converged
     c_bands:  4 eigenvalues not converged
     c_bands:  1 eigenvalues not converged
     c_bands:  1 eigenvalues not converged
     c_bands:  2 eigenvalues not converged
     c_bands:  1 eigenvalues not converged
     c_bands:  3 eigenvalues not converged
     c_bands:  1 eigenvalues not converged
     c_bands:  1 eigenvalues not converged
     c_bands:  4 eigenvalues not converged
     c_bands:  3 eigenvalues not converged
     c_bands:  1 eigenvalues not converged
     ethr =  1.64E-06,  avg # of iterations = 13.3

     total cpu time spent up to now is      893.1 secs

     total energy              =   -1362.17529505 Ry
     estimated scf accuracy    <       0.00395427 Ry

     iteration # 25     ecut=    80.00 Ry     beta= 0.20
     Davidson diagonalization with overlap

---- Real-time Memory Report at c_bands before calling an iterative solver
           271 MiB given to the printing process from OS
             0 MiB allocation reported by mallinfo(arena+hblkhd)
        367729 MiB available memory on the node where the printing process lives
------------------
     c_bands:  1 eigenvalues not converged
     ethr =  1.64E-06,  avg # of iterations =  9.0

     total cpu time spent up to now is      963.7 secs

     total energy              =   -1362.17704399 Ry
     estimated scf accuracy    <       0.00474610 Ry

     iteration # 26     ecut=    80.00 Ry     beta= 0.20
     Davidson diagonalization with overlap

---- Real-time Memory Report at c_bands before calling an iterative solver
           271 MiB given to the printing process from OS
             0 MiB allocation reported by mallinfo(arena+hblkhd)
        367735 MiB available memory on the node where the printing process lives
------------------
     ethr =  1.64E-06,  avg # of iterations =  5.4

     total cpu time spent up to now is     1008.1 secs

     total energy              =   -1362.17775551 Ry
     estimated scf accuracy    <       0.00255397 Ry

     iteration # 27     ecut=    80.00 Ry     beta= 0.20
     Davidson diagonalization with overlap

---- Real-time Memory Report at c_bands before calling an iterative solver
           271 MiB given to the printing process from OS
             0 MiB allocation reported by mallinfo(arena+hblkhd)
        367720 MiB available memory on the node where the printing process lives
------------------
     ethr =  1.64E-06,  avg # of iterations =  1.9

     total cpu time spent up to now is     1032.8 secs

     total energy              =   -1362.17794575 Ry
     estimated scf accuracy    <       0.00282699 Ry

     iteration # 28     ecut=    80.00 Ry     beta= 0.20
     Davidson diagonalization with overlap

---- Real-time Memory Report at c_bands before calling an iterative solver
           271 MiB given to the printing process from OS
             0 MiB allocation reported by mallinfo(arena+hblkhd)
        367720 MiB available memory on the node where the printing process lives
------------------
     ethr =  1.64E-06,  avg # of iterations =  2.0

     total cpu time spent up to now is     1059.0 secs

     total energy              =   -1362.17858660 Ry
     estimated scf accuracy    <       0.00350138 Ry

     iteration # 29     ecut=    80.00 Ry     beta= 0.20
     Davidson diagonalization with overlap

---- Real-time Memory Report at c_bands before calling an iterative solver
           271 MiB given to the printing process from OS
             0 MiB allocation reported by mallinfo(arena+hblkhd)
        367719 MiB available memory on the node where the printing process lives
------------------
     ethr =  1.64E-06,  avg # of iterations =  6.2

     total cpu time spent up to now is     1109.5 secs

     total energy              =   -1362.18069044 Ry
     estimated scf accuracy    <       0.00887118 Ry

     iteration # 30     ecut=    80.00 Ry     beta= 0.20
     Davidson diagonalization with overlap

---- Real-time Memory Report at c_bands before calling an iterative solver
           271 MiB given to the printing process from OS
             0 MiB allocation reported by mallinfo(arena+hblkhd)
        367719 MiB available memory on the node where the printing process lives
------------------
     ethr =  1.64E-06,  avg # of iterations =  1.8

     total cpu time spent up to now is     1133.8 secs

     total energy              =   -1362.18137856 Ry
     estimated scf accuracy    <       0.01074243 Ry

     iteration # 31     ecut=    80.00 Ry     beta= 0.20
     Davidson diagonalization with overlap

---- Real-time Memory Report at c_bands before calling an iterative solver
           271 MiB given to the printing process from OS
             0 MiB allocation reported by mallinfo(arena+hblkhd)
        367713 MiB available memory on the node where the printing process lives
------------------
     ethr =  1.64E-06,  avg # of iterations =  3.0

     total cpu time spent up to now is     1164.3 secs

     total energy              =   -1362.17954852 Ry
     estimated scf accuracy    <       0.01368005 Ry

     iteration # 32     ecut=    80.00 Ry     beta= 0.20
     Davidson diagonalization with overlap

---- Real-time Memory Report at c_bands before calling an iterative solver
           271 MiB given to the printing process from OS
             0 MiB allocation reported by mallinfo(arena+hblkhd)
        367710 MiB available memory on the node where the printing process lives
------------------
     ethr =  1.64E-06,  avg # of iterations =  2.0

     total cpu time spent up to now is     1191.5 secs

     total energy              =   -1362.17758582 Ry
     estimated scf accuracy    <       0.00850758 Ry

     iteration # 33     ecut=    80.00 Ry     beta= 0.20
     Davidson diagonalization with overlap

---- Real-time Memory Report at c_bands before calling an iterative solver
           271 MiB given to the printing process from OS
             0 MiB allocation reported by mallinfo(arena+hblkhd)
        367699 MiB available memory on the node where the printing process lives
------------------
     ethr =  1.64E-06,  avg # of iterations =  4.6

     total cpu time spent up to now is     1231.3 secs

     total energy              =   -1362.17734430 Ry
     estimated scf accuracy    <       0.00338479 Ry

     iteration # 34     ecut=    80.00 Ry     beta= 0.20
     Davidson diagonalization with overlap

---- Real-time Memory Report at c_bands before calling an iterative solver
           271 MiB given to the printing process from OS
             0 MiB allocation reported by mallinfo(arena+hblkhd)
        367706 MiB available memory on the node where the printing process lives
------------------
     ethr =  1.64E-06,  avg # of iterations =  2.1

     total cpu time spent up to now is     1256.7 secs

     total energy              =   -1362.17750175 Ry
     estimated scf accuracy    <       0.00178081 Ry

     iteration # 35     ecut=    80.00 Ry     beta= 0.20
     Davidson diagonalization with overlap

---- Real-time Memory Report at c_bands before calling an iterative solver
           271 MiB given to the printing process from OS
             0 MiB allocation reported by mallinfo(arena+hblkhd)
        367702 MiB available memory on the node where the printing process lives
------------------
     ethr =  1.64E-06,  avg # of iterations =  9.1

     total cpu time spent up to now is     1333.0 secs

     total energy              =   -1362.17887423 Ry
     estimated scf accuracy    <       0.00841805 Ry

     iteration # 36     ecut=    80.00 Ry     beta= 0.20
     Davidson diagonalization with overlap

---- Real-time Memory Report at c_bands before calling an iterative solver
           271 MiB given to the printing process from OS
             0 MiB allocation reported by mallinfo(arena+hblkhd)
        367696 MiB available memory on the node where the printing process lives
------------------
     ethr =  1.64E-06,  avg # of iterations =  2.0

     total cpu time spent up to now is     1358.6 secs

     total energy              =   -1362.17790779 Ry
     estimated scf accuracy    <       0.00668736 Ry

     iteration # 37     ecut=    80.00 Ry     beta= 0.20
     Davidson diagonalization with overlap

---- Real-time Memory Report at c_bands before calling an iterative solver
           271 MiB given to the printing process from OS
             0 MiB allocation reported by mallinfo(arena+hblkhd)
        367699 MiB available memory on the node where the printing process lives
------------------
     ethr =  1.64E-06,  avg # of iterations =  2.0

     total cpu time spent up to now is     1384.7 secs

     total energy              =   -1362.17776311 Ry
     estimated scf accuracy    <       0.00390432 Ry

     iteration # 38     ecut=    80.00 Ry     beta= 0.20
     Davidson diagonalization with overlap

---- Real-time Memory Report at c_bands before calling an iterative solver
           271 MiB given to the printing process from OS
             0 MiB allocation reported by mallinfo(arena+hblkhd)
        367699 MiB available memory on the node where the printing process lives
------------------
     ethr =  1.64E-06,  avg # of iterations =  1.5

     total cpu time spent up to now is     1407.4 secs

     total energy              =   -1362.17727673 Ry
     estimated scf accuracy    <       0.00309818 Ry

     iteration # 39     ecut=    80.00 Ry     beta= 0.20
     Davidson diagonalization with overlap

---- Real-time Memory Report at c_bands before calling an iterative solver
           271 MiB given to the printing process from OS
             0 MiB allocation reported by mallinfo(arena+hblkhd)
        367686 MiB available memory on the node where the printing process lives
------------------
     ethr =  1.64E-06,  avg # of iterations =  2.0

     total cpu time spent up to now is     1433.8 secs

     total energy              =   -1362.17713802 Ry
     estimated scf accuracy    <       0.00136688 Ry

     iteration # 40     ecut=    80.00 Ry     beta= 0.20
     Davidson diagonalization with overlap

---- Real-time Memory Report at c_bands before calling an iterative solver
           271 MiB given to the printing process from OS
             0 MiB allocation reported by mallinfo(arena+hblkhd)
        367681 MiB available memory on the node where the printing process lives
------------------
     ethr =  1.55E-06,  avg # of iterations =  2.0

     total cpu time spent up to now is     1459.6 secs

     total energy              =   -1362.17723908 Ry
     estimated scf accuracy    <       0.00064424 Ry

     iteration # 41     ecut=    80.00 Ry     beta= 0.20
     Davidson diagonalization with overlap

---- Real-time Memory Report at c_bands before calling an iterative solver
           271 MiB given to the printing process from OS
             0 MiB allocation reported by mallinfo(arena+hblkhd)
        367680 MiB available memory on the node where the printing process lives
------------------
     ethr =  7.32E-07,  avg # of iterations =  2.2

     total cpu time spent up to now is     1485.2 secs

     total energy              =   -1362.17709013 Ry
     estimated scf accuracy    <       0.00053772 Ry

     iteration # 42     ecut=    80.00 Ry     beta= 0.20
     Davidson diagonalization with overlap

---- Real-time Memory Report at c_bands before calling an iterative solver
           271 MiB given to the printing process from OS
             0 MiB allocation reported by mallinfo(arena+hblkhd)
        367680 MiB available memory on the node where the printing process lives
------------------
     ethr =  6.11E-07,  avg # of iterations =  4.9

     total cpu time spent up to now is     1526.3 secs

     total energy              =   -1362.17725904 Ry
     estimated scf accuracy    <       0.00009388 Ry

     iteration # 43     ecut=    80.00 Ry     beta= 0.20
     Davidson diagonalization with overlap

---- Real-time Memory Report at c_bands before calling an iterative solver
           271 MiB given to the printing process from OS
             0 MiB allocation reported by mallinfo(arena+hblkhd)
        367679 MiB available memory on the node where the printing process lives
------------------
     ethr =  1.07E-07,  avg # of iterations =  5.6

     total cpu time spent up to now is     1568.2 secs

     total energy              =   -1362.17728532 Ry
     estimated scf accuracy    <       0.00001370 Ry

     iteration # 44     ecut=    80.00 Ry     beta= 0.20
     Davidson diagonalization with overlap

---- Real-time Memory Report at c_bands before calling an iterative solver
           271 MiB given to the printing process from OS
             0 MiB allocation reported by mallinfo(arena+hblkhd)
        367665 MiB available memory on the node where the printing process lives
------------------
     c_bands:  2 eigenvalues not converged
     c_bands:  1 eigenvalues not converged
     c_bands:  1 eigenvalues not converged
     c_bands:  1 eigenvalues not converged
     c_bands:  3 eigenvalues not converged
     c_bands:  1 eigenvalues not converged
     c_bands:  1 eigenvalues not converged
     c_bands:  1 eigenvalues not converged
     c_bands:  1 eigenvalues not converged
     c_bands:  1 eigenvalues not converged
     c_bands:  3 eigenvalues not converged
     c_bands:  1 eigenvalues not converged
     c_bands:  2 eigenvalues not converged
     c_bands:  3 eigenvalues not converged
     c_bands:  4 eigenvalues not converged
     c_bands:  1 eigenvalues not converged
     c_bands:  1 eigenvalues not converged
     ethr =  1.56E-08,  avg # of iterations = 13.2

     total cpu time spent up to now is     1661.1 secs

     total energy              =   -1362.17730462 Ry
     estimated scf accuracy    <       0.00001182 Ry

     iteration # 45     ecut=    80.00 Ry     beta= 0.20
     Davidson diagonalization with overlap

---- Real-time Memory Report at c_bands before calling an iterative solver
           271 MiB given to the printing process from OS
             0 MiB allocation reported by mallinfo(arena+hblkhd)
        367664 MiB available memory on the node where the printing process lives
------------------
     ethr =  1.34E-08,  avg # of iterations =  3.5

     total cpu time spent up to now is     1692.7 secs

     total energy              =   -1362.17730282 Ry
     estimated scf accuracy    <       0.00000535 Ry

     iteration # 46     ecut=    80.00 Ry     beta= 0.20
     Davidson diagonalization with overlap

---- Real-time Memory Report at c_bands before calling an iterative solver
           271 MiB given to the printing process from OS
             0 MiB allocation reported by mallinfo(arena+hblkhd)
        367658 MiB available memory on the node where the printing process lives
------------------
     c_bands:  3 eigenvalues not converged
     c_bands:  1 eigenvalues not converged
     c_bands:  2 eigenvalues not converged
     ethr =  6.07E-09,  avg # of iterations =  9.8

     total cpu time spent up to now is     1762.1 secs

     total energy              =   -1362.17731026 Ry
     estimated scf accuracy    <       0.00001682 Ry

     iteration # 47     ecut=    80.00 Ry     beta= 0.20
     Davidson diagonalization with overlap

---- Real-time Memory Report at c_bands before calling an iterative solver
           271 MiB given to the printing process from OS
             0 MiB allocation reported by mallinfo(arena+hblkhd)
        367632 MiB available memory on the node where the printing process lives
------------------
     ethr =  6.07E-09,  avg # of iterations =  2.0

     total cpu time spent up to now is     1787.7 secs

     total energy              =   -1362.17730488 Ry
     estimated scf accuracy    <       0.00001132 Ry

     iteration # 48     ecut=    80.00 Ry     beta= 0.20
     Davidson diagonalization with overlap

---- Real-time Memory Report at c_bands before calling an iterative solver
           271 MiB given to the printing process from OS
             0 MiB allocation reported by mallinfo(arena+hblkhd)
        367746 MiB available memory on the node where the printing process lives
------------------
     ethr =  6.07E-09,  avg # of iterations =  6.7

     total cpu time spent up to now is     1838.1 secs

     total energy              =   -1362.17730943 Ry
     estimated scf accuracy    <       0.00000171 Ry

     iteration # 49     ecut=    80.00 Ry     beta= 0.20
     Davidson diagonalization with overlap

---- Real-time Memory Report at c_bands before calling an iterative solver
           271 MiB given to the printing process from OS
             0 MiB allocation reported by mallinfo(arena+hblkhd)
        367722 MiB available memory on the node where the printing process lives
------------------
     ethr =  1.95E-09,  avg # of iterations =  6.9

     total cpu time spent up to now is     1884.2 secs

     total energy              =   -1362.17730978 Ry
     estimated scf accuracy    <       0.00000055 Ry

     iteration # 50     ecut=    80.00 Ry     beta= 0.20
     Davidson diagonalization with overlap

---- Real-time Memory Report at c_bands before calling an iterative solver
           271 MiB given to the printing process from OS
             0 MiB allocation reported by mallinfo(arena+hblkhd)
        367719 MiB available memory on the node where the printing process lives
------------------
     c_bands:  2 eigenvalues not converged
     c_bands:  1 eigenvalues not converged
     c_bands:  1 eigenvalues not converged
     c_bands:  2 eigenvalues not converged
     c_bands:  1 eigenvalues not converged
     c_bands:  2 eigenvalues not converged
     c_bands:  1 eigenvalues not converged
     c_bands:  1 eigenvalues not converged
     c_bands:  1 eigenvalues not converged
     c_bands:  2 eigenvalues not converged
     c_bands:  2 eigenvalues not converged
     c_bands:  4 eigenvalues not converged
     ethr =  6.22E-10,  avg # of iterations = 11.7

     total cpu time spent up to now is     1966.4 secs

     total energy              =   -1362.17731052 Ry
     estimated scf accuracy    <       0.00000015 Ry

     iteration # 51     ecut=    80.00 Ry     beta= 0.20
     Davidson diagonalization with overlap

---- Real-time Memory Report at c_bands before calling an iterative solver
           271 MiB given to the printing process from OS
             0 MiB allocation reported by mallinfo(arena+hblkhd)
        367705 MiB available memory on the node where the printing process lives
------------------
     c_bands:  5 eigenvalues not converged
     c_bands:  2 eigenvalues not converged
     c_bands:  5 eigenvalues not converged
     c_bands:  1 eigenvalues not converged
     c_bands:  1 eigenvalues not converged
     c_bands:  2 eigenvalues not converged
     c_bands:  1 eigenvalues not converged
     c_bands:  1 eigenvalues not converged
     c_bands:  4 eigenvalues not converged
     c_bands:  1 eigenvalues not converged
     c_bands:  2 eigenvalues not converged
     c_bands:  1 eigenvalues not converged
     c_bands:  2 eigenvalues not converged
     c_bands:  3 eigenvalues not converged
     c_bands:  1 eigenvalues not converged
     c_bands:  1 eigenvalues not converged
     c_bands:  4 eigenvalues not converged
     c_bands:  1 eigenvalues not converged
     c_bands:  4 eigenvalues not converged
     c_bands:  1 eigenvalues not converged
     c_bands:  1 eigenvalues not converged
     ethr =  1.73E-10,  avg # of iterations = 13.1

     total cpu time spent up to now is     2065.5 secs

     total energy              =   -1362.17731079 Ry
     estimated scf accuracy    <       0.00000012 Ry

     iteration # 52     ecut=    80.00 Ry     beta= 0.20
     Davidson diagonalization with overlap

---- Real-time Memory Report at c_bands before calling an iterative solver
           271 MiB given to the printing process from OS
             0 MiB allocation reported by mallinfo(arena+hblkhd)
        367698 MiB available memory on the node where the printing process lives
------------------
     c_bands:  2 eigenvalues not converged
     ethr =  1.33E-10,  avg # of iterations =  6.3

     total cpu time spent up to now is     2110.3 secs

     total energy              =   -1362.17731084 Ry
     estimated scf accuracy    <          7.6E-09 Ry

     iteration # 53     ecut=    80.00 Ry     beta= 0.20
     Davidson diagonalization with overlap

---- Real-time Memory Report at c_bands before calling an iterative solver
           271 MiB given to the printing process from OS
             0 MiB allocation reported by mallinfo(arena+hblkhd)
        367699 MiB available memory on the node where the printing process lives
------------------
     c_bands:  1 eigenvalues not converged
     c_bands:  3 eigenvalues not converged
     c_bands:  1 eigenvalues not converged
     c_bands:  4 eigenvalues not converged
     c_bands:  4 eigenvalues not converged
     c_bands:  1 eigenvalues not converged
     c_bands:  3 eigenvalues not converged
     c_bands:  3 eigenvalues not converged
     c_bands:  1 eigenvalues not converged
     c_bands:  5 eigenvalues not converged
     c_bands:  3 eigenvalues not converged
     c_bands:  5 eigenvalues not converged
     c_bands:  1 eigenvalues not converged
     c_bands:  3 eigenvalues not converged
     c_bands:  2 eigenvalues not converged
     c_bands:  1 eigenvalues not converged
     c_bands:  4 eigenvalues not converged
     c_bands:  1 eigenvalues not converged
     c_bands:  2 eigenvalues not converged
     c_bands:  3 eigenvalues not converged
     c_bands:  5 eigenvalues not converged
     c_bands:  3 eigenvalues not converged
     c_bands:  2 eigenvalues not converged
     c_bands:  1 eigenvalues not converged
     c_bands:  5 eigenvalues not converged
     c_bands:  4 eigenvalues not converged
     c_bands:  3 eigenvalues not converged
     c_bands:  2 eigenvalues not converged
     c_bands:  2 eigenvalues not converged
     c_bands:  3 eigenvalues not converged
     c_bands:  1 eigenvalues not converged
     c_bands:  3 eigenvalues not converged
     c_bands:  3 eigenvalues not converged
     c_bands:  4 eigenvalues not converged
     c_bands:  3 eigenvalues not converged
     c_bands:  3 eigenvalues not converged
     c_bands:  1 eigenvalues not converged
     c_bands:  5 eigenvalues not converged
     c_bands:  3 eigenvalues not converged
     c_bands:  3 eigenvalues not converged
     c_bands:  3 eigenvalues not converged
     c_bands:  4 eigenvalues not converged
     c_bands:  1 eigenvalues not converged
     c_bands:  3 eigenvalues not converged
     c_bands:  2 eigenvalues not converged
     c_bands:  1 eigenvalues not converged
     c_bands:  1 eigenvalues not converged
     c_bands:  5 eigenvalues not converged
     c_bands:  3 eigenvalues not converged
     c_bands:  1 eigenvalues not converged
     c_bands:  3 eigenvalues not converged
     c_bands:  2 eigenvalues not converged
     c_bands:  3 eigenvalues not converged
     c_bands:  3 eigenvalues not converged
     c_bands:  3 eigenvalues not converged
     c_bands:  2 eigenvalues not converged
     c_bands:  2 eigenvalues not converged
     c_bands:  5 eigenvalues not converged
     c_bands:  4 eigenvalues not converged
     c_bands:  4 eigenvalues not converged
     c_bands:  1 eigenvalues not converged
     c_bands:  4 eigenvalues not converged
     c_bands:  1 eigenvalues not converged
     c_bands:  5 eigenvalues not converged
     c_bands:  2 eigenvalues not converged
     c_bands:  3 eigenvalues not converged
     c_bands:  5 eigenvalues not converged
     c_bands:  2 eigenvalues not converged
     c_bands:  4 eigenvalues not converged
     c_bands:  2 eigenvalues not converged
     c_bands:  5 eigenvalues not converged
     ethr =  8.63E-12,  avg # of iterations = 27.1

     total cpu time spent up to now is     2357.8 secs

     total energy              =   -1362.17731090 Ry
     estimated scf accuracy    <          1.2E-09 Ry

     iteration # 54     ecut=    80.00 Ry     beta= 0.20
     Davidson diagonalization with overlap

---- Real-time Memory Report at c_bands before calling an iterative solver
           271 MiB given to the printing process from OS
             0 MiB allocation reported by mallinfo(arena+hblkhd)
        367673 MiB available memory on the node where the printing process lives
------------------
     c_bands:  1 eigenvalues not converged
     c_bands:  3 eigenvalues not converged
     c_bands:  5 eigenvalues not converged
     c_bands:  2 eigenvalues not converged
     c_bands:  5 eigenvalues not converged
     c_bands:  1 eigenvalues not converged
     c_bands:  3 eigenvalues not converged
     c_bands:  1 eigenvalues not converged
     c_bands:  4 eigenvalues not converged
     c_bands:  3 eigenvalues not converged
     c_bands:  2 eigenvalues not converged
     c_bands:  2 eigenvalues not converged
     c_bands:  2 eigenvalues not converged
     c_bands:  2 eigenvalues not converged
     c_bands:  1 eigenvalues not converged
     c_bands:  2 eigenvalues not converged
     c_bands:  2 eigenvalues not converged
     c_bands:  1 eigenvalues not converged
     c_bands:  1 eigenvalues not converged
     c_bands:  1 eigenvalues not converged
     c_bands:  1 eigenvalues not converged
     c_bands:  1 eigenvalues not converged
     c_bands:  2 eigenvalues not converged
     c_bands:  1 eigenvalues not converged
     c_bands:  4 eigenvalues not converged
     c_bands:  1 eigenvalues not converged
     c_bands:  1 eigenvalues not converged
     c_bands:  3 eigenvalues not converged
     c_bands:  1 eigenvalues not converged
     c_bands:  1 eigenvalues not converged
     c_bands:  2 eigenvalues not converged
     c_bands:  5 eigenvalues not converged
     c_bands:  3 eigenvalues not converged
     c_bands:  1 eigenvalues not converged
     c_bands:  1 eigenvalues not converged
     c_bands:  2 eigenvalues not converged
     c_bands:  2 eigenvalues not converged
     c_bands:  2 eigenvalues not converged
     c_bands:  1 eigenvalues not converged
     c_bands:  1 eigenvalues not converged
     c_bands:  4 eigenvalues not converged
     c_bands:  1 eigenvalues not converged
     c_bands:  1 eigenvalues not converged
     c_bands:  1 eigenvalues not converged
     c_bands:  1 eigenvalues not converged
     c_bands:  1 eigenvalues not converged
     c_bands:  2 eigenvalues not converged
     c_bands:  3 eigenvalues not converged
     c_bands:  1 eigenvalues not converged
     c_bands:  2 eigenvalues not converged
     c_bands:  2 eigenvalues not converged
     c_bands:  4 eigenvalues not converged
     c_bands:  1 eigenvalues not converged
     c_bands:  5 eigenvalues not converged
     c_bands:  3 eigenvalues not converged
     c_bands:  1 eigenvalues not converged
     c_bands:  2 eigenvalues not converged
     c_bands:  3 eigenvalues not converged
     c_bands:  4 eigenvalues not converged
     c_bands:  2 eigenvalues not converged
     c_bands:  3 eigenvalues not converged
     c_bands:  1 eigenvalues not converged
     c_bands:  2 eigenvalues not converged
     c_bands:  4 eigenvalues not converged
     c_bands:  1 eigenvalues not converged
     c_bands:  1 eigenvalues not converged
     c_bands:  1 eigenvalues not converged
     c_bands:  3 eigenvalues not converged
     c_bands:  2 eigenvalues not converged
     c_bands:  2 eigenvalues not converged
     c_bands:  3 eigenvalues not converged
     c_bands:  2 eigenvalues not converged
     c_bands:  3 eigenvalues not converged
     c_bands:  1 eigenvalues not converged
     c_bands:  1 eigenvalues not converged
     c_bands:  2 eigenvalues not converged
     c_bands:  1 eigenvalues not converged
     c_bands:  2 eigenvalues not converged
     c_bands:  1 eigenvalues not converged
     c_bands:  1 eigenvalues not converged
     c_bands:  3 eigenvalues not converged
     c_bands:  1 eigenvalues not converged
     c_bands:  1 eigenvalues not converged
     c_bands:  1 eigenvalues not converged
     c_bands:  1 eigenvalues not converged
     c_bands:  1 eigenvalues not converged
     ethr =  1.38E-12,  avg # of iterations = 19.8

     total cpu time spent up to now is     2530.4 secs

     total energy              =   -1362.17731090 Ry
     estimated scf accuracy    <          1.8E-09 Ry

     iteration # 55     ecut=    80.00 Ry     beta= 0.20
     Davidson diagonalization with overlap

---- Real-time Memory Report at c_bands before calling an iterative solver
           271 MiB given to the printing process from OS
             0 MiB allocation reported by mallinfo(arena+hblkhd)
        367647 MiB available memory on the node where the printing process lives
------------------
     ethr =  1.38E-12,  avg # of iterations =  5.9

     total cpu time spent up to now is     2575.5 secs

     total energy              =   -1362.17731090 Ry
     estimated scf accuracy    <          3.2E-10 Ry

     iteration # 56     ecut=    80.00 Ry     beta= 0.20
     Davidson diagonalization with overlap

---- Real-time Memory Report at c_bands before calling an iterative solver
           271 MiB given to the printing process from OS
             0 MiB allocation reported by mallinfo(arena+hblkhd)
        367636 MiB available memory on the node where the printing process lives
------------------
     c_bands:  1 eigenvalues not converged
     c_bands:  2 eigenvalues not converged
     c_bands:  1 eigenvalues not converged
     c_bands:  1 eigenvalues not converged
     c_bands:  1 eigenvalues not converged
     c_bands:  1 eigenvalues not converged
     c_bands:  1 eigenvalues not converged
     c_bands:  1 eigenvalues not converged
     c_bands:  1 eigenvalues not converged
     c_bands:  1 eigenvalues not converged
     c_bands:  1 eigenvalues not converged
     c_bands:  1 eigenvalues not converged
     ethr =  3.60E-13,  avg # of iterations = 12.3

     total cpu time spent up to now is     2668.8 secs

     total energy              =   -1362.17731090 Ry
     estimated scf accuracy    <          6.4E-10 Ry

     iteration # 57     ecut=    80.00 Ry     beta= 0.20
     Davidson diagonalization with overlap

---- Real-time Memory Report at c_bands before calling an iterative solver
           271 MiB given to the printing process from OS
             0 MiB allocation reported by mallinfo(arena+hblkhd)
        367628 MiB available memory on the node where the printing process lives
------------------
     ethr =  3.60E-13,  avg # of iterations =  8.7

     total cpu time spent up to now is     2730.2 secs

     total energy              =   -1362.17731090 Ry
     estimated scf accuracy    <          2.5E-10 Ry

     iteration # 58     ecut=    80.00 Ry     beta= 0.20
     Davidson diagonalization with overlap

---- Real-time Memory Report at c_bands before calling an iterative solver
           271 MiB given to the printing process from OS
             0 MiB allocation reported by mallinfo(arena+hblkhd)
        367626 MiB available memory on the node where the printing process lives
------------------
     ethr =  2.88E-13,  avg # of iterations =  5.2

     total cpu time spent up to now is     2772.7 secs

     End of self-consistent calculation

          k = 0.0000 0.0000 0.0000 (  8525 PWs)   bands (ev):

   -10.7205  -9.6562  -9.5821  -9.3694  -8.9100  -8.9026  -4.7217  -4.7146
    -4.7087  -4.6457  -4.4918  -4.4893  -4.4799  -4.4681  -4.4219  -4.2987
    -4.2879  -4.2869  -4.2447  -4.2363  -4.2173  -4.1989  -4.1418  -4.0711
    -3.9105  -3.8773   1.2275   2.3187   3.4175   4.0423   4.6632   5.5167
     5.6795   6.0240   6.2434   6.2535   6.5497   6.6577   7.2471   7.5625
     7.5843   7.7314   7.9200   8.1407

     occupation numbers 
     1.0000   1.0000   1.0000   1.0000   1.0000   1.0000   1.0000   1.0000
     1.0000   1.0000   1.0000   1.0000   1.0000   1.0000   1.0000   1.0000
     1.0000   1.0000   1.0000   1.0000   1.0000   1.0000   1.0000   1.0000
     1.0000   1.0000   1.0000   1.0000   1.0000   1.0000   1.0000   1.0000
     1.0000   1.0000   1.0000   1.0000   1.0000   1.0000   1.0000   1.0000
     1.0000   1.0000   1.0000   1.0000

          k = 0.0000 0.0000 0.0931 (  8548 PWs)   bands (ev):

   -10.7078  -9.6761  -9.5856  -9.3591  -8.9393  -8.8777  -4.7197  -4.7148
    -4.7089  -4.6454  -4.5159  -4.4866  -4.4777  -4.4651  -4.4167  -4.3016
    -4.2906  -4.2870  -4.2550  -4.2270  -4.2168  -4.1987  -4.1416  -4.0652
    -3.9517  -3.8248   1.2578   2.3536   3.3799   4.0574   4.6716   5.5156
     5.7084   6.0242   6.2265   6.2323   6.5341   6.6385   7.2099   7.5796
     7.5895   7.6907   7.9164   8.0564

     occupation numbers 
     1.0000   1.0000   1.0000   1.0000   1.0000   1.0000   1.0000   1.0000
     1.0000   1.0000   1.0000   1.0000   1.0000   1.0000   1.0000   1.0000
     1.0000   1.0000   1.0000   1.0000   1.0000   1.0000   1.0000   1.0000
     1.0000   1.0000   1.0000   1.0000   1.0000   1.0000   1.0000   1.0000
     1.0000   1.0000   1.0000   1.0000   1.0000   1.0000   1.0000   1.0000
     1.0000   1.0000   1.0000   1.0000

          k = 0.0000 0.0000 0.1861 (  8534 PWs)   bands (ev):

   -10.6706  -9.7329  -9.5930  -9.3328  -8.9716  -8.8578  -4.7153  -4.7137
    -4.7095  -4.6442  -4.5524  -4.5013  -4.4714  -4.4565  -4.4087  -4.3097
    -4.2987  -4.2863  -4.2678  -4.2220  -4.2097  -4.1979  -4.1410  -4.0507
    -3.9927  -3.7539   1.3484   2.4519   3.2750   4.0847   4.7081   5.5224
     5.7823   5.9794   6.1787   6.1999   6.4763   6.6215   7.1182   7.5478
     7.5890   7.6279   7.8332   7.9605

     occupation numbers 
     1.0000   1.0000   1.0000   1.0000   1.0000   1.0000   1.0000   1.0000
     1.0000   1.0000   1.0000   1.0000   1.0000   1.0000   1.0000   1.0000
     1.0000   1.0000   1.0000   1.0000   1.0000   1.0000   1.0000   1.0000
     1.0000   1.0000   1.0000   1.0000   1.0000   1.0000   1.0000   1.0000
     1.0000   1.0000   1.0000   1.0000   1.0000   1.0000   1.0000   1.0000
     1.0000   1.0000   1.0000   1.0000

          k = 0.0000 0.0000 0.2792 (  8516 PWs)   bands (ev):

   -10.6121  -9.8170  -9.6005  -9.2993  -8.9998  -8.8480  -4.7158  -4.7103
    -4.7048  -4.6417  -4.5891  -4.5262  -4.4617  -4.4432  -4.4049  -4.3219
    -4.3112  -4.2843  -4.2768  -4.2260  -4.1970  -4.1951  -4.1403  -4.0435
    -4.0140  -3.6866   1.4974   2.5876   3.1271   4.0889   4.7933   5.5475
     5.8189   5.8821   6.1097   6.2241   6.3919   6.6331   6.9982   7.2890
     7.5953   7.6708   7.7072   7.9423

     occupation numbers 
     1.0000   1.0000   1.0000   1.0000   1.0000   1.0000   1.0000   1.0000
     1.0000   1.0000   1.0000   1.0000   1.0000   1.0000   1.0000   1.0000
     1.0000   1.0000   1.0000   1.0000   1.0000   1.0000   1.0000   1.0000
     1.0000   1.0000   1.0000   1.0000   1.0000   1.0000   1.0000   1.0000
     1.0000   1.0000   1.0000   1.0000   1.0000   1.0000   1.0000   1.0000
     1.0000   1.0000   1.0000   1.0000

          k = 0.0000 0.0000 0.3722 (  8504 PWs)   bands (ev):

   -10.5396  -9.9141  -9.6062  -9.2664  -9.0215  -8.8467  -4.7163  -4.7111
    -4.6940  -4.6385  -4.6179  -4.5549  -4.4500  -4.4269  -4.4051  -4.3358
    -4.3267  -4.2874  -4.2734  -4.2329  -4.1961  -4.1801  -4.1396  -4.0621
    -4.0046  -3.6323   1.6983   2.6554   3.0291   4.0533   4.9170   5.5911
     5.6205   5.9679   6.0551   6.2476   6.3371   6.6433   6.8686   7.0180
     7.6009   7.6138   7.7049   7.9256

     occupation numbers 
     1.0000   1.0000   1.0000   1.0000   1.0000   1.0000   1.0000   1.0000
     1.0000   1.0000   1.0000   1.0000   1.0000   1.0000   1.0000   1.0000
     1.0000   1.0000   1.0000   1.0000   1.0000   1.0000   1.0000   1.0000
     1.0000   1.0000   1.0000   1.0000   1.0000   1.0000   1.0000   1.0000
     1.0000   1.0000   1.0000   1.0000   1.0000   1.0000   1.0000   1.0000
     1.0000   1.0000   1.0000   1.0000

          k = 0.0000 0.0000 0.4653 (  8514 PWs)   bands (ev):

   -10.4690 -10.0021  -9.6097  -9.2422  -9.0350  -8.8495  -4.7165  -4.7119
    -4.6822  -4.6485  -4.6213  -4.5822  -4.4394  -4.4106  -4.4067  -4.3479
    -4.3425  -4.2907  -4.2636  -4.2418  -4.1955  -4.1678  -4.1392  -4.0802
    -3.9940  -3.5973   1.9345   2.5029   3.1067   3.9936   5.0147   5.4955
     5.6435   5.9252   6.1233   6.2179   6.3193   6.6423   6.7545   6.8397
     7.5508   7.6047   7.7264   7.9105

     occupation numbers 
     1.0000   1.0000   1.0000   1.0000   1.0000   1.0000   1.0000   1.0000
     1.0000   1.0000   1.0000   1.0000   1.0000   1.0000   1.0000   1.0000
     1.0000   1.0000   1.0000   1.0000   1.0000   1.0000   1.0000   1.0000
     1.0000   1.0000   1.0000   1.0000   1.0000   1.0000   1.0000   1.0000
     1.0000   1.0000   1.0000   1.0000   1.0000   1.0000   1.0000   1.0000
     1.0000   1.0000   1.0000   1.0000

          k = 0.0000 0.0000-0.5584 (  8512 PWs)   bands (ev):

   -10.4357 -10.0416  -9.6108  -9.2332  -9.0397  -8.8513  -4.7166  -4.7121
    -4.6734  -4.6600  -4.6101  -4.6008  -4.4348  -4.4074  -4.4024  -4.3528
    -4.3509  -4.2918  -4.2526  -4.2523  -4.1953  -4.1625  -4.1390  -4.0876
    -3.9901  -3.5853   2.1162   2.3312   3.1695   3.9596   5.0382   5.4742
     5.6729   5.8890   6.1684   6.2016   6.2923   6.6510   6.7036   6.7812
     7.5280   7.6061   7.7336   7.9043

     occupation numbers 
     1.0000   1.0000   1.0000   1.0000   1.0000   1.0000   1.0000   1.0000
     1.0000   1.0000   1.0000   1.0000   1.0000   1.0000   1.0000   1.0000
     1.0000   1.0000   1.0000   1.0000   1.0000   1.0000   1.0000   1.0000
     1.0000   1.0000   1.0000   1.0000   1.0000   1.0000   1.0000   1.0000
     1.0000   1.0000   1.0000   1.0000   1.0000   1.0000   1.0000   1.0000
     1.0000   1.0000   1.0000   1.0000

          k =-0.1729 0.0429-0.0105 (  8538 PWs)   bands (ev):

   -10.6664  -9.6353  -9.5780  -9.3349  -8.9122  -8.9033  -4.7310  -4.7083
    -4.6809  -4.6288  -4.5106  -4.4966  -4.4704  -4.4616  -4.4068  -4.3390
    -4.3262  -4.2769  -4.2277  -4.2043  -4.1982  -4.1570  -4.1344  -4.0495
    -3.9436  -3.8126   1.2637   2.3266   3.2514   4.0599   4.5552   5.3916
     5.7010   5.8675   6.1368   6.2631   6.5433   6.7063   6.8938   7.3675
     7.4549   7.7057   7.8756   8.1392

     occupation numbers 
     1.0000   1.0000   1.0000   1.0000   1.0000   1.0000   1.0000   1.0000
     1.0000   1.0000   1.0000   1.0000   1.0000   1.0000   1.0000   1.0000
     1.0000   1.0000   1.0000   1.0000   1.0000   1.0000   1.0000   1.0000
     1.0000   1.0000   1.0000   1.0000   1.0000   1.0000   1.0000   1.0000
     1.0000   1.0000   1.0000   1.0000   1.0000   1.0000   1.0000   1.0000
     1.0000   1.0000   1.0000   1.0000

          k =-0.1729 0.0429 0.0826 (  8530 PWs)   bands (ev):

   -10.6573  -9.6484  -9.5658  -9.3408  -8.9433  -8.8793  -4.7298  -4.7087
    -4.6806  -4.6286  -4.5223  -4.4984  -4.4681  -4.4639  -4.4024  -4.3395
    -4.3298  -4.2775  -4.2271  -4.2166  -4.1962  -4.1568  -4.1372  -4.0471
    -3.9013  -3.8338   1.3122   2.3682   3.2285   4.0435   4.5540   5.3725
     5.6836   5.8813   6.1530   6.1951   6.5241   6.7476   6.8678   7.3537
     7.4613   7.7024   7.8965   8.0658

     occupation numbers 
     1.0000   1.0000   1.0000   1.0000   1.0000   1.0000   1.0000   1.0000
     1.0000   1.0000   1.0000   1.0000   1.0000   1.0000   1.0000   1.0000
     1.0000   1.0000   1.0000   1.0000   1.0000   1.0000   1.0000   1.0000
     1.0000   1.0000   1.0000   1.0000   1.0000   1.0000   1.0000   1.0000
     1.0000   1.0000   1.0000   1.0000   1.0000   1.0000   1.0000   1.0000
     1.0000   1.0000   1.0000   1.0000

          k =-0.1729 0.0429 0.1756 (  8530 PWs)   bands (ev):

   -10.6241  -9.6964  -9.5624  -9.3272  -8.9769  -8.8604  -4.7258  -4.7090
    -4.6795  -4.6280  -4.5506  -4.5067  -4.4646  -4.4602  -4.3962  -4.3408
    -4.3358  -4.2782  -4.2358  -4.2244  -4.1947  -4.1544  -4.1452  -4.0349
    -3.9238  -3.7750   1.4178   2.4767   3.1611   4.0270   4.5993   5.3234
     5.6820   5.8729   6.0710   6.1791   6.4811   6.7482   6.8121   7.3287
     7.4657   7.6774   7.9003   7.9157

     occupation numbers 
     1.0000   1.0000   1.0000   1.0000   1.0000   1.0000   1.0000   1.0000
     1.0000   1.0000   1.0000   1.0000   1.0000   1.0000   1.0000   1.0000
     1.0000   1.0000   1.0000   1.0000   1.0000   1.0000   1.0000   1.0000
     1.0000   1.0000   1.0000   1.0000   1.0000   1.0000   1.0000   1.0000
     1.0000   1.0000   1.0000   1.0000   1.0000   1.0000   1.0000   1.0000
     1.0000   1.0000   1.0000   1.0000

          k =-0.1729 0.0429 0.2687 (  8523 PWs)   bands (ev):

   -10.5696  -9.7729  -9.5670  -9.2982  -9.0060  -8.8509  -4.7202  -4.7092
    -4.6771  -4.6269  -4.5818  -4.5250  -4.4574  -4.4511  -4.3917  -4.3447
    -4.3426  -4.2774  -4.2539  -4.2243  -4.1927  -4.1562  -4.1483  -4.0227
    -3.9516  -3.7045   1.5755   2.6148   3.0718   3.9940   4.6901   5.2771
     5.7022   5.7412   5.9715   6.2235   6.4413   6.6571   6.7882   7.2978
     7.4566   7.5813   7.7833   7.9255

     occupation numbers 
     1.0000   1.0000   1.0000   1.0000   1.0000   1.0000   1.0000   1.0000
     1.0000   1.0000   1.0000   1.0000   1.0000   1.0000   1.0000   1.0000
     1.0000   1.0000   1.0000   1.0000   1.0000   1.0000   1.0000   1.0000
     1.0000   1.0000   1.0000   1.0000   1.0000   1.0000   1.0000   1.0000
     1.0000   1.0000   1.0000   1.0000   1.0000   1.0000   1.0000   1.0000
     1.0000   1.0000   1.0000   1.0000

          k =-0.1729 0.0429 0.3617 (  8523 PWs)   bands (ev):

   -10.5001  -9.8659  -9.5750  -9.2635  -9.0275  -8.8496  -4.7143  -4.7089
    -4.6729  -4.6276  -4.6053  -4.5486  -4.4472  -4.4402  -4.3887  -4.3541
    -4.3476  -4.2741  -4.2680  -4.2276  -4.1914  -4.1560  -4.1481  -4.0221
    -3.9659  -3.6452   1.7772   2.6397   3.0776   3.9448   4.8030   5.2431
     5.5290   5.7632   5.8955   6.2651   6.4231   6.5242   6.7603   7.2270
     7.4190   7.5092   7.7443   7.9244

     occupation numbers 
     1.0000   1.0000   1.0000   1.0000   1.0000   1.0000   1.0000   1.0000
     1.0000   1.0000   1.0000   1.0000   1.0000   1.0000   1.0000   1.0000
     1.0000   1.0000   1.0000   1.0000   1.0000   1.0000   1.0000   1.0000
     1.0000   1.0000   1.0000   1.0000   1.0000   1.0000   1.0000   1.0000
     1.0000   1.0000   1.0000   1.0000   1.0000   1.0000   1.0000   1.0000
     1.0000   1.0000   1.0000   1.0000

          k =-0.1729 0.0429 0.4548 (  8524 PWs)   bands (ev):

   -10.4295  -9.9553  -9.5837  -9.2330  -9.0399  -8.8527  -4.7101  -4.7080
    -4.6662  -4.6393  -4.6075  -4.5717  -4.4375  -4.4316  -4.3852  -4.3634
    -4.3543  -4.2791  -4.2645  -4.2338  -4.1910  -4.1514  -4.1484  -4.0350
    -3.9670  -3.6040   2.0037   2.4764   3.2032   3.9175   4.8786   5.2157
     5.3758   5.7958   5.9064   6.2342   6.3773   6.4613   6.7086   7.1590
     7.3907   7.4927   7.7265   7.9180

     occupation numbers 
     1.0000   1.0000   1.0000   1.0000   1.0000   1.0000   1.0000   1.0000
     1.0000   1.0000   1.0000   1.0000   1.0000   1.0000   1.0000   1.0000
     1.0000   1.0000   1.0000   1.0000   1.0000   1.0000   1.0000   1.0000
     1.0000   1.0000   1.0000   1.0000   1.0000   1.0000   1.0000   1.0000
     1.0000   1.0000   1.0000   1.0000   1.0000   1.0000   1.0000   1.0000
     1.0000   1.0000   1.0000   1.0000

          k =-0.1729 0.0429-0.5689 (  8510 PWs)   bands (ev):

   -10.3890 -10.0051  -9.5916  -9.2151  -9.0425  -8.8550  -4.7094  -4.7066
    -4.6598  -4.6489  -4.5988  -4.5876  -4.4333  -4.4286  -4.3836  -4.3671
    -4.3576  -4.2821  -4.2544  -4.2404  -4.1909  -4.1517  -4.1436  -4.0500
    -3.9671  -3.5839   2.1283   2.3556   3.2283   3.9891   4.8636   5.2117
     5.3379   5.7585   6.0492   6.1220   6.3148   6.4818   6.6758   7.1353
     7.3756   7.4893   7.7193   7.9148

     occupation numbers 
     1.0000   1.0000   1.0000   1.0000   1.0000   1.0000   1.0000   1.0000
     1.0000   1.0000   1.0000   1.0000   1.0000   1.0000   1.0000   1.0000
     1.0000   1.0000   1.0000   1.0000   1.0000   1.0000   1.0000   1.0000
     1.0000   1.0000   1.0000   1.0000   1.0000   1.0000   1.0000   1.0000
     1.0000   1.0000   1.0000   1.0000   1.0000   1.0000   1.0000   1.0000
     1.0000   1.0000   1.0000   1.0000

          k =-0.1729 0.0429-0.4758 (  8514 PWs)   bands (ev):

   -10.4127  -9.9794  -9.5977  -9.2146  -9.0355  -8.8537  -4.7108  -4.7064
    -4.6661  -4.6382  -4.6047  -4.5745  -4.4381  -4.4322  -4.3880  -4.3625
    -4.3509  -4.2802  -4.2510  -4.2385  -4.1907  -4.1553  -4.1378  -4.0601
    -3.9722  -3.5854   1.9223   2.5351   3.1145   4.1129   4.8547   5.2041
     5.3557   5.7809   5.9815   6.1645   6.3629   6.5208   6.6475   7.1468
     7.3714   7.4963   7.7221   7.9192

     occupation numbers 
     1.0000   1.0000   1.0000   1.0000   1.0000   1.0000   1.0000   1.0000
     1.0000   1.0000   1.0000   1.0000   1.0000   1.0000   1.0000   1.0000
     1.0000   1.0000   1.0000   1.0000   1.0000   1.0000   1.0000   1.0000
     1.0000   1.0000   1.0000   1.0000   1.0000   1.0000   1.0000   1.0000
     1.0000   1.0000   1.0000   1.0000   1.0000   1.0000   1.0000   1.0000
     1.0000   1.0000   1.0000   1.0000

          k =-0.1729 0.0429-0.3828 (  8522 PWs)   bands (ev):

   -10.4792  -9.9003  -9.6006  -9.2302  -9.0200  -8.8507  -4.7144  -4.7070
    -4.6727  -4.6269  -4.6018  -4.5511  -4.4481  -4.4410  -4.3922  -4.3543
    -4.3407  -4.2758  -4.2527  -4.2283  -4.1908  -4.1587  -4.1343  -4.0623
    -3.9838  -3.6074   1.6893   2.6666   3.0043   4.1685   4.8619   5.1827
     5.4704   5.8424   5.8688   6.2403   6.4661   6.5441   6.6442   7.2064
     7.3822   7.5122   7.7376   7.9304

     occupation numbers 
     1.0000   1.0000   1.0000   1.0000   1.0000   1.0000   1.0000   1.0000
     1.0000   1.0000   1.0000   1.0000   1.0000   1.0000   1.0000   1.0000
     1.0000   1.0000   1.0000   1.0000   1.0000   1.0000   1.0000   1.0000
     1.0000   1.0000   1.0000   1.0000   1.0000   1.0000   1.0000   1.0000
     1.0000   1.0000   1.0000   1.0000   1.0000   1.0000   1.0000   1.0000
     1.0000   1.0000   1.0000   1.0000

          k =-0.1729 0.0429-0.2897 (  8531 PWs)   bands (ev):

   -10.5513  -9.8080  -9.5998  -9.2563  -8.9974  -8.8511  -4.7197  -4.7076
    -4.6770  -4.6265  -4.5784  -4.5265  -4.4577  -4.4521  -4.3951  -4.3468
    -4.3321  -4.2749  -4.2449  -4.2213  -4.1925  -4.1574  -4.1342  -4.0551
    -4.0009  -3.6472   1.4936   2.5920   3.0597   4.1608   4.7809   5.2309
     5.6746   5.7959   5.8975   6.3217   6.4589   6.5634   6.7225   7.2889
     7.4216   7.5491   7.7687   7.9482

     occupation numbers 
     1.0000   1.0000   1.0000   1.0000   1.0000   1.0000   1.0000   1.0000
     1.0000   1.0000   1.0000   1.0000   1.0000   1.0000   1.0000   1.0000
     1.0000   1.0000   1.0000   1.0000   1.0000   1.0000   1.0000   1.0000
     1.0000   1.0000   1.0000   1.0000   1.0000   1.0000   1.0000   1.0000
     1.0000   1.0000   1.0000   1.0000   1.0000   1.0000   1.0000   1.0000
     1.0000   1.0000   1.0000   1.0000

          k =-0.1729 0.0429-0.1966 (  8530 PWs)   bands (ev):

   -10.6110  -9.7248  -9.5954  -9.2863  -8.9694  -8.8601  -4.7251  -4.7078
    -4.6794  -4.6279  -4.5486  -4.5069  -4.4633  -4.4614  -4.3992  -4.3418
    -4.3268  -4.2762  -4.2310  -4.2179  -4.1958  -4.1501  -4.1382  -4.0359
    -4.0201  -3.6998   1.3535   2.4557   3.1609   4.1272   4.6761   5.2980
     5.7505   5.9000   5.9134   6.3381   6.4789   6.5843   6.8165   7.3261
     7.4550   7.6392   7.8144   7.9908

     occupation numbers 
     1.0000   1.0000   1.0000   1.0000   1.0000   1.0000   1.0000   1.0000
     1.0000   1.0000   1.0000   1.0000   1.0000   1.0000   1.0000   1.0000
     1.0000   1.0000   1.0000   1.0000   1.0000   1.0000   1.0000   1.0000
     1.0000   1.0000   1.0000   1.0000   1.0000   1.0000   1.0000   1.0000
     1.0000   1.0000   1.0000   1.0000   1.0000   1.0000   1.0000   1.0000
     1.0000   1.0000   1.0000   1.0000

          k =-0.1729 0.0429-0.1036 (  8536 PWs)   bands (ev):

   -10.6506  -9.6632  -9.5886  -9.3143  -8.9381  -8.8797  -4.7293  -4.7080
    -4.6805  -4.6286  -4.5225  -4.4978  -4.4693  -4.4608  -4.4048  -4.3395
    -4.3250  -4.2767  -4.2267  -4.2075  -4.1992  -4.1495  -4.1389  -4.0394
    -3.9974  -3.7582   1.2765   2.3585   3.2283   4.0889   4.5972   5.3591
     5.7290   5.8818   6.0623   6.3060   6.5289   6.6350   6.8802   7.3503
     7.4574   7.6959   7.8530   8.0840

     occupation numbers 
     1.0000   1.0000   1.0000   1.0000   1.0000   1.0000   1.0000   1.0000
     1.0000   1.0000   1.0000   1.0000   1.0000   1.0000   1.0000   1.0000
     1.0000   1.0000   1.0000   1.0000   1.0000   1.0000   1.0000   1.0000
     1.0000   1.0000   1.0000   1.0000   1.0000   1.0000   1.0000   1.0000
     1.0000   1.0000   1.0000   1.0000   1.0000   1.0000   1.0000   1.0000
     1.0000   1.0000   1.0000   1.0000

          k =-0.3457 0.0859-0.0210 (  8529 PWs)   bands (ev):

   -10.5114  -9.5826  -9.5512  -9.2558  -8.9177  -8.9052  -4.7101  -4.6955
    -4.6291  -4.5888  -4.5439  -4.5199  -4.4447  -4.4216  -4.4077  -4.3768
    -4.3468  -4.2713  -4.2430  -4.2001  -4.1918  -4.0877  -4.0547  -3.9671
    -3.9260  -3.7161   1.3596   2.3246   2.8569   3.8417   4.4743   5.1689
     5.3838   5.6442   5.8196   6.2129   6.3406   6.5342   6.6337   7.1126
     7.2703   7.5839   7.7908   8.1302

     occupation numbers 
     1.0000   1.0000   1.0000   1.0000   1.0000   1.0000   1.0000   1.0000
     1.0000   1.0000   1.0000   1.0000   1.0000   1.0000   1.0000   1.0000
     1.0000   1.0000   1.0000   1.0000   1.0000   1.0000   1.0000   1.0000
     1.0000   1.0000   1.0000   1.0000   1.0000   1.0000   1.0000   1.0000
     1.0000   1.0000   1.0000   1.0000   1.0000   1.0000   1.0000   1.0000
     1.0000   1.0000   1.0000   1.0000

          k =-0.3457 0.0859 0.0720 (  8525 PWs)   bands (ev):

   -10.5060  -9.5846  -9.5375  -9.2661  -8.9498  -8.8839  -4.7091  -4.6955
    -4.6292  -4.5892  -4.5456  -4.5195  -4.4428  -4.4311  -4.4017  -4.3757
    -4.3515  -4.2713  -4.2418  -4.1990  -4.1931  -4.0999  -4.0602  -3.9879
    -3.8695  -3.7354   1.4195   2.3632   2.8468   3.8267   4.4632   5.0845
     5.4294   5.6474   5.8264   6.1694   6.3684   6.4698   6.7139   7.0425
     7.2731   7.5636   7.8209   8.0795

     occupation numbers 
     1.0000   1.0000   1.0000   1.0000   1.0000   1.0000   1.0000   1.0000
     1.0000   1.0000   1.0000   1.0000   1.0000   1.0000   1.0000   1.0000
     1.0000   1.0000   1.0000   1.0000   1.0000   1.0000   1.0000   1.0000
     1.0000   1.0000   1.0000   1.0000   1.0000   1.0000   1.0000   1.0000
     1.0000   1.0000   1.0000   1.0000   1.0000   1.0000   1.0000   1.0000
     1.0000   1.0000   1.0000   1.0000

          k =-0.3457 0.0859 0.1651 (  8519 PWs)   bands (ev):

   -10.4779  -9.6227  -9.5217  -9.2635  -8.9854  -8.8675  -4.7053  -4.6945
    -4.6296  -4.5905  -4.5517  -4.5202  -4.4450  -4.4371  -4.3980  -4.3750
    -4.3553  -4.2703  -4.2394  -4.2063  -4.1903  -4.1276  -4.0578  -3.9980
    -3.8526  -3.7122   1.5341   2.4727   2.8425   3.8294   4.4534   4.9885
     5.3989   5.6009   5.7589   6.1369   6.3808   6.4586   6.7908   6.9097
     7.2731   7.5679   7.8569   7.9509

     occupation numbers 
     1.0000   1.0000   1.0000   1.0000   1.0000   1.0000   1.0000   1.0000
     1.0000   1.0000   1.0000   1.0000   1.0000   1.0000   1.0000   1.0000
     1.0000   1.0000   1.0000   1.0000   1.0000   1.0000   1.0000   1.0000
     1.0000   1.0000   1.0000   1.0000   1.0000   1.0000   1.0000   1.0000
     1.0000   1.0000   1.0000   1.0000   1.0000   1.0000   1.0000   1.0000
     1.0000   1.0000   1.0000   1.0000

          k =-0.3457 0.0859 0.2582 (  8522 PWs)   bands (ev):

   -10.4296  -9.6863  -9.5155  -9.2459  -9.0163  -8.8597  -4.6995  -4.6924
    -4.6300  -4.5939  -4.5602  -4.5245  -4.4454  -4.4391  -4.3961  -4.3773
    -4.3568  -4.2682  -4.2392  -4.2164  -4.1879  -4.1489  -4.0707  -3.9901
    -3.8641  -3.6634   1.6947   2.5818   2.8924   3.8352   4.4441   4.8930
     5.2749   5.5170   5.6654   6.1487   6.3505   6.4666   6.7884   6.8680
     7.2625   7.5716   7.7822   7.9051

     occupation numbers 
     1.0000   1.0000   1.0000   1.0000   1.0000   1.0000   1.0000   1.0000
     1.0000   1.0000   1.0000   1.0000   1.0000   1.0000   1.0000   1.0000
     1.0000   1.0000   1.0000   1.0000   1.0000   1.0000   1.0000   1.0000
     1.0000   1.0000   1.0000   1.0000   1.0000   1.0000   1.0000   1.0000
     1.0000   1.0000   1.0000   1.0000   1.0000   1.0000   1.0000   1.0000
     1.0000   1.0000   1.0000   1.0000

          k =-0.3457 0.0859 0.3512 (  8523 PWs)   bands (ev):

   -10.3664  -9.7674  -9.5183  -9.2177  -9.0386  -8.8595  -4.6931  -4.6891
    -4.6296  -4.6015  -4.5661  -4.5338  -4.4413  -4.4364  -4.3966  -4.3839
    -4.3555  -4.2660  -4.2457  -4.2225  -4.1862  -4.1606  -4.0885  -3.9756
    -3.8784  -3.6195   1.8895   2.5558   3.0939   3.8254   4.4574   4.7523
     5.1175   5.4025   5.6397   6.1370   6.2850   6.4719   6.7416   6.9313
     7.2549   7.5131   7.6975   7.9289

     occupation numbers 
     1.0000   1.0000   1.0000   1.0000   1.0000   1.0000   1.0000   1.0000
     1.0000   1.0000   1.0000   1.0000   1.0000   1.0000   1.0000   1.0000
     1.0000   1.0000   1.0000   1.0000   1.0000   1.0000   1.0000   1.0000
     1.0000   1.0000   1.0000   1.0000   1.0000   1.0000   1.0000   1.0000
     1.0000   1.0000   1.0000   1.0000   1.0000   1.0000   1.0000   1.0000
     1.0000   1.0000   1.0000   1.0000

          k =-0.3457 0.0859 0.4443 (  8511 PWs)   bands (ev):

   -10.2998  -9.8499  -9.5269  -9.1881  -9.0504  -8.8633  -4.6879  -4.6855
    -4.6275  -4.6118  -4.5665  -4.5450  -4.4355  -4.4298  -4.3998  -4.3924
    -4.3526  -4.2683  -4.2502  -4.2243  -4.1852  -4.1651  -4.1032  -3.9634
    -3.8885  -3.5898   2.0933   2.4318   3.3480   3.8127   4.5035   4.5809
     4.9560   5.2990   5.7103   6.0654   6.1867   6.5069   6.7409   6.9821
     7.2600   7.4115   7.6950   7.9388

     occupation numbers 
     1.0000   1.0000   1.0000   1.0000   1.0000   1.0000   1.0000   1.0000
     1.0000   1.0000   1.0000   1.0000   1.0000   1.0000   1.0000   1.0000
     1.0000   1.0000   1.0000   1.0000   1.0000   1.0000   1.0000   1.0000
     1.0000   1.0000   1.0000   1.0000   1.0000   1.0000   1.0000   1.0000
     1.0000   1.0000   1.0000   1.0000   1.0000   1.0000   1.0000   1.0000
     1.0000   1.0000   1.0000   1.0000

          k =-0.3457 0.0859-0.5794 (  8507 PWs)   bands (ev):

   -10.2559  -9.9040  -9.5383  -9.1670  -9.0510  -8.8662  -4.6856  -4.6836
    -4.6251  -4.6174  -4.5645  -4.5519  -4.4322  -4.4253  -4.4059  -4.3952
    -4.3489  -4.2728  -4.2502  -4.2215  -4.1847  -4.1676  -4.1115  -3.9573
    -3.8936  -3.5757   2.1532   2.3888   3.3992   3.9678   4.4213   4.5585
     4.8517   5.2494   5.8155   5.9572   6.0967   6.5548   6.7629   7.0109
     7.2752   7.3519   7.7094   7.9359

     occupation numbers 
     1.0000   1.0000   1.0000   1.0000   1.0000   1.0000   1.0000   1.0000
     1.0000   1.0000   1.0000   1.0000   1.0000   1.0000   1.0000   1.0000
     1.0000   1.0000   1.0000   1.0000   1.0000   1.0000   1.0000   1.0000
     1.0000   1.0000   1.0000   1.0000   1.0000   1.0000   1.0000   1.0000
     1.0000   1.0000   1.0000   1.0000   1.0000   1.0000   1.0000   1.0000
     1.0000   1.0000   1.0000   1.0000

          k =-0.3457 0.0859-0.4863 (  8501 PWs)   bands (ev):

   -10.2692  -9.8926  -9.5492  -9.1614  -9.0409  -8.8649  -4.6870  -4.6845
    -4.6287  -4.6098  -4.5661  -4.5473  -4.4354  -4.4296  -4.4077  -4.3898
    -4.3449  -4.2722  -4.2527  -4.2121  -4.1847  -4.1701  -4.1116  -3.9584
    -3.8964  -3.5757   1.9607   2.5375   3.2270   4.2283   4.3409   4.5900
     4.8467   5.2979   5.7597   5.9248   6.1106   6.5706   6.8093   7.0133
     7.2939   7.3550   7.7247   7.9276

     occupation numbers 
     1.0000   1.0000   1.0000   1.0000   1.0000   1.0000   1.0000   1.0000
     1.0000   1.0000   1.0000   1.0000   1.0000   1.0000   1.0000   1.0000
     1.0000   1.0000   1.0000   1.0000   1.0000   1.0000   1.0000   1.0000
     1.0000   1.0000   1.0000   1.0000   1.0000   1.0000   1.0000   1.0000
     1.0000   1.0000   1.0000   1.0000   1.0000   1.0000   1.0000   1.0000
     1.0000   1.0000   1.0000   1.0000

          k =-0.3457 0.0859-0.3933 (  8519 PWs)   bands (ev):

   -10.3280  -9.8280  -9.5572  -9.1713  -9.0220  -8.8610  -4.6913  -4.6877
    -4.6305  -4.5998  -4.5657  -4.5370  -4.4424  -4.4364  -4.4049  -4.3834
    -4.3415  -4.2676  -4.2551  -4.2042  -4.1851  -4.1651  -4.1035  -3.9658
    -3.9011  -3.5880   1.7472   2.6382   3.0208   4.1291   4.5711   4.6429
     4.9595   5.4226   5.6142   5.9489   6.1975   6.5481   6.8543   6.9972
     7.3037   7.4305   7.7382   7.9228

     occupation numbers 
     1.0000   1.0000   1.0000   1.0000   1.0000   1.0000   1.0000   1.0000
     1.0000   1.0000   1.0000   1.0000   1.0000   1.0000   1.0000   1.0000
     1.0000   1.0000   1.0000   1.0000   1.0000   1.0000   1.0000   1.0000
     1.0000   1.0000   1.0000   1.0000   1.0000   1.0000   1.0000   1.0000
     1.0000   1.0000   1.0000   1.0000   1.0000   1.0000   1.0000   1.0000
     1.0000   1.0000   1.0000   1.0000

          k =-0.3457 0.0859-0.3002 (  8533 PWs)   bands (ev):

   -10.3958  -9.7487  -9.5604  -9.1911  -8.9972  -8.8599  -4.6975  -4.6909
    -4.6306  -4.5931  -4.5598  -4.5277  -4.4487  -4.4376  -4.4025  -4.3797
    -4.3395  -4.2669  -4.2508  -4.2057  -4.1858  -4.1449  -4.0850  -3.9793
    -3.9106  -3.6109   1.5628   2.6052   2.9022   4.0261   4.5454   4.8829
     5.1539   5.5057   5.5805   5.9893   6.2853   6.5159   6.8394   7.0022
     7.2965   7.5523   7.7494   7.9350

     occupation numbers 
     1.0000   1.0000   1.0000   1.0000   1.0000   1.0000   1.0000   1.0000
     1.0000   1.0000   1.0000   1.0000   1.0000   1.0000   1.0000   1.0000
     1.0000   1.0000   1.0000   1.0000   1.0000   1.0000   1.0000   1.0000
     1.0000   1.0000   1.0000   1.0000   1.0000   1.0000   1.0000   1.0000
     1.0000   1.0000   1.0000   1.0000   1.0000   1.0000   1.0000   1.0000
     1.0000   1.0000   1.0000   1.0000

          k =-0.3457 0.0859-0.2071 (  8529 PWs)   bands (ev):

   -10.4537  -9.6760  -9.5585  -9.2148  -8.9685  -8.8670  -4.7036  -4.6932
    -4.6301  -4.5902  -4.5517  -4.5224  -4.4510  -4.4311  -4.4034  -4.3782
    -4.3399  -4.2691  -4.2446  -4.2079  -4.1871  -4.1216  -4.0490  -3.9992
    -3.9255  -3.6428   1.4304   2.4737   2.8784   3.9429   4.5197   5.0473
     5.3000   5.5654   5.6373   6.0742   6.3466   6.5040   6.7586   7.0433
     7.2868   7.6282   7.7614   7.9943

     occupation numbers 
     1.0000   1.0000   1.0000   1.0000   1.0000   1.0000   1.0000   1.0000
     1.0000   1.0000   1.0000   1.0000   1.0000   1.0000   1.0000   1.0000
     1.0000   1.0000   1.0000   1.0000   1.0000   1.0000   1.0000   1.0000
     1.0000   1.0000   1.0000   1.0000   1.0000   1.0000   1.0000   1.0000
     1.0000   1.0000   1.0000   1.0000   1.0000   1.0000   1.0000   1.0000
     1.0000   1.0000   1.0000   1.0000

          k =-0.3457 0.0859-0.1141 (  8533 PWs)   bands (ev):

   -10.4935  -9.6192  -9.5543  -9.2375  -8.9383  -8.8850  -4.7081  -4.6947
    -4.6295  -4.5890  -4.5460  -4.5205  -4.4489  -4.4211  -4.4085  -4.3775
    -4.3425  -4.2706  -4.2429  -4.2051  -4.1890  -4.1023  -4.0274  -3.9913
    -3.9447  -3.6801   1.3618   2.3656   2.8679   3.8805   4.4942   5.1570
     5.3469   5.6264   5.7256   6.1717   6.3550   6.5408   6.6530   7.0931
     7.2795   7.6204   7.7737   8.0868

     occupation numbers 
     1.0000   1.0000   1.0000   1.0000   1.0000   1.0000   1.0000   1.0000
     1.0000   1.0000   1.0000   1.0000   1.0000   1.0000   1.0000   1.0000
     1.0000   1.0000   1.0000   1.0000   1.0000   1.0000   1.0000   1.0000
     1.0000   1.0000   1.0000   1.0000   1.0000   1.0000   1.0000   1.0000
     1.0000   1.0000   1.0000   1.0000   1.0000   1.0000   1.0000   1.0000
     1.0000   1.0000   1.0000   1.0000

          k =-0.5186 0.1288-0.0315 (  8519 PWs)   bands (ev):

   -10.2783  -9.5268  -9.4832  -9.1784  -8.9214  -8.9074  -4.6665  -4.6503
    -4.5751  -4.5642  -4.5377  -4.5325  -4.4545  -4.4203  -4.4046  -4.3682
    -4.3460  -4.2577  -4.2445  -4.2143  -4.1858  -4.0948  -3.9634  -3.8399
    -3.7975  -3.6140   1.4694   2.2184   2.4141   3.3832   4.4944   4.7377
     4.9115   5.0650   5.5951   5.9767   6.0513   6.3425   6.8017   7.0788
     7.1684   7.4766   7.6805   8.1068

     occupation numbers 
     1.0000   1.0000   1.0000   1.0000   1.0000   1.0000   1.0000   1.0000
     1.0000   1.0000   1.0000   1.0000   1.0000   1.0000   1.0000   1.0000
     1.0000   1.0000   1.0000   1.0000   1.0000   1.0000   1.0000   1.0000
     1.0000   1.0000   1.0000   1.0000   1.0000   1.0000   1.0000   1.0000
     1.0000   1.0000   1.0000   1.0000   1.0000   1.0000   1.0000   1.0000
     1.0000   1.0000   1.0000   1.0000

          k =-0.5186 0.1288 0.0615 (  8522 PWs)   bands (ev):

   -10.2762  -9.5061  -9.4897  -9.1824  -8.9537  -8.8901  -4.6664  -4.6493
    -4.5756  -4.5647  -4.5346  -4.5298  -4.4552  -4.4218  -4.3981  -4.3710
    -4.3501  -4.2580  -4.2422  -4.2114  -4.1882  -4.0777  -4.0053  -3.8695
    -3.7614  -3.6110   1.5230   2.2319   2.4157   3.3840   4.4722   4.7699
     4.9098   5.0436   5.6470   5.9708   6.0474   6.3853   6.7176   6.9977
     7.1528   7.4163   7.7281   8.0689

     occupation numbers 
     1.0000   1.0000   1.0000   1.0000   1.0000   1.0000   1.0000   1.0000
     1.0000   1.0000   1.0000   1.0000   1.0000   1.0000   1.0000   1.0000
     1.0000   1.0000   1.0000   1.0000   1.0000   1.0000   1.0000   1.0000
     1.0000   1.0000   1.0000   1.0000   1.0000   1.0000   1.0000   1.0000
     1.0000   1.0000   1.0000   1.0000   1.0000   1.0000   1.0000   1.0000
     1.0000   1.0000   1.0000   1.0000

          k =-0.5186 0.1288 0.1546 (  8528 PWs)   bands (ev):

   -10.2540  -9.5294  -9.4745  -9.1784  -8.9916  -8.8780  -4.6647  -4.6466
    -4.5764  -4.5654  -4.5279  -4.5253  -4.4567  -4.4276  -4.3954  -4.3731
    -4.3503  -4.2583  -4.2390  -4.2103  -4.1899  -4.0606  -4.0499  -3.9063
    -3.7477  -3.5894   1.6277   2.2835   2.4922   3.4297   4.3577   4.6632
     4.9540   5.0427   5.6288   5.9126   6.0664   6.4100   6.6995   6.8391
     7.1821   7.3654   7.7784   7.9683

     occupation numbers 
     1.0000   1.0000   1.0000   1.0000   1.0000   1.0000   1.0000   1.0000
     1.0000   1.0000   1.0000   1.0000   1.0000   1.0000   1.0000   1.0000
     1.0000   1.0000   1.0000   1.0000   1.0000   1.0000   1.0000   1.0000
     1.0000   1.0000   1.0000   1.0000   1.0000   1.0000   1.0000   1.0000
     1.0000   1.0000   1.0000   1.0000   1.0000   1.0000   1.0000   1.0000
     1.0000   1.0000   1.0000   1.0000

          k =-0.5186 0.1288 0.2477 (  8523 PWs)   bands (ev):

   -10.2136  -9.5784  -9.4587  -9.1657  -9.0264  -8.8737  -4.6614  -4.6431
    -4.5774  -4.5668  -4.5204  -4.5186  -4.4577  -4.4347  -4.3984  -4.3726
    -4.3482  -4.2605  -4.2343  -4.2116  -4.1902  -4.0985  -4.0401  -3.9360
    -3.7523  -3.5617   1.7727   2.3227   2.6734   3.5138   4.1702   4.5828
     4.8162   5.1005   5.5545   5.8055   6.1376   6.3708   6.6779   6.7857
     7.1819   7.3672   7.7800   7.8749

     occupation numbers 
     1.0000   1.0000   1.0000   1.0000   1.0000   1.0000   1.0000   1.0000
     1.0000   1.0000   1.0000   1.0000   1.0000   1.0000   1.0000   1.0000
     1.0000   1.0000   1.0000   1.0000   1.0000   1.0000   1.0000   1.0000
     1.0000   1.0000   1.0000   1.0000   1.0000   1.0000   1.0000   1.0000
     1.0000   1.0000   1.0000   1.0000   1.0000   1.0000   1.0000   1.0000
     1.0000   1.0000   1.0000   1.0000

          k =-0.5186 0.1288 0.3407 (  8517 PWs)   bands (ev):

   -10.1597  -9.6428  -9.4513  -9.1459  -9.0520  -8.8758  -4.6567  -4.6404
    -4.5782  -4.5691  -4.5155  -4.5107  -4.4574  -4.4391  -4.4039  -4.3737
    -4.3444  -4.2667  -4.2286  -4.2129  -4.1897  -4.1347  -4.0422  -3.9380
    -3.7615  -3.5436   1.9434   2.3352   2.9343   3.6174   3.9763   4.5039
     4.6107   5.0522   5.4922   5.7415   6.1456   6.3266   6.6502   6.8395
     7.1604   7.4067   7.6813   7.8856

     occupation numbers 
     1.0000   1.0000   1.0000   1.0000   1.0000   1.0000   1.0000   1.0000
     1.0000   1.0000   1.0000   1.0000   1.0000   1.0000   1.0000   1.0000
     1.0000   1.0000   1.0000   1.0000   1.0000   1.0000   1.0000   1.0000
     1.0000   1.0000   1.0000   1.0000   1.0000   1.0000   1.0000   1.0000
     1.0000   1.0000   1.0000   1.0000   1.0000   1.0000   1.0000   1.0000
     1.0000   1.0000   1.0000   1.0000

          k =-0.5186 0.1288 0.4338 (  8520 PWs)   bands (ev):

   -10.1010  -9.7118  -9.4534  -9.1242  -9.0643  -8.8807  -4.6510  -4.6401
    -4.5781  -4.5719  -4.5130  -4.5060  -4.4554  -4.4394  -4.4099  -4.3773
    -4.3392  -4.2759  -4.2251  -4.2106  -4.1889  -4.1576  -4.0628  -3.9095
    -3.7704  -3.5398   2.1112   2.3120   3.2320   3.7047   3.8128   4.3096
     4.5411   4.8676   5.5176   5.7050   6.0291   6.3772   6.6940   6.8602
     7.1575   7.4200   7.6312   7.9066

     occupation numbers 
     1.0000   1.0000   1.0000   1.0000   1.0000   1.0000   1.0000   1.0000
     1.0000   1.0000   1.0000   1.0000   1.0000   1.0000   1.0000   1.0000
     1.0000   1.0000   1.0000   1.0000   1.0000   1.0000   1.0000   1.0000
     1.0000   1.0000   1.0000   1.0000   1.0000   1.0000   1.0000   1.0000
     1.0000   1.0000   1.0000   1.0000   1.0000   1.0000   1.0000   1.0000
     1.0000   1.0000   1.0000   1.0000

          k =-0.5186 0.1288-0.5899 (  8523 PWs)   bands (ev):

   -10.0579  -9.7630  -9.4628  -9.1098  -9.0611  -8.8840  -4.6458  -4.6427
    -4.5788  -4.5719  -4.5136  -4.5051  -4.4523  -4.4406  -4.4149  -4.3800
    -4.3338  -4.2821  -4.2287  -4.2014  -4.1857  -4.1687  -4.0830  -3.8693
    -3.7783  -3.5489   2.1507   2.3333   3.5032   3.6167   3.7740   4.1608
     4.6179   4.6494   5.5249   5.7241   5.9266   6.3908   6.7958   6.8611
     7.1689   7.4073   7.6484   7.9166

     occupation numbers 
     1.0000   1.0000   1.0000   1.0000   1.0000   1.0000   1.0000   1.0000
     1.0000   1.0000   1.0000   1.0000   1.0000   1.0000   1.0000   1.0000
     1.0000   1.0000   1.0000   1.0000   1.0000   1.0000   1.0000   1.0000
     1.0000   1.0000   1.0000   1.0000   1.0000   1.0000   1.0000   1.0000
     1.0000   1.0000   1.0000   1.0000   1.0000   1.0000   1.0000   1.0000
     1.0000   1.0000   1.0000   1.0000

          k =-0.5186 0.1288-0.4968 (  8530 PWs)   bands (ev):

   -10.0622  -9.7631  -9.4751  -9.1090  -9.0444  -8.8820  -4.6480  -4.6420
    -4.5802  -4.5689  -4.5168  -4.5074  -4.4506  -4.4453  -4.4176  -4.3786
    -4.3295  -4.2808  -4.2354  -4.1971  -4.1743  -4.1700  -4.0923  -3.8327
    -3.7826  -3.5664   2.0129   2.4250   3.3397   3.6453   3.8591   4.2381
     4.4508   4.8049   5.4425   5.8231   5.8794   6.3540   6.8082   6.9798
     7.1820   7.4135   7.6766   7.9137

     occupation numbers 
     1.0000   1.0000   1.0000   1.0000   1.0000   1.0000   1.0000   1.0000
     1.0000   1.0000   1.0000   1.0000   1.0000   1.0000   1.0000   1.0000
     1.0000   1.0000   1.0000   1.0000   1.0000   1.0000   1.0000   1.0000
     1.0000   1.0000   1.0000   1.0000   1.0000   1.0000   1.0000   1.0000
     1.0000   1.0000   1.0000   1.0000   1.0000   1.0000   1.0000   1.0000
     1.0000   1.0000   1.0000   1.0000

          k =-0.5186 0.1288-0.4038 (  8535 PWs)   bands (ev):

   -10.1106  -9.7157  -9.4858  -9.1190  -9.0208  -8.8764  -4.6536  -4.6416
    -4.5798  -4.5657  -4.5216  -4.5138  -4.4545  -4.4442  -4.4179  -4.3750
    -4.3274  -4.2735  -4.2421  -4.2009  -4.1778  -4.1464  -4.0811  -3.8224
    -3.7724  -3.5854   1.8370   2.4598   3.0364   3.6654   3.9853   4.2714
     4.5523   5.0006   5.3222   5.8522   5.9852   6.2896   6.8017   7.0685
     7.2326   7.4491   7.6914   7.9052

     occupation numbers 
     1.0000   1.0000   1.0000   1.0000   1.0000   1.0000   1.0000   1.0000
     1.0000   1.0000   1.0000   1.0000   1.0000   1.0000   1.0000   1.0000
     1.0000   1.0000   1.0000   1.0000   1.0000   1.0000   1.0000   1.0000
     1.0000   1.0000   1.0000   1.0000   1.0000   1.0000   1.0000   1.0000
     1.0000   1.0000   1.0000   1.0000   1.0000   1.0000   1.0000   1.0000
     1.0000   1.0000   1.0000   1.0000

          k =-0.5186 0.1288-0.3107 (  8528 PWs)   bands (ev):

   -10.1703  -9.6547  -9.4912  -9.1352  -8.9935  -8.8728  -4.6587  -4.6438
    -4.5779  -4.5637  -4.5271  -4.5229  -4.4565  -4.4395  -4.4162  -4.3716
    -4.3280  -4.2643  -4.2478  -4.2077  -4.1802  -4.1303  -4.0408  -3.8355
    -3.7620  -3.5985   1.6712   2.4310   2.7686   3.6056   4.1265   4.3240
     4.7812   5.1795   5.2036   5.8851   6.1129   6.2216   6.8215   7.0757
     7.2758   7.5161   7.6914   7.9168

     occupation numbers 
     1.0000   1.0000   1.0000   1.0000   1.0000   1.0000   1.0000   1.0000
     1.0000   1.0000   1.0000   1.0000   1.0000   1.0000   1.0000   1.0000
     1.0000   1.0000   1.0000   1.0000   1.0000   1.0000   1.0000   1.0000
     1.0000   1.0000   1.0000   1.0000   1.0000   1.0000   1.0000   1.0000
     1.0000   1.0000   1.0000   1.0000   1.0000   1.0000   1.0000   1.0000
     1.0000   1.0000   1.0000   1.0000

          k =-0.5186 0.1288-0.2176 (  8525 PWs)   bands (ev):

   -10.2228  -9.6000  -9.4899  -9.1527  -8.9646  -8.8768  -4.6626  -4.6469
    -4.5760  -4.5633  -4.5322  -4.5303  -4.4560  -4.4324  -4.4133  -4.3692
    -4.3319  -4.2567  -4.2510  -4.2136  -4.1819  -4.1196  -3.9837  -3.8550
    -3.7701  -3.6040   1.5450   2.3573   2.5727   3.5090   4.2888   4.4466
     4.9340   5.1181   5.3391   5.9259   6.1226   6.2434   6.8614   7.0686
     7.2650   7.5430   7.6822   7.9830

     occupation numbers 
     1.0000   1.0000   1.0000   1.0000   1.0000   1.0000   1.0000   1.0000
     1.0000   1.0000   1.0000   1.0000   1.0000   1.0000   1.0000   1.0000
     1.0000   1.0000   1.0000   1.0000   1.0000   1.0000   1.0000   1.0000
     1.0000   1.0000   1.0000   1.0000   1.0000   1.0000   1.0000   1.0000
     1.0000   1.0000   1.0000   1.0000   1.0000   1.0000   1.0000   1.0000
     1.0000   1.0000   1.0000   1.0000

          k =-0.5186 0.1288-0.1246 (  8526 PWs)   bands (ev):

   -10.2600  -9.5582  -9.4846  -9.1679  -8.9365  -8.8915  -4.6652  -4.6494
    -4.5751  -4.5637  -4.5367  -4.5330  -4.4549  -4.4247  -4.4099  -4.3678
    -4.3387  -4.2566  -4.2476  -4.2159  -4.1836  -4.1085  -3.9448  -3.8582
    -3.7920  -3.6084   1.4757   2.2689   2.4625   3.4274   4.4334   4.5829
     4.9665   5.0827   5.4840   5.9563   6.0768   6.3008   6.8676   7.0694
     7.2308   7.5197   7.6678   8.0690

     occupation numbers 
     1.0000   1.0000   1.0000   1.0000   1.0000   1.0000   1.0000   1.0000
     1.0000   1.0000   1.0000   1.0000   1.0000   1.0000   1.0000   1.0000
     1.0000   1.0000   1.0000   1.0000   1.0000   1.0000   1.0000   1.0000
     1.0000   1.0000   1.0000   1.0000   1.0000   1.0000   1.0000   1.0000
     1.0000   1.0000   1.0000   1.0000   1.0000   1.0000   1.0000   1.0000
     1.0000   1.0000   1.0000   1.0000

          k =-0.6914 0.1717-0.0420 (  8526 PWs)   bands (ev):

   -10.0081  -9.4711  -9.4027  -9.1484  -8.9152  -8.9088  -4.6289  -4.5802
    -4.5704  -4.5465  -4.5134  -4.4880  -4.4672  -4.4496  -4.3952  -4.3579
    -4.3463  -4.2316  -4.2217  -4.2068  -4.1822  -4.1183  -3.8808  -3.7665
    -3.6208  -3.5044   1.5207   1.9084   2.0918   3.1291   3.7362   4.5064
     4.6570   4.7626   5.5113   5.5758   5.8338   6.2931   6.9750   7.0155
     7.2304   7.4719   7.6008   8.0675

     occupation numbers 
     1.0000   1.0000   1.0000   1.0000   1.0000   1.0000   1.0000   1.0000
     1.0000   1.0000   1.0000   1.0000   1.0000   1.0000   1.0000   1.0000
     1.0000   1.0000   1.0000   1.0000   1.0000   1.0000   1.0000   1.0000
     1.0000   1.0000   1.0000   1.0000   1.0000   1.0000   1.0000   1.0000
     1.0000   1.0000   1.0000   1.0000   1.0000   1.0000   1.0000   1.0000
     1.0000   1.0000   1.0000   1.0000

          k =-0.6914 0.1717 0.0510 (  8536 PWs)   bands (ev):

   -10.0081  -9.4520  -9.4104  -9.1467  -8.9416  -8.8967  -4.6284  -4.5808
    -4.5712  -4.5389  -4.5129  -4.4860  -4.4656  -4.4503  -4.3878  -4.3640
    -4.3453  -4.2322  -4.2172  -4.2068  -4.1846  -4.1065  -3.9200  -3.7925
    -3.6057  -3.4913   1.5421   1.9064   2.1041   3.1257   3.7860   4.5506
     4.6304   4.7998   5.4364   5.6777   5.8448   6.2962   6.9341   6.9945
     7.0414   7.3919   7.6773   8.0394

     occupation numbers 
     1.0000   1.0000   1.0000   1.0000   1.0000   1.0000   1.0000   1.0000
     1.0000   1.0000   1.0000   1.0000   1.0000   1.0000   1.0000   1.0000
     1.0000   1.0000   1.0000   1.0000   1.0000   1.0000   1.0000   1.0000
     1.0000   1.0000   1.0000   1.0000   1.0000   1.0000   1.0000   1.0000
     1.0000   1.0000   1.0000   1.0000   1.0000   1.0000   1.0000   1.0000
     1.0000   1.0000   1.0000   1.0000

          k =-0.6914 0.1717 0.1441 (  8537 PWs)   bands (ev):

    -9.9917  -9.4462  -9.4174  -9.1396  -8.9740  -8.8910  -4.6266  -4.5819
    -4.5667  -4.5293  -4.5094  -4.4858  -4.4636  -4.4522  -4.3827  -4.3678
    -4.3403  -4.2346  -4.2144  -4.2042  -4.1875  -4.0915  -3.9654  -3.8277
    -3.6111  -3.4760   1.6100   1.9357   2.2020   3.1630   3.8068   4.4673
     4.5101   4.8999   5.3646   5.7214   5.9182   6.3286   6.8028   6.8417
     7.0463   7.2980   7.7196   7.9620

     occupation numbers 
     1.0000   1.0000   1.0000   1.0000   1.0000   1.0000   1.0000   1.0000
     1.0000   1.0000   1.0000   1.0000   1.0000   1.0000   1.0000   1.0000
     1.0000   1.0000   1.0000   1.0000   1.0000   1.0000   1.0000   1.0000
     1.0000   1.0000   1.0000   1.0000   1.0000   1.0000   1.0000   1.0000
     1.0000   1.0000   1.0000   1.0000   1.0000   1.0000   1.0000   1.0000
     1.0000   1.0000   1.0000   1.0000

          k =-0.6914 0.1717 0.2372 (  8534 PWs)   bands (ev):

    -9.9604  -9.4773  -9.4019  -9.1288  -9.0058  -8.8917  -4.6232  -4.5844
    -4.5569  -4.5267  -4.5000  -4.4866  -4.4621  -4.4514  -4.3867  -4.3618
    -4.3330  -4.2405  -4.2115  -4.2009  -4.1899  -4.0796  -4.0064  -3.8642
    -3.6270  -3.4674   1.7156   1.9906   2.3670   3.2125   3.8163   4.2893
     4.3995   4.9511   5.3433   5.6345   6.0162   6.3361   6.6617   6.7555
     7.1059   7.2142   7.7165   7.8744

     occupation numbers 
     1.0000   1.0000   1.0000   1.0000   1.0000   1.0000   1.0000   1.0000
     1.0000   1.0000   1.0000   1.0000   1.0000   1.0000   1.0000   1.0000
     1.0000   1.0000   1.0000   1.0000   1.0000   1.0000   1.0000   1.0000
     1.0000   1.0000   1.0000   1.0000   1.0000   1.0000   1.0000   1.0000
     1.0000   1.0000   1.0000   1.0000   1.0000   1.0000   1.0000   1.0000
     1.0000   1.0000   1.0000   1.0000

          k =-0.6914 0.1717 0.3302 (  8530 PWs)   bands (ev):

    -9.9178  -9.5243  -9.3862  -9.1185  -9.0284  -8.8972  -4.6182  -4.5874
    -4.5468  -4.5274  -4.4950  -4.4837  -4.4613  -4.4464  -4.3929  -4.3552
    -4.3222  -4.2514  -4.2072  -4.1992  -4.1892  -4.0934  -4.0230  -3.8862
    -3.6431  -3.4717   1.8453   2.0605   2.5655   3.2170   3.8670   4.0931
     4.2844   4.9415   5.3412   5.4654   6.0853   6.2436   6.6211   6.7938
     7.1306   7.1947   7.6652   7.8257

     occupation numbers 
     1.0000   1.0000   1.0000   1.0000   1.0000   1.0000   1.0000   1.0000
     1.0000   1.0000   1.0000   1.0000   1.0000   1.0000   1.0000   1.0000
     1.0000   1.0000   1.0000   1.0000   1.0000   1.0000   1.0000   1.0000
     1.0000   1.0000   1.0000   1.0000   1.0000   1.0000   1.0000   1.0000
     1.0000   1.0000   1.0000   1.0000   1.0000   1.0000   1.0000   1.0000
     1.0000   1.0000   1.0000   1.0000

          k =-0.6914 0.1717 0.4233 (  8526 PWs)   bands (ev):

    -9.8702  -9.5767  -9.3785  -9.1133  -9.0347  -8.9038  -4.6119  -4.5921
    -4.5403  -4.5278  -4.4931  -4.4805  -4.4605  -4.4424  -4.3983  -4.3522
    -4.3076  -4.2668  -4.2040  -4.1994  -4.1811  -4.1240  -4.0318  -3.8716
    -3.6564  -3.4885   1.9783   2.1225   2.7528   3.1483   3.9189   4.0046
     4.1569   4.8388   5.2356   5.4517   6.0487   6.1715   6.7113   6.8363
     7.0858   7.2746   7.6111   7.8097

     occupation numbers 
     1.0000   1.0000   1.0000   1.0000   1.0000   1.0000   1.0000   1.0000
     1.0000   1.0000   1.0000   1.0000   1.0000   1.0000   1.0000   1.0000
     1.0000   1.0000   1.0000   1.0000   1.0000   1.0000   1.0000   1.0000
     1.0000   1.0000   1.0000   1.0000   1.0000   1.0000   1.0000   1.0000
     1.0000   1.0000   1.0000   1.0000   1.0000   1.0000   1.0000   1.0000
     1.0000   1.0000   1.0000   1.0000

          k =-0.6914 0.1717-0.6004 (  8541 PWs)   bands (ev):

    -9.8323  -9.6197  -9.3811  -9.1113  -9.0283  -8.9067  -4.6048  -4.5988
    -4.5382  -4.5269  -4.4901  -4.4790  -4.4626  -4.4445  -4.4036  -4.3508
    -4.3017  -4.2739  -4.2059  -4.1985  -4.1657  -4.1474  -4.0425  -3.8237
    -3.6677  -3.5146   2.0756   2.1466   2.8951   3.0481   3.7823   4.0267
     4.2111   4.6436   5.1648   5.5451   5.9778   6.1392   6.8012   6.8877
     7.0775   7.3477   7.5887   7.8075

     occupation numbers 
     1.0000   1.0000   1.0000   1.0000   1.0000   1.0000   1.0000   1.0000
     1.0000   1.0000   1.0000   1.0000   1.0000   1.0000   1.0000   1.0000
     1.0000   1.0000   1.0000   1.0000   1.0000   1.0000   1.0000   1.0000
     1.0000   1.0000   1.0000   1.0000   1.0000   1.0000   1.0000   1.0000
     1.0000   1.0000   1.0000   1.0000   1.0000   1.0000   1.0000   1.0000
     1.0000   1.0000   1.0000   1.0000

          k =-0.6914 0.1717-0.5073 (  8532 PWs)   bands (ev):

    -9.8309  -9.6260  -9.3910  -9.1110  -9.0163  -8.9029  -4.6066  -4.5978
    -4.5377  -4.5278  -4.4894  -4.4769  -4.4690  -4.4530  -4.4078  -4.3503
    -4.3141  -4.2621  -4.2107  -4.1980  -4.1644  -4.1467  -4.0333  -3.7643
    -3.6749  -3.5456   2.0415   2.1638   2.9139   3.0312   3.6498   3.9622
     4.3777   4.5462   5.1089   5.6867   5.9798   6.0886   6.7543   7.0702
     7.0855   7.3941   7.5938   7.8145

     occupation numbers 
     1.0000   1.0000   1.0000   1.0000   1.0000   1.0000   1.0000   1.0000
     1.0000   1.0000   1.0000   1.0000   1.0000   1.0000   1.0000   1.0000
     1.0000   1.0000   1.0000   1.0000   1.0000   1.0000   1.0000   1.0000
     1.0000   1.0000   1.0000   1.0000   1.0000   1.0000   1.0000   1.0000
     1.0000   1.0000   1.0000   1.0000   1.0000   1.0000   1.0000   1.0000
     1.0000   1.0000   1.0000   1.0000

          k =-0.6914 0.1717-0.4143 (  8536 PWs)   bands (ev):

    -9.8682  -9.5941  -9.4022  -9.1156  -8.9991  -8.8948  -4.6142  -4.5916
    -4.5384  -4.5315  -4.4955  -4.4817  -4.4687  -4.4619  -4.4091  -4.3522
    -4.3232  -4.2511  -4.2163  -4.1984  -4.1712  -4.1404  -3.9924  -3.7301
    -3.6557  -3.5775   1.9120   2.1432   2.7469   3.1442   3.6132   3.8590
     4.4277   4.7219   5.0377   5.8053   6.0190   6.0774   6.7465   7.0475
     7.2700   7.4130   7.6076   7.8324

     occupation numbers 
     1.0000   1.0000   1.0000   1.0000   1.0000   1.0000   1.0000   1.0000
     1.0000   1.0000   1.0000   1.0000   1.0000   1.0000   1.0000   1.0000
     1.0000   1.0000   1.0000   1.0000   1.0000   1.0000   1.0000   1.0000
     1.0000   1.0000   1.0000   1.0000   1.0000   1.0000   1.0000   1.0000
     1.0000   1.0000   1.0000   1.0000   1.0000   1.0000   1.0000   1.0000
     1.0000   1.0000   1.0000   1.0000

          k =-0.6914 0.1717-0.3212 (  8554 PWs)   bands (ev):

    -9.9166  -9.5525  -9.4090  -9.1253  -8.9765  -8.8879  -4.6205  -4.5862
    -4.5488  -4.5301  -4.5092  -4.4874  -4.4668  -4.4617  -4.4081  -4.3554
    -4.3276  -4.2437  -4.2212  -4.1999  -4.1752  -4.1373  -3.9327  -3.7383
    -3.6093  -3.6005   1.7633   2.0796   2.5278   3.2381   3.5927   3.8795
     4.5089   4.8776   5.0157   5.8540   5.9396   6.2046   6.8196   7.0126
     7.3818   7.4319   7.6122   7.8751

     occupation numbers 
     1.0000   1.0000   1.0000   1.0000   1.0000   1.0000   1.0000   1.0000
     1.0000   1.0000   1.0000   1.0000   1.0000   1.0000   1.0000   1.0000
     1.0000   1.0000   1.0000   1.0000   1.0000   1.0000   1.0000   1.0000
     1.0000   1.0000   1.0000   1.0000   1.0000   1.0000   1.0000   1.0000
     1.0000   1.0000   1.0000   1.0000   1.0000   1.0000   1.0000   1.0000
     1.0000   1.0000   1.0000   1.0000

          k =-0.6914 0.1717-0.2282 (  8548 PWs)   bands (ev):

    -9.9600  -9.5174  -9.4086  -9.1362  -8.9519  -8.8872  -4.6251  -4.5807
    -4.5628  -4.5323  -4.5176  -4.4898  -4.4681  -4.4558  -4.4055  -4.3571
    -4.3327  -4.2380  -4.2245  -4.2023  -4.1779  -4.1331  -3.8775  -3.7532
    -3.6310  -3.5534   1.6357   2.0052   2.3201   3.2403   3.5913   4.0666
     4.6140   4.8180   5.1851   5.7958   5.8987   6.2780   6.9361   6.9957
     7.3925   7.4654   7.5932   7.9542

     occupation numbers 
     1.0000   1.0000   1.0000   1.0000   1.0000   1.0000   1.0000   1.0000
     1.0000   1.0000   1.0000   1.0000   1.0000   1.0000   1.0000   1.0000
     1.0000   1.0000   1.0000   1.0000   1.0000   1.0000   1.0000   1.0000
     1.0000   1.0000   1.0000   1.0000   1.0000   1.0000   1.0000   1.0000
     1.0000   1.0000   1.0000   1.0000   1.0000   1.0000   1.0000   1.0000
     1.0000   1.0000   1.0000   1.0000

          k =-0.6914 0.1717-0.1351 (  8532 PWs)   bands (ev):

    -9.9916  -9.4918  -9.4040  -9.1446  -8.9288  -8.8956  -4.6278  -4.5760
    -4.5727  -4.5427  -4.5152  -4.4899  -4.4681  -4.4515  -4.4013  -4.3570
    -4.3401  -4.2331  -4.2252  -4.2049  -4.1800  -4.1269  -3.8589  -3.7573
    -3.6379  -3.5213   1.5517   1.9435   2.1671   3.1759   3.6622   4.2969
     4.7020   4.7416   5.3643   5.6791   5.8654   6.2985   6.9623   7.0364
     7.3641   7.4831   7.5607   8.0336

     occupation numbers 
     1.0000   1.0000   1.0000   1.0000   1.0000   1.0000   1.0000   1.0000
     1.0000   1.0000   1.0000   1.0000   1.0000   1.0000   1.0000   1.0000
     1.0000   1.0000   1.0000   1.0000   1.0000   1.0000   1.0000   1.0000
     1.0000   1.0000   1.0000   1.0000   1.0000   1.0000   1.0000   1.0000
     1.0000   1.0000   1.0000   1.0000   1.0000   1.0000   1.0000   1.0000
     1.0000   1.0000   1.0000   1.0000

          k =-0.8643 0.2147-0.0525 (  8542 PWs)   bands (ev):

    -9.7659  -9.4234  -9.3346  -9.1858  -8.9085  -8.9039  -4.5962  -4.5821
    -4.5500  -4.5315  -4.5138  -4.4710  -4.4446  -4.4185  -4.3999  -4.3671
    -4.3122  -4.2160  -4.1963  -4.1911  -4.1729  -4.1322  -3.8509  -3.7415
    -3.4696  -3.4083   1.4316   1.7139   1.8927   2.9343   3.1835   4.1821
     4.6000   4.7500   5.1740   5.3003   6.0450   6.2314   6.8004   6.9742
     7.4063   7.5086   7.6670   8.0243

     occupation numbers 
     1.0000   1.0000   1.0000   1.0000   1.0000   1.0000   1.0000   1.0000
     1.0000   1.0000   1.0000   1.0000   1.0000   1.0000   1.0000   1.0000
     1.0000   1.0000   1.0000   1.0000   1.0000   1.0000   1.0000   1.0000
     1.0000   1.0000   1.0000   1.0000   1.0000   1.0000   1.0000   1.0000
     1.0000   1.0000   1.0000   1.0000   1.0000   1.0000   1.0000   1.0000
     1.0000   1.0000   1.0000   1.0000

          k =-0.8643 0.2147 0.0405 (  8547 PWs)   bands (ev):

    -9.7657  -9.4123  -9.3401  -9.1829  -8.9181  -8.9032  -4.5959  -4.5795
    -4.5532  -4.5246  -4.5129  -4.4762  -4.4340  -4.4186  -4.3949  -4.3733
    -4.3098  -4.2155  -4.1938  -4.1903  -4.1743  -4.1287  -3.8727  -3.7571
    -3.4633  -3.4113   1.4343   1.7146   1.9098   2.9674   3.1891   4.1760
     4.6476   4.8457   5.0391   5.3788   6.0323   6.2491   6.7778   6.9490
     7.2449   7.4618   7.7017   8.0012

     occupation numbers 
     1.0000   1.0000   1.0000   1.0000   1.0000   1.0000   1.0000   1.0000
     1.0000   1.0000   1.0000   1.0000   1.0000   1.0000   1.0000   1.0000
     1.0000   1.0000   1.0000   1.0000   1.0000   1.0000   1.0000   1.0000
     1.0000   1.0000   1.0000   1.0000   1.0000   1.0000   1.0000   1.0000
     1.0000   1.0000   1.0000   1.0000   1.0000   1.0000   1.0000   1.0000
     1.0000   1.0000   1.0000   1.0000

          k =-0.8643 0.2147 0.1336 (  8536 PWs)   bands (ev):

    -9.7536  -9.4067  -9.3452  -9.1771  -8.9363  -8.9050  -4.5959  -4.5684
    -4.5538  -4.5230  -4.5050  -4.4866  -4.4254  -4.4161  -4.3871  -4.3772
    -4.3042  -4.2166  -4.1931  -4.1887  -4.1744  -4.1238  -3.8960  -3.7780
    -3.4859  -3.4218   1.4797   1.7578   1.9891   2.9591   3.2675   4.0913
     4.5976   4.8606   5.0356   5.4663   6.0425   6.2900   6.7430   6.9302
     7.0324   7.3697   7.6980   7.9334

     occupation numbers 
     1.0000   1.0000   1.0000   1.0000   1.0000   1.0000   1.0000   1.0000
     1.0000   1.0000   1.0000   1.0000   1.0000   1.0000   1.0000   1.0000
     1.0000   1.0000   1.0000   1.0000   1.0000   1.0000   1.0000   1.0000
     1.0000   1.0000   1.0000   1.0000   1.0000   1.0000   1.0000   1.0000
     1.0000   1.0000   1.0000   1.0000   1.0000   1.0000   1.0000   1.0000
     1.0000   1.0000   1.0000   1.0000

          k =-0.8643 0.2147 0.2266 (  8537 PWs)   bands (ev):

    -9.7307  -9.4187  -9.3391  -9.1699  -8.9561  -8.9119  -4.5935  -4.5621
    -4.5442  -4.5250  -4.4993  -4.4907  -4.4239  -4.4135  -4.3826  -4.3716
    -4.2948  -4.2202  -4.1957  -4.1865  -4.1713  -4.1179  -3.9196  -3.8000
    -3.5220  -3.4423   1.5623   1.8283   2.1175   2.9063   3.4021   3.9734
     4.4879   4.7862   5.1426   5.5166   6.0565   6.2895   6.7115   6.8397
     6.9517   7.2715   7.6583   7.8435

     occupation numbers 
     1.0000   1.0000   1.0000   1.0000   1.0000   1.0000   1.0000   1.0000
     1.0000   1.0000   1.0000   1.0000   1.0000   1.0000   1.0000   1.0000
     1.0000   1.0000   1.0000   1.0000   1.0000   1.0000   1.0000   1.0000
     1.0000   1.0000   1.0000   1.0000   1.0000   1.0000   1.0000   1.0000
     1.0000   1.0000   1.0000   1.0000   1.0000   1.0000   1.0000   1.0000
     1.0000   1.0000   1.0000   1.0000

          k =-0.8643 0.2147 0.3197 (  8535 PWs)   bands (ev):

    -9.6992  -9.4480  -9.3239  -9.1638  -8.9729  -8.9214  -4.5892  -4.5613
    -4.5327  -4.5260  -4.5041  -4.4786  -4.4261  -4.4165  -4.3805  -4.3612
    -4.2818  -4.2280  -4.1983  -4.1849  -4.1654  -4.1144  -3.9389  -3.8163
    -3.5569  -3.4712   1.6719   1.9110   2.2643   2.8109   3.5611   3.8607
     4.3538   4.7422   5.2479   5.4805   6.0122   6.1904   6.7275   6.8102
     6.9972   7.1798   7.6049   7.7537

     occupation numbers 
     1.0000   1.0000   1.0000   1.0000   1.0000   1.0000   1.0000   1.0000
     1.0000   1.0000   1.0000   1.0000   1.0000   1.0000   1.0000   1.0000
     1.0000   1.0000   1.0000   1.0000   1.0000   1.0000   1.0000   1.0000
     1.0000   1.0000   1.0000   1.0000   1.0000   1.0000   1.0000   1.0000
     1.0000   1.0000   1.0000   1.0000   1.0000   1.0000   1.0000   1.0000
     1.0000   1.0000   1.0000   1.0000

          k =-0.8643 0.2147 0.4128 (  8538 PWs)   bands (ev):

    -9.6633  -9.4850  -9.3100  -9.1605  -8.9832  -8.9293  -4.5838  -4.5634
    -4.5322  -4.5255  -4.4959  -4.4681  -4.4313  -4.4233  -4.3783  -4.3550
    -4.2676  -4.2408  -4.1978  -4.1851  -4.1571  -4.1181  -3.9465  -3.8168
    -3.5843  -3.5018   1.7905   1.9887   2.3895   2.6891   3.6593   3.8051
     4.2485   4.7258   5.2960   5.3948   5.9436   6.0659   6.7879   6.8978
     7.0614   7.1010   7.5663   7.6758

     occupation numbers 
     1.0000   1.0000   1.0000   1.0000   1.0000   1.0000   1.0000   1.0000
     1.0000   1.0000   1.0000   1.0000   1.0000   1.0000   1.0000   1.0000
     1.0000   1.0000   1.0000   1.0000   1.0000   1.0000   1.0000   1.0000
     1.0000   1.0000   1.0000   1.0000   1.0000   1.0000   1.0000   1.0000
     1.0000   1.0000   1.0000   1.0000   1.0000   1.0000   1.0000   1.0000
     1.0000   1.0000   1.0000   1.0000

          k =-0.8643 0.2147-0.6109 (  8545 PWs)   bands (ev):

    -9.6331  -9.5179  -9.3047  -9.1595  -8.9864  -8.9307  -4.5781  -4.5686
    -4.5344  -4.5238  -4.4853  -4.4628  -4.4414  -4.4279  -4.3804  -4.3522
    -4.2578  -4.2525  -4.1971  -4.1870  -4.1489  -4.1289  -3.9345  -3.7972
    -3.6039  -3.5255   1.8790   2.0428   2.4650   2.5746   3.6133   3.8214
     4.2170   4.7309   5.1143   5.5226   5.8939   6.0026   6.8161   7.0129
     7.0242   7.1817   7.5481   7.6237

     occupation numbers 
     1.0000   1.0000   1.0000   1.0000   1.0000   1.0000   1.0000   1.0000
     1.0000   1.0000   1.0000   1.0000   1.0000   1.0000   1.0000   1.0000
     1.0000   1.0000   1.0000   1.0000   1.0000   1.0000   1.0000   1.0000
     1.0000   1.0000   1.0000   1.0000   1.0000   1.0000   1.0000   1.0000
     1.0000   1.0000   1.0000   1.0000   1.0000   1.0000   1.0000   1.0000
     1.0000   1.0000   1.0000   1.0000

          k =-0.8643 0.2147-0.5179 (  8539 PWs)   bands (ev):

    -9.6323  -9.5228  -9.3093  -9.1606  -8.9825  -8.9244  -4.5772  -4.5712
    -4.5352  -4.5212  -4.4831  -4.4676  -4.4506  -4.4271  -4.3875  -4.3502
    -4.2737  -4.2394  -4.2000  -4.1879  -4.1483  -4.1376  -3.9002  -3.7709
    -3.6119  -3.5347   1.8724   2.0698   2.4394   2.5521   3.5687   3.7757
     4.1994   4.7829   4.9821   5.6569   5.8540   6.0547   6.7667   6.9902
     7.1744   7.2646   7.5451   7.6215

     occupation numbers 
     1.0000   1.0000   1.0000   1.0000   1.0000   1.0000   1.0000   1.0000
     1.0000   1.0000   1.0000   1.0000   1.0000   1.0000   1.0000   1.0000
     1.0000   1.0000   1.0000   1.0000   1.0000   1.0000   1.0000   1.0000
     1.0000   1.0000   1.0000   1.0000   1.0000   1.0000   1.0000   1.0000
     1.0000   1.0000   1.0000   1.0000   1.0000   1.0000   1.0000   1.0000
     1.0000   1.0000   1.0000   1.0000

          k =-0.8643 0.2147-0.4248 (  8538 PWs)   bands (ev):

    -9.6628  -9.4985  -9.3191  -9.1652  -8.9710  -8.9137  -4.5847  -4.5659
    -4.5352  -4.5194  -4.4954  -4.4790  -4.4517  -4.4218  -4.3958  -4.3491
    -4.2887  -4.2274  -4.2041  -4.1882  -4.1570  -4.1382  -3.8523  -3.7597
    -3.5994  -3.5239   1.7790   2.0420   2.3258   2.6224   3.5637   3.7121
     4.1565   4.8897   4.9180   5.6667   5.9120   6.1789   6.7344   6.9668
     7.2763   7.3337   7.5669   7.6816

     occupation numbers 
     1.0000   1.0000   1.0000   1.0000   1.0000   1.0000   1.0000   1.0000
     1.0000   1.0000   1.0000   1.0000   1.0000   1.0000   1.0000   1.0000
     1.0000   1.0000   1.0000   1.0000   1.0000   1.0000   1.0000   1.0000
     1.0000   1.0000   1.0000   1.0000   1.0000   1.0000   1.0000   1.0000
     1.0000   1.0000   1.0000   1.0000   1.0000   1.0000   1.0000   1.0000
     1.0000   1.0000   1.0000   1.0000

          k =-0.8643 0.2147-0.3317 (  8546 PWs)   bands (ev):

    -9.6993  -9.4709  -9.3277  -9.1726  -8.9538  -8.9035  -4.5916  -4.5608
    -4.5384  -4.5249  -4.5080  -4.4858  -4.4499  -4.4155  -4.4036  -4.3500
    -4.3003  -4.2206  -4.2046  -4.1889  -4.1644  -4.1379  -3.8135  -3.7596
    -3.5730  -3.4912   1.6601   1.9554   2.1841   2.7127   3.4826   3.7705
     4.1783   4.8461   5.0294   5.5893   6.0031   6.2675   6.7707   6.9598
     7.2880   7.4308   7.5986   7.7903

     occupation numbers 
     1.0000   1.0000   1.0000   1.0000   1.0000   1.0000   1.0000   1.0000
     1.0000   1.0000   1.0000   1.0000   1.0000   1.0000   1.0000   1.0000
     1.0000   1.0000   1.0000   1.0000   1.0000   1.0000   1.0000   1.0000
     1.0000   1.0000   1.0000   1.0000   1.0000   1.0000   1.0000   1.0000
     1.0000   1.0000   1.0000   1.0000   1.0000   1.0000   1.0000   1.0000
     1.0000   1.0000   1.0000   1.0000

          k =-0.8643 0.2147-0.2387 (  8558 PWs)   bands (ev):

    -9.7311  -9.4498  -9.3317  -9.1801  -8.9351  -8.8973  -4.5964  -4.5559
    -4.5553  -4.5269  -4.5152  -4.4824  -4.4490  -4.4111  -4.4090  -4.3538
    -4.3079  -4.2186  -4.2017  -4.1899  -4.1689  -4.1368  -3.8131  -3.7449
    -3.5389  -3.4504   1.5517   1.8509   2.0432   2.7999   3.3512   3.9249
     4.2882   4.7858   5.1367   5.4772   6.0552   6.2733   6.8130   6.9830
     7.3441   7.4918   7.6193   7.9062

     occupation numbers 
     1.0000   1.0000   1.0000   1.0000   1.0000   1.0000   1.0000   1.0000
     1.0000   1.0000   1.0000   1.0000   1.0000   1.0000   1.0000   1.0000
     1.0000   1.0000   1.0000   1.0000   1.0000   1.0000   1.0000   1.0000
     1.0000   1.0000   1.0000   1.0000   1.0000   1.0000   1.0000   1.0000
     1.0000   1.0000   1.0000   1.0000   1.0000   1.0000   1.0000   1.0000
     1.0000   1.0000   1.0000   1.0000

          k =-0.8643 0.2147-0.1456 (  8540 PWs)   bands (ev):

    -9.7540  -9.4352  -9.3326  -9.1848  -8.9191  -8.8973  -4.5979  -4.5723
    -4.5509  -4.5314  -4.5153  -4.4747  -4.4488  -4.4158  -4.4044  -4.3601
    -4.3117  -4.2173  -4.1989  -4.1909  -4.1712  -4.1348  -3.8305  -3.7359
    -3.5000  -3.4201   1.4722   1.7628   1.9390   2.8748   3.2430   4.0849
     4.4493   4.7414   5.2168   5.3403   6.0617   6.2469   6.8162   6.9897
     7.4393   7.5091   7.6305   7.9913

     occupation numbers 
     1.0000   1.0000   1.0000   1.0000   1.0000   1.0000   1.0000   1.0000
     1.0000   1.0000   1.0000   1.0000   1.0000   1.0000   1.0000   1.0000
     1.0000   1.0000   1.0000   1.0000   1.0000   1.0000   1.0000   1.0000
     1.0000   1.0000   1.0000   1.0000   1.0000   1.0000   1.0000   1.0000
     1.0000   1.0000   1.0000   1.0000   1.0000   1.0000   1.0000   1.0000
     1.0000   1.0000   1.0000   1.0000

          k = 1.0372-0.2576 0.0631 (  8548 PWs)   bands (ev):

    -9.6579  -9.4011  -9.2781  -9.2534  -8.9078  -8.8998  -4.5840  -4.5795
    -4.5498  -4.5289  -4.5227  -4.4770  -4.4202  -4.4055  -4.3996  -4.3730
    -4.2717  -4.2023  -4.1988  -4.1837  -4.1630  -4.1394  -3.8715  -3.7227
    -3.4011  -3.3774   1.3424   1.6259   1.9717   2.5500   3.2401   4.0364
     4.5673   4.8574   5.0604   5.0944   6.1118   6.3253   6.6480   6.9324
     7.4763   7.5090   7.7436   8.0039

     occupation numbers 
     1.0000   1.0000   1.0000   1.0000   1.0000   1.0000   1.0000   1.0000
     1.0000   1.0000   1.0000   1.0000   1.0000   1.0000   1.0000   1.0000
     1.0000   1.0000   1.0000   1.0000   1.0000   1.0000   1.0000   1.0000
     1.0000   1.0000   1.0000   1.0000   1.0000   1.0000   1.0000   1.0000
     1.0000   1.0000   1.0000   1.0000   1.0000   1.0000   1.0000   1.0000
     1.0000   1.0000   1.0000   1.0000

          k = 1.0372-0.2576 0.1561 (  8552 PWs)   bands (ev):

    -9.6532  -9.4027  -9.2755  -9.2533  -8.9112  -8.9025  -4.5863  -4.5710
    -4.5518  -4.5289  -4.5194  -4.4806  -4.4201  -4.4069  -4.3949  -4.3727
    -4.2708  -4.2013  -4.1987  -4.1849  -4.1627  -4.1390  -3.8701  -3.7254
    -3.4148  -3.3890   1.3621   1.6583   1.9914   2.5500   3.2586   4.0010
     4.4953   4.8748   5.0485   5.1683   6.1167   6.3262   6.6554   6.9279
     7.3949   7.5056   7.7317   7.9727

     occupation numbers 
     1.0000   1.0000   1.0000   1.0000   1.0000   1.0000   1.0000   1.0000
     1.0000   1.0000   1.0000   1.0000   1.0000   1.0000   1.0000   1.0000
     1.0000   1.0000   1.0000   1.0000   1.0000   1.0000   1.0000   1.0000
     1.0000   1.0000   1.0000   1.0000   1.0000   1.0000   1.0000   1.0000
     1.0000   1.0000   1.0000   1.0000   1.0000   1.0000   1.0000   1.0000
     1.0000   1.0000   1.0000   1.0000

          k = 1.0372-0.2576 0.2492 (  8544 PWs)   bands (ev):

    -9.6393  -9.4088  -9.2685  -9.2516  -8.9208  -8.9101  -4.5851  -4.5581
    -4.5522  -4.5314  -4.5095  -4.4883  -4.4213  -4.4068  -4.3871  -4.3712
    -4.2678  -4.1992  -4.1979  -4.1895  -4.1603  -4.1381  -3.8657  -3.7338
    -3.4513  -3.4211   1.4198   1.7454   2.0469   2.5455   3.3127   3.9012
     4.3886   4.8633   5.0682   5.2932   6.1216   6.3138   6.6791   6.9199
     7.2340   7.4544   7.6950   7.8870

     occupation numbers 
     1.0000   1.0000   1.0000   1.0000   1.0000   1.0000   1.0000   1.0000
     1.0000   1.0000   1.0000   1.0000   1.0000   1.0000   1.0000   1.0000
     1.0000   1.0000   1.0000   1.0000   1.0000   1.0000   1.0000   1.0000
     1.0000   1.0000   1.0000   1.0000   1.0000   1.0000   1.0000   1.0000
     1.0000   1.0000   1.0000   1.0000   1.0000   1.0000   1.0000   1.0000
     1.0000   1.0000   1.0000   1.0000

          k = 1.0372-0.2576 0.3422 (  8545 PWs)   bands (ev):

    -9.6174  -9.4225  -9.2585  -9.2462  -8.9347  -8.9212  -4.5804  -4.5594
    -4.5376  -4.5320  -4.5036  -4.4875  -4.4250  -4.4065  -4.3807  -4.3673
    -4.2629  -4.2036  -4.1951  -4.1920  -4.1548  -4.1373  -3.8585  -3.7478
    -3.4995  -3.4664   1.5100   1.8581   2.1289   2.5235   3.3980   3.7660
     4.3381   4.8031   5.1132   5.4081   6.0911   6.2550   6.7185   6.9212
     7.0756   7.3857   7.6327   7.7688

     occupation numbers 
     1.0000   1.0000   1.0000   1.0000   1.0000   1.0000   1.0000   1.0000
     1.0000   1.0000   1.0000   1.0000   1.0000   1.0000   1.0000   1.0000
     1.0000   1.0000   1.0000   1.0000   1.0000   1.0000   1.0000   1.0000
     1.0000   1.0000   1.0000   1.0000   1.0000   1.0000   1.0000   1.0000
     1.0000   1.0000   1.0000   1.0000   1.0000   1.0000   1.0000   1.0000
     1.0000   1.0000   1.0000   1.0000

          k = 1.0372-0.2576 0.4353 (  8538 PWs)   bands (ev):

    -9.5892  -9.4446  -9.2473  -9.2375  -8.9498  -8.9332  -4.5746  -4.5612
    -4.5353  -4.5286  -4.4959  -4.4742  -4.4303  -4.4089  -4.3755  -4.3621
    -4.2570  -4.2164  -4.1929  -4.1864  -4.1482  -4.1370  -3.8482  -3.7673
    -3.5443  -3.5141   1.6212   1.9575   2.2218   2.4741   3.4992   3.6496
     4.3464   4.7148   5.1753   5.4927   5.9986   6.1164   6.7824   6.9205
     7.0243   7.3126   7.5535   7.6520

     occupation numbers 
     1.0000   1.0000   1.0000   1.0000   1.0000   1.0000   1.0000   1.0000
     1.0000   1.0000   1.0000   1.0000   1.0000   1.0000   1.0000   1.0000
     1.0000   1.0000   1.0000   1.0000   1.0000   1.0000   1.0000   1.0000
     1.0000   1.0000   1.0000   1.0000   1.0000   1.0000   1.0000   1.0000
     1.0000   1.0000   1.0000   1.0000   1.0000   1.0000   1.0000   1.0000
     1.0000   1.0000   1.0000   1.0000

          k = 1.0372-0.2576 0.5284 (  8540 PWs)   bands (ev):

    -9.5584  -9.4721  -9.2377  -9.2298  -8.9619  -8.9426  -4.5708  -4.5606
    -4.5356  -4.5324  -4.4793  -4.4635  -4.4350  -4.4138  -4.3708  -4.3582
    -4.2506  -4.2301  -4.1898  -4.1811  -4.1431  -4.1371  -3.8345  -3.7907
    -3.5722  -3.5527   1.7287   2.0136   2.2976   2.4125   3.5350   3.6396
     4.3765   4.6299   5.2648   5.5311   5.8728   5.9533   6.8708   6.9301
     7.0560   7.2150   7.4899   7.5682

     occupation numbers 
     1.0000   1.0000   1.0000   1.0000   1.0000   1.0000   1.0000   1.0000
     1.0000   1.0000   1.0000   1.0000   1.0000   1.0000   1.0000   1.0000
     1.0000   1.0000   1.0000   1.0000   1.0000   1.0000   1.0000   1.0000
     1.0000   1.0000   1.0000   1.0000   1.0000   1.0000   1.0000   1.0000
     1.0000   1.0000   1.0000   1.0000   1.0000   1.0000   1.0000   1.0000
     1.0000   1.0000   1.0000   1.0000

          k = 1.0372-0.2576-0.4953 (  8544 PWs)   bands (ev):

    -9.5390  -9.4906  -9.2337  -9.2267  -8.9666  -8.9462  -4.5700  -4.5593
    -4.5373  -4.5331  -4.4681  -4.4635  -4.4360  -4.4170  -4.3686  -4.3568
    -4.2449  -4.2391  -4.1882  -4.1790  -4.1414  -4.1371  -3.8206  -3.8089
    -3.5783  -3.5705   1.7799   2.0259   2.3268   2.3826   3.5208   3.6746
     4.3912   4.5924   5.3422   5.5083   5.8075   5.8877   6.9064   6.9733
     7.0780   7.1383   7.4665   7.5380

     occupation numbers 
     1.0000   1.0000   1.0000   1.0000   1.0000   1.0000   1.0000   1.0000
     1.0000   1.0000   1.0000   1.0000   1.0000   1.0000   1.0000   1.0000
     1.0000   1.0000   1.0000   1.0000   1.0000   1.0000   1.0000   1.0000
     1.0000   1.0000   1.0000   1.0000   1.0000   1.0000   1.0000   1.0000
     1.0000   1.0000   1.0000   1.0000   1.0000   1.0000   1.0000   1.0000
     1.0000   1.0000   1.0000   1.0000

          k = 0.0000 0.0859-0.0210 (  8542 PWs)   bands (ev):

   -10.7076  -9.6618  -9.6297  -9.3311  -8.9113  -8.9021  -4.7222  -4.7152
    -4.7087  -4.6456  -4.4964  -4.4848  -4.4808  -4.4672  -4.4245  -4.3094
    -4.2987  -4.2879  -4.2527  -4.2191  -4.2103  -4.1984  -4.1415  -4.0779
    -3.9968  -3.7628   1.2296   2.3013   3.3708   4.1290   4.6923   5.4280
     5.7824   5.8535   6.2453   6.3889   6.4176   6.8088   7.2319   7.5608
     7.5850   7.7036   7.8397   8.1314

     occupation numbers 
     1.0000   1.0000   1.0000   1.0000   1.0000   1.0000   1.0000   1.0000
     1.0000   1.0000   1.0000   1.0000   1.0000   1.0000   1.0000   1.0000
     1.0000   1.0000   1.0000   1.0000   1.0000   1.0000   1.0000   1.0000
     1.0000   1.0000   1.0000   1.0000   1.0000   1.0000   1.0000   1.0000
     1.0000   1.0000   1.0000   1.0000   1.0000   1.0000   1.0000   1.0000
     1.0000   1.0000   1.0000   1.0000

          k = 0.0000 0.0859 0.0720 (  8528 PWs)   bands (ev):

   -10.7018  -9.6655  -9.6081  -9.3510  -8.9456  -8.8768  -4.7210  -4.7151
    -4.7094  -4.6455  -4.5151  -4.4922  -4.4773  -4.4650  -4.4162  -4.3217
    -4.3014  -4.2905  -4.2588  -4.2177  -4.2087  -4.1985  -4.1415  -4.0784
    -3.9166  -3.8140   1.2983   2.3495   3.3382   4.1074   4.6220   5.4792
     5.7484   5.8399   6.2197   6.3149   6.4297   6.8558   7.2269   7.5648
     7.5917   7.7162   7.8704   8.0578

     occupation numbers 
     1.0000   1.0000   1.0000   1.0000   1.0000   1.0000   1.0000   1.0000
     1.0000   1.0000   1.0000   1.0000   1.0000   1.0000   1.0000   1.0000
     1.0000   1.0000   1.0000   1.0000   1.0000   1.0000   1.0000   1.0000
     1.0000   1.0000   1.0000   1.0000   1.0000   1.0000   1.0000   1.0000
     1.0000   1.0000   1.0000   1.0000   1.0000   1.0000   1.0000   1.0000
     1.0000   1.0000   1.0000   1.0000

          k = 0.0000 0.0859 0.1651 (  8536 PWs)   bands (ev):

   -10.6714  -9.7091  -9.5902  -9.3537  -8.9812  -8.8567  -4.7157  -4.7153
    -4.7105  -4.6448  -4.5553  -4.5038  -4.4697  -4.4572  -4.4094  -4.3286
    -4.3095  -4.2984  -4.2659  -4.2199  -4.2044  -4.1982  -4.1410  -4.0702
    -3.8626  -3.8225   1.4235   2.4658   3.2429   4.0697   4.6046   5.5486
     5.7481   5.8527   6.1646   6.1711   6.3977   6.8875   7.1609   7.5775
     7.6213   7.6563   7.7727   7.9830

     occupation numbers 
     1.0000   1.0000   1.0000   1.0000   1.0000   1.0000   1.0000   1.0000
     1.0000   1.0000   1.0000   1.0000   1.0000   1.0000   1.0000   1.0000
     1.0000   1.0000   1.0000   1.0000   1.0000   1.0000   1.0000   1.0000
     1.0000   1.0000   1.0000   1.0000   1.0000   1.0000   1.0000   1.0000
     1.0000   1.0000   1.0000   1.0000   1.0000   1.0000   1.0000   1.0000
     1.0000   1.0000   1.0000   1.0000

          k = 0.0000 0.0859 0.2582 (  8523 PWs)   bands (ev):

   -10.6188  -9.7829  -9.5883  -9.3339  -9.0110  -8.8455  -4.7156  -4.7117
    -4.7071  -4.6430  -4.5936  -4.5263  -4.4593  -4.4444  -4.4071  -4.3292
    -4.3218  -4.3106  -4.2727  -4.2255  -4.1974  -4.1959  -4.1404  -4.0598
    -3.8987  -3.7357   1.5972   2.6179   3.1150   3.9722   4.6844   5.6212
     5.7852   5.8934   5.9583   6.0932   6.3471   6.9155   7.0595   7.4155
     7.5852   7.6623   7.6764   7.9731

     occupation numbers 
     1.0000   1.0000   1.0000   1.0000   1.0000   1.0000   1.0000   1.0000
     1.0000   1.0000   1.0000   1.0000   1.0000   1.0000   1.0000   1.0000
     1.0000   1.0000   1.0000   1.0000   1.0000   1.0000   1.0000   1.0000
     1.0000   1.0000   1.0000   1.0000   1.0000   1.0000   1.0000   1.0000
     1.0000   1.0000   1.0000   1.0000   1.0000   1.0000   1.0000   1.0000
     1.0000   1.0000   1.0000   1.0000

          k = 0.0000 0.0859 0.3512 (  8515 PWs)   bands (ev):

   -10.5500  -9.8768  -9.5977  -9.2992  -9.0320  -8.8426  -4.7160  -4.7126
    -4.6960  -4.6405  -4.6227  -4.5536  -4.4475  -4.4281  -4.4085  -4.3360
    -4.3260  -4.3243  -4.2773  -4.2314  -4.1966  -4.1866  -4.1397  -4.0542
    -3.9289  -3.6597   1.8102   2.6508   3.0923   3.8433   4.8323   5.6820
     5.7208   5.8363   5.9489   6.0440   6.3014   6.9305   6.9403   7.1196
     7.5917   7.6104   7.6972   7.9611

     occupation numbers 
     1.0000   1.0000   1.0000   1.0000   1.0000   1.0000   1.0000   1.0000
     1.0000   1.0000   1.0000   1.0000   1.0000   1.0000   1.0000   1.0000
     1.0000   1.0000   1.0000   1.0000   1.0000   1.0000   1.0000   1.0000
     1.0000   1.0000   1.0000   1.0000   1.0000   1.0000   1.0000   1.0000
     1.0000   1.0000   1.0000   1.0000   1.0000   1.0000   1.0000   1.0000
     1.0000   1.0000   1.0000   1.0000

          k = 0.0000 0.0859 0.4443 (  8507 PWs)   bands (ev):

   -10.4771  -9.9716  -9.6121  -9.2625  -9.0432  -8.8444  -4.7165  -4.7129
    -4.6836  -4.6505  -4.6259  -4.5801  -4.4376  -4.4116  -4.4115  -4.3483
    -4.3417  -4.3151  -4.2782  -4.2373  -4.1958  -4.1791  -4.1392  -4.0572
    -3.9517  -3.6029   2.0443   2.4635   3.2101   3.7777   4.9743   5.5336
     5.7078   5.8477   5.9912   6.0877   6.2792   6.8199   6.8720   6.9250
     7.5489   7.5967   7.7202   7.9488

     occupation numbers 
     1.0000   1.0000   1.0000   1.0000   1.0000   1.0000   1.0000   1.0000
     1.0000   1.0000   1.0000   1.0000   1.0000   1.0000   1.0000   1.0000
     1.0000   1.0000   1.0000   1.0000   1.0000   1.0000   1.0000   1.0000
     1.0000   1.0000   1.0000   1.0000   1.0000   1.0000   1.0000   1.0000
     1.0000   1.0000   1.0000   1.0000   1.0000   1.0000   1.0000   1.0000
     1.0000   1.0000   1.0000   1.0000

          k = 0.0000 0.0859-0.5794 (  8514 PWs)   bands (ev):

   -10.4288 -10.0335  -9.6271  -9.2350  -9.0445  -8.8467  -4.7169  -4.7125
    -4.6738  -4.6610  -4.6126  -4.6006  -4.4343  -4.4143  -4.4023  -4.3529
    -4.3506  -4.3045  -4.2736  -4.2437  -4.1952  -4.1751  -4.1389  -4.0677
    -3.9693  -3.5692   2.1213   2.3733   3.1737   3.9181   5.0114   5.4704
     5.6547   5.8925   6.0130   6.1710   6.2946   6.7275   6.7535   6.8712
     7.5066   7.5997   7.7293   7.9459

     occupation numbers 
     1.0000   1.0000   1.0000   1.0000   1.0000   1.0000   1.0000   1.0000
     1.0000   1.0000   1.0000   1.0000   1.0000   1.0000   1.0000   1.0000
     1.0000   1.0000   1.0000   1.0000   1.0000   1.0000   1.0000   1.0000
     1.0000   1.0000   1.0000   1.0000   1.0000   1.0000   1.0000   1.0000
     1.0000   1.0000   1.0000   1.0000   1.0000   1.0000   1.0000   1.0000
     1.0000   1.0000   1.0000   1.0000

          k = 0.0000 0.0859-0.4863 (  8528 PWs)   bands (ev):

   -10.4431 -10.0215  -9.6396  -9.2237  -9.0362  -8.8462  -4.7172  -4.7116
    -4.6818  -4.6484  -4.6179  -4.5872  -4.4405  -4.4152  -4.4096  -4.3471
    -4.3434  -4.2963  -4.2619  -4.2507  -4.1950  -4.1759  -4.1389  -4.0807
    -3.9864  -3.5595   1.8744   2.5835   3.0203   4.1483   4.9849   5.4423
     5.5715   5.9698   6.0988   6.1955   6.3356   6.7161   6.7256   6.8230
     7.5006   7.6004   7.7239   7.9559

     occupation numbers 
     1.0000   1.0000   1.0000   1.0000   1.0000   1.0000   1.0000   1.0000
     1.0000   1.0000   1.0000   1.0000   1.0000   1.0000   1.0000   1.0000
     1.0000   1.0000   1.0000   1.0000   1.0000   1.0000   1.0000   1.0000
     1.0000   1.0000   1.0000   1.0000   1.0000   1.0000   1.0000   1.0000
     1.0000   1.0000   1.0000   1.0000   1.0000   1.0000   1.0000   1.0000
     1.0000   1.0000   1.0000   1.0000

          k = 0.0000 0.0859-0.3933 (  8533 PWs)   bands (ev):

   -10.5073  -9.9489  -9.6472  -9.2299  -9.0193  -8.8443  -4.7172  -4.7105
    -4.6930  -4.6382  -4.6135  -4.5593  -4.4521  -4.4254  -4.4145  -4.3352
    -4.3275  -4.2908  -4.2581  -4.2444  -4.1953  -4.1821  -4.1392  -4.0913
    -4.0062  -3.5725   1.6280   2.6777   2.9595   4.2909   4.9665   5.4528
     5.4953   6.0529   6.1345   6.2484   6.3794   6.6376   6.8011   6.9281
     7.5391   7.5988   7.7044   7.9760

     occupation numbers 
     1.0000   1.0000   1.0000   1.0000   1.0000   1.0000   1.0000   1.0000
     1.0000   1.0000   1.0000   1.0000   1.0000   1.0000   1.0000   1.0000
     1.0000   1.0000   1.0000   1.0000   1.0000   1.0000   1.0000   1.0000
     1.0000   1.0000   1.0000   1.0000   1.0000   1.0000   1.0000   1.0000
     1.0000   1.0000   1.0000   1.0000   1.0000   1.0000   1.0000   1.0000
     1.0000   1.0000   1.0000   1.0000

          k = 0.0000 0.0859-0.3002 (  8535 PWs)   bands (ev):

   -10.5815  -9.8581  -9.6485  -9.2492  -8.9958  -8.8458  -4.7168  -4.7094
    -4.7036  -4.6410  -4.5848  -4.5289  -4.4642  -4.4415  -4.4139  -4.3217
    -4.3117  -4.2868  -4.2625  -4.2268  -4.1959  -4.1929  -4.1398  -4.0960
    -4.0284  -3.6050   1.4281   2.5488   3.1013   4.3081   4.9036   5.4383
     5.6114   6.0309   6.1354   6.3198   6.4708   6.5403   6.9291   7.1448
     7.5953   7.6130   7.6724   8.0032

     occupation numbers 
     1.0000   1.0000   1.0000   1.0000   1.0000   1.0000   1.0000   1.0000
     1.0000   1.0000   1.0000   1.0000   1.0000   1.0000   1.0000   1.0000
     1.0000   1.0000   1.0000   1.0000   1.0000   1.0000   1.0000   1.0000
     1.0000   1.0000   1.0000   1.0000   1.0000   1.0000   1.0000   1.0000
     1.0000   1.0000   1.0000   1.0000   1.0000   1.0000   1.0000   1.0000
     1.0000   1.0000   1.0000   1.0000

          k = 0.0000 0.0859-0.2071 (  8537 PWs)   bands (ev):

   -10.6447  -9.7736  -9.6438  -9.2754  -8.9674  -8.8560  -4.7162  -4.7128
    -4.7087  -4.6437  -4.5496  -4.5006  -4.4739  -4.4548  -4.4167  -4.3098
    -4.2990  -4.2879  -4.2595  -4.2143  -4.2061  -4.1968  -4.1405  -4.0885
    -4.0496  -3.6521   1.2914   2.4125   3.2422   4.2521   4.8308   5.4065
     5.7930   5.9307   6.1981   6.3144   6.4760   6.6077   7.0590   7.3977
     7.5906   7.6313   7.7012   8.0410

     occupation numbers 
     1.0000   1.0000   1.0000   1.0000   1.0000   1.0000   1.0000   1.0000
     1.0000   1.0000   1.0000   1.0000   1.0000   1.0000   1.0000   1.0000
     1.0000   1.0000   1.0000   1.0000   1.0000   1.0000   1.0000   1.0000
     1.0000   1.0000   1.0000   1.0000   1.0000   1.0000   1.0000   1.0000
     1.0000   1.0000   1.0000   1.0000   1.0000   1.0000   1.0000   1.0000
     1.0000   1.0000   1.0000   1.0000

          k = 0.0000 0.0859-0.1141 (  8546 PWs)   bands (ev):

   -10.6880  -9.7060  -9.6365  -9.3040  -8.9362  -8.8773  -4.7193  -4.7156
    -4.7084  -4.6450  -4.5172  -4.4811  -4.4797  -4.4637  -4.4234  -4.3017
    -4.2963  -4.2908  -4.2522  -4.2172  -4.2106  -4.1977  -4.1412  -4.0687
    -4.0551  -3.7070   1.2254   2.3245   3.3363   4.1791   4.7650   5.4030
     5.8449   5.8644   6.2373   6.3547   6.4350   6.7265   7.1678   7.5860
     7.5891   7.6026   7.7802   8.0976

     occupation numbers 
     1.0000   1.0000   1.0000   1.0000   1.0000   1.0000   1.0000   1.0000
     1.0000   1.0000   1.0000   1.0000   1.0000   1.0000   1.0000   1.0000
     1.0000   1.0000   1.0000   1.0000   1.0000   1.0000   1.0000   1.0000
     1.0000   1.0000   1.0000   1.0000   1.0000   1.0000   1.0000   1.0000
     1.0000   1.0000   1.0000   1.0000   1.0000   1.0000   1.0000   1.0000
     1.0000   1.0000   1.0000   1.0000

          k =-0.1729 0.1288-0.0315 (  8532 PWs)   bands (ev):

   -10.6411  -9.6730  -9.6239  -9.2803  -8.9143  -8.9026  -4.7330  -4.7087
    -4.6804  -4.6283  -4.5115  -4.4966  -4.4781  -4.4534  -4.4122  -4.3554
    -4.3172  -4.2910  -4.2266  -4.2133  -4.2016  -4.1527  -4.1325  -4.0585
    -4.0010  -3.6899   1.2683   2.2954   3.2147   4.1974   4.5888   5.2433
     5.6405   5.8872   6.1171   6.3776   6.4437   6.6926   7.0160   7.3720
     7.4384   7.6489   7.8421   8.1237

     occupation numbers 
     1.0000   1.0000   1.0000   1.0000   1.0000   1.0000   1.0000   1.0000
     1.0000   1.0000   1.0000   1.0000   1.0000   1.0000   1.0000   1.0000
     1.0000   1.0000   1.0000   1.0000   1.0000   1.0000   1.0000   1.0000
     1.0000   1.0000   1.0000   1.0000   1.0000   1.0000   1.0000   1.0000
     1.0000   1.0000   1.0000   1.0000   1.0000   1.0000   1.0000   1.0000
     1.0000   1.0000   1.0000   1.0000

          k =-0.1729 0.1288 0.0615 (  8536 PWs)   bands (ev):

   -10.6389  -9.6415  -9.6284  -9.3030  -8.9508  -8.8778  -4.7322  -4.7096
    -4.6801  -4.6281  -4.5224  -4.5005  -4.4743  -4.4588  -4.4060  -4.3601
    -4.3222  -4.2920  -4.2278  -4.2232  -4.1979  -4.1582  -4.1336  -4.0694
    -3.9160  -3.7365   1.3524   2.3446   3.1868   4.1513   4.5389   5.2244
     5.6326   5.8698   6.1077   6.3332   6.4209   6.7650   7.0217   7.3596
     7.4502   7.6524   7.8759   8.0719

     occupation numbers 
     1.0000   1.0000   1.0000   1.0000   1.0000   1.0000   1.0000   1.0000
     1.0000   1.0000   1.0000   1.0000   1.0000   1.0000   1.0000   1.0000
     1.0000   1.0000   1.0000   1.0000   1.0000   1.0000   1.0000   1.0000
     1.0000   1.0000   1.0000   1.0000   1.0000   1.0000   1.0000   1.0000
     1.0000   1.0000   1.0000   1.0000   1.0000   1.0000   1.0000   1.0000
     1.0000   1.0000   1.0000   1.0000

          k =-0.1729 0.1288 0.1546 (  8533 PWs)   bands (ev):

   -10.6125  -9.6768  -9.6008  -9.3167  -8.9885  -8.8580  -4.7287  -4.7105
    -4.6790  -4.6278  -4.5522  -4.5088  -4.4676  -4.4579  -4.4013  -4.3619
    -4.3302  -4.2946  -4.2395  -4.2259  -4.1956  -4.1598  -4.1410  -4.0683
    -3.8254  -3.7764   1.4936   2.4688   3.1154   4.0793   4.5424   5.1994
     5.6637   5.8258   6.0548   6.1923   6.4246   6.7752   7.0347   7.3142
     7.4620   7.6654   7.8218   8.0001

     occupation numbers 
     1.0000   1.0000   1.0000   1.0000   1.0000   1.0000   1.0000   1.0000
     1.0000   1.0000   1.0000   1.0000   1.0000   1.0000   1.0000   1.0000
     1.0000   1.0000   1.0000   1.0000   1.0000   1.0000   1.0000   1.0000
     1.0000   1.0000   1.0000   1.0000   1.0000   1.0000   1.0000   1.0000
     1.0000   1.0000   1.0000   1.0000   1.0000   1.0000   1.0000   1.0000
     1.0000   1.0000   1.0000   1.0000

          k =-0.1729 0.1288 0.2477 (  8519 PWs)   bands (ev):

   -10.5643  -9.7423  -9.5859  -9.3120  -9.0195  -8.8468  -4.7231  -4.7111
    -4.6767  -4.6274  -4.5847  -4.5262  -4.4584  -4.4504  -4.3985  -4.3613
    -4.3406  -4.2987  -4.2539  -4.2254  -4.1938  -4.1641  -4.1470  -4.0593
    -3.8218  -3.7280   1.6801   2.6359   3.0230   3.9553   4.6145   5.1993
     5.6738   5.7505   6.0158   6.0334   6.4135   6.7174   7.0532   7.2657
     7.4618   7.6239   7.7030   7.9966

     occupation numbers 
     1.0000   1.0000   1.0000   1.0000   1.0000   1.0000   1.0000   1.0000
     1.0000   1.0000   1.0000   1.0000   1.0000   1.0000   1.0000   1.0000
     1.0000   1.0000   1.0000   1.0000   1.0000   1.0000   1.0000   1.0000
     1.0000   1.0000   1.0000   1.0000   1.0000   1.0000   1.0000   1.0000
     1.0000   1.0000   1.0000   1.0000   1.0000   1.0000   1.0000   1.0000
     1.0000   1.0000   1.0000   1.0000

          k =-0.1729 0.1288 0.3407 (  8521 PWs)   bands (ev):

   -10.4993  -9.8291  -9.5888  -9.2870  -9.0404  -8.8434  -4.7167  -4.7112
    -4.6726  -4.6295  -4.6082  -4.5490  -4.4475  -4.4410  -4.3957  -4.3605
    -4.3526  -4.3033  -4.2646  -4.2272  -4.1929  -4.1692  -4.1480  -4.0495
    -3.8551  -3.6511   1.8997   2.6503   3.0891   3.7940   4.7344   5.2207
     5.5319   5.7292   5.9073   6.0498   6.3724   6.6343   7.0471   7.1957
     7.4429   7.5083   7.6966   7.9997

     occupation numbers 
     1.0000   1.0000   1.0000   1.0000   1.0000   1.0000   1.0000   1.0000
     1.0000   1.0000   1.0000   1.0000   1.0000   1.0000   1.0000   1.0000
     1.0000   1.0000   1.0000   1.0000   1.0000   1.0000   1.0000   1.0000
     1.0000   1.0000   1.0000   1.0000   1.0000   1.0000   1.0000   1.0000
     1.0000   1.0000   1.0000   1.0000   1.0000   1.0000   1.0000   1.0000
     1.0000   1.0000   1.0000   1.0000

          k =-0.1729 0.1288 0.4338 (  8516 PWs)   bands (ev):

   -10.4282  -9.9215  -9.6032  -9.2517  -9.0507  -8.8448  -4.7114  -4.7106
    -4.6660  -4.6417  -4.6104  -4.5715  -4.4389  -4.4334  -4.3907  -4.3641
    -4.3611  -4.3053  -4.2695  -4.2312  -4.1928  -4.1718  -4.1472  -4.0423
    -3.8861  -3.5917   2.1312   2.4594   3.2992   3.6820   4.8580   5.2087
     5.3626   5.7493   5.8693   6.0724   6.3037   6.5783   6.9628   7.1543
     7.4050   7.4796   7.6958   7.9957

     occupation numbers 
     1.0000   1.0000   1.0000   1.0000   1.0000   1.0000   1.0000   1.0000
     1.0000   1.0000   1.0000   1.0000   1.0000   1.0000   1.0000   1.0000
     1.0000   1.0000   1.0000   1.0000   1.0000   1.0000   1.0000   1.0000
     1.0000   1.0000   1.0000   1.0000   1.0000   1.0000   1.0000   1.0000
     1.0000   1.0000   1.0000   1.0000   1.0000   1.0000   1.0000   1.0000
     1.0000   1.0000   1.0000   1.0000

          k =-0.1729 0.1288-0.5899 (  8506 PWs)   bands (ev):

   -10.3754  -9.9900  -9.6216  -9.2194  -9.0511  -8.8469  -4.7112  -4.7077
    -4.6595  -4.6504  -4.6011  -4.5883  -4.4368  -4.4304  -4.3891  -4.3672
    -4.3611  -4.3021  -4.2684  -4.2355  -4.1929  -4.1748  -4.1455  -4.0388
    -3.9153  -3.5535   2.1451   2.4307   3.2354   3.8918   4.8766   5.1629
     5.3227   5.7381   5.9427   6.0179   6.2710   6.5646   6.8742   7.1465
     7.3741   7.4767   7.6936   7.9912

     occupation numbers 
     1.0000   1.0000   1.0000   1.0000   1.0000   1.0000   1.0000   1.0000
     1.0000   1.0000   1.0000   1.0000   1.0000   1.0000   1.0000   1.0000
     1.0000   1.0000   1.0000   1.0000   1.0000   1.0000   1.0000   1.0000
     1.0000   1.0000   1.0000   1.0000   1.0000   1.0000   1.0000   1.0000
     1.0000   1.0000   1.0000   1.0000   1.0000   1.0000   1.0000   1.0000
     1.0000   1.0000   1.0000   1.0000

          k =-0.1729 0.1288-0.4968 (  8525 PWs)   bands (ev):

   -10.3793  -9.9931  -9.6380  -9.2003  -9.0417  -8.8468  -4.7129  -4.7065
    -4.6656  -4.6388  -4.6029  -4.5791  -4.4404  -4.4355  -4.3959  -4.3616
    -4.3521  -4.2957  -4.2630  -4.2367  -4.1928  -4.1799  -4.1434  -4.0388
    -3.9443  -3.5369   1.8908   2.6339   3.0431   4.2221   4.7922   5.1956
     5.2986   5.7623   5.9267   6.0373   6.2859   6.5965   6.8381   7.1484
     7.3469   7.4872   7.6903   7.9931

     occupation numbers 
     1.0000   1.0000   1.0000   1.0000   1.0000   1.0000   1.0000   1.0000
     1.0000   1.0000   1.0000   1.0000   1.0000   1.0000   1.0000   1.0000
     1.0000   1.0000   1.0000   1.0000   1.0000   1.0000   1.0000   1.0000
     1.0000   1.0000   1.0000   1.0000   1.0000   1.0000   1.0000   1.0000
     1.0000   1.0000   1.0000   1.0000   1.0000   1.0000   1.0000   1.0000
     1.0000   1.0000   1.0000   1.0000

          k =-0.1729 0.1288-0.4038 (  8532 PWs)   bands (ev):

   -10.4374  -9.9337  -9.6484  -9.1986  -9.0231  -8.8453  -4.7164  -4.7066
    -4.6716  -4.6278  -4.5985  -4.5557  -4.4493  -4.4441  -4.4024  -4.3539
    -4.3391  -4.2896  -4.2569  -4.2295  -4.1920  -4.1870  -4.1413  -4.0426
    -3.9739  -3.5405   1.6457   2.7013   2.9571   4.3952   4.8353   5.1384
     5.3491   5.8190   5.8917   6.0977   6.3145   6.6589   6.8456   7.1775
     7.3330   7.5086   7.6904   8.0031

     occupation numbers 
     1.0000   1.0000   1.0000   1.0000   1.0000   1.0000   1.0000   1.0000
     1.0000   1.0000   1.0000   1.0000   1.0000   1.0000   1.0000   1.0000
     1.0000   1.0000   1.0000   1.0000   1.0000   1.0000   1.0000   1.0000
     1.0000   1.0000   1.0000   1.0000   1.0000   1.0000   1.0000   1.0000
     1.0000   1.0000   1.0000   1.0000   1.0000   1.0000   1.0000   1.0000
     1.0000   1.0000   1.0000   1.0000

          k =-0.1729 0.1288-0.3107 (  8535 PWs)   bands (ev):

   -10.5098  -9.8540  -9.6497  -9.2111  -8.9977  -8.8469  -4.7213  -4.7070
    -4.6759  -4.6268  -4.5752  -4.5302  -4.4585  -4.4542  -4.4058  -4.3482
    -4.3277  -4.2874  -4.2485  -4.2171  -4.1939  -4.1855  -4.1393  -4.0525
    -4.0019  -3.5619   1.4465   2.5566   3.0589   4.3737   4.8667   5.1405
     5.5045   5.8547   5.8787   6.2099   6.3147   6.6880   6.8883   7.2478
     7.3539   7.5356   7.7019   8.0209

     occupation numbers 
     1.0000   1.0000   1.0000   1.0000   1.0000   1.0000   1.0000   1.0000
     1.0000   1.0000   1.0000   1.0000   1.0000   1.0000   1.0000   1.0000
     1.0000   1.0000   1.0000   1.0000   1.0000   1.0000   1.0000   1.0000
     1.0000   1.0000   1.0000   1.0000   1.0000   1.0000   1.0000   1.0000
     1.0000   1.0000   1.0000   1.0000   1.0000   1.0000   1.0000   1.0000
     1.0000   1.0000   1.0000   1.0000

          k =-0.1729 0.1288-0.2176 (  8541 PWs)   bands (ev):

   -10.5735  -9.7800  -9.6418  -9.2315  -8.9680  -8.8571  -4.7266  -4.7075
    -4.6786  -4.6278  -4.5467  -4.5092  -4.4655  -4.4601  -4.4087  -4.3468
    -4.3196  -4.2888  -4.2354  -4.2156  -4.1979  -4.1633  -4.1367  -4.0679
    -4.0240  -3.5974   1.3123   2.4134   3.1501   4.3119   4.7670   5.1949
     5.7007   5.8783   5.8818   6.3079   6.3668   6.6527   6.9503   7.2948
     7.4208   7.5843   7.7293   8.0514

     occupation numbers 
     1.0000   1.0000   1.0000   1.0000   1.0000   1.0000   1.0000   1.0000
     1.0000   1.0000   1.0000   1.0000   1.0000   1.0000   1.0000   1.0000
     1.0000   1.0000   1.0000   1.0000   1.0000   1.0000   1.0000   1.0000
     1.0000   1.0000   1.0000   1.0000   1.0000   1.0000   1.0000   1.0000
     1.0000   1.0000   1.0000   1.0000   1.0000   1.0000   1.0000   1.0000
     1.0000   1.0000   1.0000   1.0000

          k =-0.1729 0.1288-0.1246 (  8549 PWs)   bands (ev):

   -10.6187  -9.7205  -9.6295  -9.2555  -8.9365  -8.8788  -4.7309  -4.7080
    -4.6799  -4.6282  -4.5227  -4.4988  -4.4739  -4.4543  -4.4127  -4.3498
    -4.3161  -4.2904  -4.2249  -4.2168  -4.2008  -4.1469  -4.1332  -4.0604
    -4.0418  -3.6419   1.2527   2.3212   3.2019   4.2493   4.6675   5.2305
     5.6967   5.8835   6.0279   6.3408   6.4709   6.6205   6.9979   7.3326
     7.4436   7.6401   7.7813   8.0976

     occupation numbers 
     1.0000   1.0000   1.0000   1.0000   1.0000   1.0000   1.0000   1.0000
     1.0000   1.0000   1.0000   1.0000   1.0000   1.0000   1.0000   1.0000
     1.0000   1.0000   1.0000   1.0000   1.0000   1.0000   1.0000   1.0000
     1.0000   1.0000   1.0000   1.0000   1.0000   1.0000   1.0000   1.0000
     1.0000   1.0000   1.0000   1.0000   1.0000   1.0000   1.0000   1.0000
     1.0000   1.0000   1.0000   1.0000

          k =-0.3457 0.1717-0.0420 (  8535 PWs)   bands (ev):

   -10.4757  -9.6565  -9.5653  -9.2092  -8.9196  -8.9042  -4.7137  -4.6966
    -4.6261  -4.5881  -4.5444  -4.5212  -4.4522  -4.4196  -4.4082  -4.3897
    -4.3410  -4.2862  -4.2403  -4.2195  -4.1907  -4.1298  -4.0488  -3.9618
    -3.9193  -3.6210   1.3711   2.2901   2.8942   3.9514   4.5006   5.0010
     5.3488   5.5026   5.7147   6.2077   6.4162   6.6089   6.6886   7.2077
     7.2669   7.5348   7.8267   8.1127

     occupation numbers 
     1.0000   1.0000   1.0000   1.0000   1.0000   1.0000   1.0000   1.0000
     1.0000   1.0000   1.0000   1.0000   1.0000   1.0000   1.0000   1.0000
     1.0000   1.0000   1.0000   1.0000   1.0000   1.0000   1.0000   1.0000
     1.0000   1.0000   1.0000   1.0000   1.0000   1.0000   1.0000   1.0000
     1.0000   1.0000   1.0000   1.0000   1.0000   1.0000   1.0000   1.0000
     1.0000   1.0000   1.0000   1.0000

          k =-0.3457 0.1717 0.0510 (  8522 PWs)   bands (ev):

   -10.4768  -9.6192  -9.5743  -9.2249  -8.9578  -8.8818  -4.7132  -4.6969
    -4.6259  -4.5888  -4.5453  -4.5209  -4.4492  -4.4300  -4.4001  -4.3915
    -4.3470  -4.2860  -4.2401  -4.2115  -4.1947  -4.1260  -4.0836  -3.9803
    -3.8442  -3.6528   1.4583   2.3268   2.8666   3.9198   4.4836   4.9160
     5.3929   5.5135   5.7699   6.1716   6.4222   6.5403   6.7514   7.1388
     7.2644   7.5147   7.8539   8.0713

     occupation numbers 
     1.0000   1.0000   1.0000   1.0000   1.0000   1.0000   1.0000   1.0000
     1.0000   1.0000   1.0000   1.0000   1.0000   1.0000   1.0000   1.0000
     1.0000   1.0000   1.0000   1.0000   1.0000   1.0000   1.0000   1.0000
     1.0000   1.0000   1.0000   1.0000   1.0000   1.0000   1.0000   1.0000
     1.0000   1.0000   1.0000   1.0000   1.0000   1.0000   1.0000   1.0000
     1.0000   1.0000   1.0000   1.0000

          k =-0.3457 0.1717 0.1441 (  8516 PWs)   bands (ev):

   -10.4553  -9.6077  -9.5830  -9.2366  -8.9986  -8.8645  -4.7099  -4.6961
    -4.6261  -4.5909  -4.5504  -4.5219  -4.4476  -4.4388  -4.3968  -4.3904
    -4.3538  -4.2850  -4.2380  -4.2115  -4.1968  -4.1367  -4.0959  -4.0085
    -3.7686  -3.6760   1.6029   2.4462   2.8339   3.8987   4.4568   4.8201
     5.4101   5.4970   5.7787   6.0584   6.3330   6.5769   6.8027   7.0373
     7.2718   7.5178   7.8512   7.9858

     occupation numbers 
     1.0000   1.0000   1.0000   1.0000   1.0000   1.0000   1.0000   1.0000
     1.0000   1.0000   1.0000   1.0000   1.0000   1.0000   1.0000   1.0000
     1.0000   1.0000   1.0000   1.0000   1.0000   1.0000   1.0000   1.0000
     1.0000   1.0000   1.0000   1.0000   1.0000   1.0000   1.0000   1.0000
     1.0000   1.0000   1.0000   1.0000   1.0000   1.0000   1.0000   1.0000
     1.0000   1.0000   1.0000   1.0000

          k =-0.3457 0.1717 0.2372 (  8526 PWs)   bands (ev):

   -10.4132  -9.6612  -9.5593  -9.2393  -9.0321  -8.8552  -4.7046  -4.6941
    -4.6263  -4.5954  -4.5582  -4.5263  -4.4458  -4.4419  -4.3964  -4.3884
    -4.3606  -4.2835  -4.2355  -4.2230  -4.1940  -4.1521  -4.1014  -4.0243
    -3.7430  -3.6548   1.7900   2.6065   2.8218   3.8651   4.4150   4.7606
     5.3089   5.4827   5.7456   5.9668   6.2523   6.5936   6.7782   7.0191
     7.2704   7.5341   7.7370   7.9745

     occupation numbers 
     1.0000   1.0000   1.0000   1.0000   1.0000   1.0000   1.0000   1.0000
     1.0000   1.0000   1.0000   1.0000   1.0000   1.0000   1.0000   1.0000
     1.0000   1.0000   1.0000   1.0000   1.0000   1.0000   1.0000   1.0000
     1.0000   1.0000   1.0000   1.0000   1.0000   1.0000   1.0000   1.0000
     1.0000   1.0000   1.0000   1.0000   1.0000   1.0000   1.0000   1.0000
     1.0000   1.0000   1.0000   1.0000

          k =-0.3457 0.1717 0.3302 (  8518 PWs)   bands (ev):

   -10.3550  -9.7350  -9.5512  -9.2271  -9.0537  -8.8529  -4.6984  -4.6907
    -4.6259  -4.6037  -4.5640  -4.5353  -4.4414  -4.4399  -4.3969  -4.3890
    -4.3658  -4.2827  -4.2410  -4.2291  -4.1912  -4.1611  -4.1181  -4.0185
    -3.7615  -3.6018   2.0045   2.5885   3.0212   3.7844   4.4023   4.7014
     5.1590   5.4131   5.6997   5.9393   6.1879   6.5346   6.8021   7.0289
     7.2600   7.5344   7.6187   7.9979

     occupation numbers 
     1.0000   1.0000   1.0000   1.0000   1.0000   1.0000   1.0000   1.0000
     1.0000   1.0000   1.0000   1.0000   1.0000   1.0000   1.0000   1.0000
     1.0000   1.0000   1.0000   1.0000   1.0000   1.0000   1.0000   1.0000
     1.0000   1.0000   1.0000   1.0000   1.0000   1.0000   1.0000   1.0000
     1.0000   1.0000   1.0000   1.0000   1.0000   1.0000   1.0000   1.0000
     1.0000   1.0000   1.0000   1.0000

          k =-0.3457 0.1717 0.4233 (  8513 PWs)   bands (ev):

   -10.2895  -9.8174  -9.5591  -9.2015  -9.0634  -8.8548  -4.6927  -4.6873
    -4.6242  -4.6138  -4.5649  -4.5463  -4.4382  -4.4325  -4.3980  -4.3952
    -4.3656  -4.2844  -4.2494  -4.2272  -4.1893  -4.1666  -4.1362  -3.9998
    -3.7864  -3.5592   2.2211   2.4437   3.3537   3.6457   4.4392   4.6221
     4.9906   5.3351   5.7007   5.8828   6.1569   6.4998   6.8460   7.0149
     7.2619   7.4492   7.6269   8.0157

     occupation numbers 
     1.0000   1.0000   1.0000   1.0000   1.0000   1.0000   1.0000   1.0000
     1.0000   1.0000   1.0000   1.0000   1.0000   1.0000   1.0000   1.0000
     1.0000   1.0000   1.0000   1.0000   1.0000   1.0000   1.0000   1.0000
     1.0000   1.0000   1.0000   1.0000   1.0000   1.0000   1.0000   1.0000
     1.0000   1.0000   1.0000   1.0000   1.0000   1.0000   1.0000   1.0000
     1.0000   1.0000   1.0000   1.0000

          k =-0.3457 0.1717-0.6004 (  8513 PWs)   bands (ev):

   -10.2363  -9.8854  -9.5758  -9.1720  -9.0630  -8.8570  -4.6895  -4.6854
    -4.6242  -4.6169  -4.5634  -4.5535  -4.4370  -4.4275  -4.4056  -4.3963
    -4.3604  -4.2876  -4.2527  -4.2214  -4.1880  -4.1746  -4.1461  -3.9761
    -3.8135  -3.5331   2.1932   2.4780   3.4006   3.7806   4.4811   4.5566
     4.8459   5.2958   5.7294   5.7888   6.1321   6.5446   6.8650   7.0027
     7.2850   7.3855   7.6567   8.0210

     occupation numbers 
     1.0000   1.0000   1.0000   1.0000   1.0000   1.0000   1.0000   1.0000
     1.0000   1.0000   1.0000   1.0000   1.0000   1.0000   1.0000   1.0000
     1.0000   1.0000   1.0000   1.0000   1.0000   1.0000   1.0000   1.0000
     1.0000   1.0000   1.0000   1.0000   1.0000   1.0000   1.0000   1.0000
     1.0000   1.0000   1.0000   1.0000   1.0000   1.0000   1.0000   1.0000
     1.0000   1.0000   1.0000   1.0000

          k =-0.3457 0.1717-0.5073 (  8504 PWs)   bands (ev):

   -10.2308  -9.9014  -9.5928  -9.1516  -9.0523  -8.8566  -4.6906  -4.6858
    -4.6276  -4.6089  -4.5654  -4.5493  -4.4398  -4.4303  -4.4126  -4.3900
    -4.3531  -4.2880  -4.2560  -4.2079  -4.1871  -4.1858  -4.1475  -3.9518
    -3.8435  -3.5226   1.9647   2.6480   3.1718   4.1655   4.4057   4.5989
     4.7754   5.3252   5.6758   5.7462   6.1337   6.6203   6.8802   7.0101
     7.3177   7.3647   7.6777   8.0167

     occupation numbers 
     1.0000   1.0000   1.0000   1.0000   1.0000   1.0000   1.0000   1.0000
     1.0000   1.0000   1.0000   1.0000   1.0000   1.0000   1.0000   1.0000
     1.0000   1.0000   1.0000   1.0000   1.0000   1.0000   1.0000   1.0000
     1.0000   1.0000   1.0000   1.0000   1.0000   1.0000   1.0000   1.0000
     1.0000   1.0000   1.0000   1.0000   1.0000   1.0000   1.0000   1.0000
     1.0000   1.0000   1.0000   1.0000

          k =-0.3457 0.1717-0.4143 (  8523 PWs)   bands (ev):

   -10.2796  -9.8591  -9.6033  -9.1481  -9.0302  -8.8543  -4.6950  -4.6884
    -4.6282  -4.5997  -4.5648  -4.5398  -4.4456  -4.4373  -4.4133  -4.3832
    -4.3457  -4.2847  -4.2593  -4.2025  -4.1875  -4.1773  -4.1456  -3.9308
    -3.8777  -3.5253   1.7377   2.7221   2.9800   4.2505   4.5734   4.6198
     4.8165   5.4259   5.5635   5.7491   6.1859   6.6339   6.9338   7.0325
     7.3404   7.3991   7.6880   8.0106

     occupation numbers 
     1.0000   1.0000   1.0000   1.0000   1.0000   1.0000   1.0000   1.0000
     1.0000   1.0000   1.0000   1.0000   1.0000   1.0000   1.0000   1.0000
     1.0000   1.0000   1.0000   1.0000   1.0000   1.0000   1.0000   1.0000
     1.0000   1.0000   1.0000   1.0000   1.0000   1.0000   1.0000   1.0000
     1.0000   1.0000   1.0000   1.0000   1.0000   1.0000   1.0000   1.0000
     1.0000   1.0000   1.0000   1.0000

          k =-0.3457 0.1717-0.3212 (  8533 PWs)   bands (ev):

   -10.3466  -9.7971  -9.6027  -9.1580  -9.0009  -8.8547  -4.7009  -4.6915
    -4.6277  -4.5933  -4.5589  -4.5307  -4.4517  -4.4390  -4.4115  -4.3801
    -4.3399  -4.2820  -4.2581  -4.2133  -4.1869  -4.1456  -4.1370  -3.9181
    -3.9158  -3.5386   1.5464   2.6063   2.9386   4.1546   4.5920   4.8023
     5.0095   5.4815   5.5444   5.7868   6.2606   6.6114   6.9323   7.0919
     7.3379   7.4951   7.6960   8.0127

     occupation numbers 
     1.0000   1.0000   1.0000   1.0000   1.0000   1.0000   1.0000   1.0000
     1.0000   1.0000   1.0000   1.0000   1.0000   1.0000   1.0000   1.0000
     1.0000   1.0000   1.0000   1.0000   1.0000   1.0000   1.0000   1.0000
     1.0000   1.0000   1.0000   1.0000   1.0000   1.0000   1.0000   1.0000
     1.0000   1.0000   1.0000   1.0000   1.0000   1.0000   1.0000   1.0000
     1.0000   1.0000   1.0000   1.0000

          k =-0.3457 0.1717-0.2282 (  8544 PWs)   bands (ev):

   -10.4074  -9.7410  -9.5904  -9.1741  -8.9690  -8.8633  -4.7069  -4.6939
    -4.6270  -4.5900  -4.5515  -4.5250  -4.4553  -4.4323  -4.4101  -4.3816
    -4.3368  -4.2831  -4.2498  -4.2227  -4.1871  -4.1404  -4.0852  -3.9598
    -3.9143  -3.5604   1.4139   2.4466   2.9356   4.0703   4.5579   4.9199
     5.2285   5.4735   5.5720   5.9303   6.3285   6.5990   6.8751   7.1488
     7.3136   7.5793   7.7278   8.0362

     occupation numbers 
     1.0000   1.0000   1.0000   1.0000   1.0000   1.0000   1.0000   1.0000
     1.0000   1.0000   1.0000   1.0000   1.0000   1.0000   1.0000   1.0000
     1.0000   1.0000   1.0000   1.0000   1.0000   1.0000   1.0000   1.0000
     1.0000   1.0000   1.0000   1.0000   1.0000   1.0000   1.0000   1.0000
     1.0000   1.0000   1.0000   1.0000   1.0000   1.0000   1.0000   1.0000
     1.0000   1.0000   1.0000   1.0000

          k =-0.3457 0.1717-0.1351 (  8533 PWs)   bands (ev):

   -10.4520  -9.6958  -9.5737  -9.1919  -8.9372  -8.8837  -4.7115  -4.6956
    -4.6264  -4.5885  -4.5465  -4.5223  -4.4551  -4.4208  -4.4115  -4.3858
    -4.3372  -4.2852  -4.2414  -4.2262  -4.1883  -4.1357  -4.0182  -4.0050
    -3.9224  -3.5888   1.3543   2.3337   2.9186   4.0016   4.5253   4.9964
     5.3285   5.4883   5.6174   6.1105   6.3760   6.6055   6.7776   7.1949
     7.2868   7.5739   7.7870   8.0845

     occupation numbers 
     1.0000   1.0000   1.0000   1.0000   1.0000   1.0000   1.0000   1.0000
     1.0000   1.0000   1.0000   1.0000   1.0000   1.0000   1.0000   1.0000
     1.0000   1.0000   1.0000   1.0000   1.0000   1.0000   1.0000   1.0000
     1.0000   1.0000   1.0000   1.0000   1.0000   1.0000   1.0000   1.0000
     1.0000   1.0000   1.0000   1.0000   1.0000   1.0000   1.0000   1.0000
     1.0000   1.0000   1.0000   1.0000

          k =-0.5186 0.2147-0.0525 (  8523 PWs)   bands (ev):

   -10.2364  -9.6039  -9.4825  -9.1522  -8.9213  -8.9061  -4.6687  -4.6531
    -4.5720  -4.5632  -4.5395  -4.5315  -4.4554  -4.4252  -4.4180  -4.3757
    -4.3414  -4.2646  -4.2437  -4.2293  -4.1834  -4.1402  -3.9525  -3.8091
    -3.7756  -3.5723   1.5034   2.2099   2.4901   3.4612   4.4747   4.5327
     4.8524   4.9762   5.4823   5.9817   6.0494   6.3370   7.0162   7.1297
     7.2078   7.4594   7.7409   8.0924

     occupation numbers 
     1.0000   1.0000   1.0000   1.0000   1.0000   1.0000   1.0000   1.0000
     1.0000   1.0000   1.0000   1.0000   1.0000   1.0000   1.0000   1.0000
     1.0000   1.0000   1.0000   1.0000   1.0000   1.0000   1.0000   1.0000
     1.0000   1.0000   1.0000   1.0000   1.0000   1.0000   1.0000   1.0000
     1.0000   1.0000   1.0000   1.0000   1.0000   1.0000   1.0000   1.0000
     1.0000   1.0000   1.0000   1.0000

          k =-0.5186 0.2147 0.0405 (  8524 PWs)   bands (ev):

   -10.2398  -9.5726  -9.4894  -9.1562  -8.9591  -8.8878  -4.6690  -4.6519
    -4.5734  -4.5627  -4.5365  -4.5276  -4.4561  -4.4248  -4.4135  -4.3739
    -4.3495  -4.2646  -4.2405  -4.2247  -4.1868  -4.1306  -4.0006  -3.8373
    -3.7272  -3.5743   1.5724   2.2226   2.4624   3.4512   4.4624   4.6302
     4.7860   4.9915   5.5742   5.9377   6.0470   6.4186   6.8532   7.0744
     7.1407   7.4337   7.7739   8.0594

     occupation numbers 
     1.0000   1.0000   1.0000   1.0000   1.0000   1.0000   1.0000   1.0000
     1.0000   1.0000   1.0000   1.0000   1.0000   1.0000   1.0000   1.0000
     1.0000   1.0000   1.0000   1.0000   1.0000   1.0000   1.0000   1.0000
     1.0000   1.0000   1.0000   1.0000   1.0000   1.0000   1.0000   1.0000
     1.0000   1.0000   1.0000   1.0000   1.0000   1.0000   1.0000   1.0000
     1.0000   1.0000   1.0000   1.0000

          k =-0.5186 0.2147 0.1336 (  8533 PWs)   bands (ev):

   -10.2234  -9.5431  -9.5117  -9.1555  -9.0036  -8.8753  -4.6676  -4.6491
    -4.5743  -4.5633  -4.5299  -4.5222  -4.4573  -4.4290  -4.4084  -4.3743
    -4.3542  -4.2646  -4.2376  -4.2191  -4.1910  -4.1179  -4.0515  -3.8883
    -3.6813  -3.5657   1.6948   2.3103   2.4685   3.4815   4.3577   4.6366
     4.7639   4.9863   5.6468   5.8788   6.0266   6.4928   6.6930   6.9164
     7.1688   7.3892   7.7977   7.9792

     occupation numbers 
     1.0000   1.0000   1.0000   1.0000   1.0000   1.0000   1.0000   1.0000
     1.0000   1.0000   1.0000   1.0000   1.0000   1.0000   1.0000   1.0000
     1.0000   1.0000   1.0000   1.0000   1.0000   1.0000   1.0000   1.0000
     1.0000   1.0000   1.0000   1.0000   1.0000   1.0000   1.0000   1.0000
     1.0000   1.0000   1.0000   1.0000   1.0000   1.0000   1.0000   1.0000
     1.0000   1.0000   1.0000   1.0000

          k =-0.5186 0.2147 0.2266 (  8520 PWs)   bands (ev):

   -10.1889  -9.5616  -9.5080  -9.1501  -9.0445  -8.8700  -4.6645  -4.6453
    -4.5754  -4.5649  -4.5213  -4.5161  -4.4579  -4.4348  -4.4056  -4.3773
    -4.3541  -4.2663  -4.2332  -4.2164  -4.1946  -4.1099  -4.0907  -3.9362
    -3.6670  -3.5400   1.8552   2.3883   2.5778   3.5481   4.1755   4.5763
     4.7284   4.9845   5.6508   5.8156   6.0201   6.4285   6.6056   6.8685
     7.2167   7.3341   7.7463   7.9344

     occupation numbers 
     1.0000   1.0000   1.0000   1.0000   1.0000   1.0000   1.0000   1.0000
     1.0000   1.0000   1.0000   1.0000   1.0000   1.0000   1.0000   1.0000
     1.0000   1.0000   1.0000   1.0000   1.0000   1.0000   1.0000   1.0000
     1.0000   1.0000   1.0000   1.0000   1.0000   1.0000   1.0000   1.0000
     1.0000   1.0000   1.0000   1.0000   1.0000   1.0000   1.0000   1.0000
     1.0000   1.0000   1.0000   1.0000

          k =-0.5186 0.2147 0.3197 (  8527 PWs)   bands (ev):

   -10.1398  -9.6187  -9.4918  -9.1404  -9.0724  -8.8706  -4.6599  -4.6421
    -4.5766  -4.5673  -4.5136  -4.5109  -4.4571  -4.4388  -4.4062  -4.3815
    -4.3509  -4.2719  -4.2273  -4.2177  -4.1960  -4.1359  -4.0930  -3.9625
    -3.6714  -3.5140   2.0381   2.3935   2.8151   3.6379   3.9661   4.4693
     4.6454   4.9710   5.5583   5.7443   6.1097   6.2381   6.6152   6.9025
     7.2240   7.3434   7.6382   7.9441

     occupation numbers 
     1.0000   1.0000   1.0000   1.0000   1.0000   1.0000   1.0000   1.0000
     1.0000   1.0000   1.0000   1.0000   1.0000   1.0000   1.0000   1.0000
     1.0000   1.0000   1.0000   1.0000   1.0000   1.0000   1.0000   1.0000
     1.0000   1.0000   1.0000   1.0000   1.0000   1.0000   1.0000   1.0000
     1.0000   1.0000   1.0000   1.0000   1.0000   1.0000   1.0000   1.0000
     1.0000   1.0000   1.0000   1.0000

          k =-0.5186 0.2147 0.4128 (  8523 PWs)   bands (ev):

   -10.0832  -9.6857  -9.4897  -9.1255  -9.0836  -8.8741  -4.6544  -4.6411
    -4.5782  -4.5691  -4.5097  -4.5072  -4.4551  -4.4389  -4.4100  -4.3873
    -4.3450  -4.2812  -4.2258  -4.2141  -4.1957  -4.1563  -4.1078  -3.9492
    -3.6829  -3.5002   2.2166   2.3589   3.0956   3.7204   3.7682   4.3097
     4.6050   4.8747   5.4687   5.7320   5.9755   6.3163   6.6621   6.8889
     7.2047   7.4210   7.5556   7.9615

     occupation numbers 
     1.0000   1.0000   1.0000   1.0000   1.0000   1.0000   1.0000   1.0000
     1.0000   1.0000   1.0000   1.0000   1.0000   1.0000   1.0000   1.0000
     1.0000   1.0000   1.0000   1.0000   1.0000   1.0000   1.0000   1.0000
     1.0000   1.0000   1.0000   1.0000   1.0000   1.0000   1.0000   1.0000
     1.0000   1.0000   1.0000   1.0000   1.0000   1.0000   1.0000   1.0000
     1.0000   1.0000   1.0000   1.0000

          k =-0.5186 0.2147-0.6109 (  8532 PWs)   bands (ev):

   -10.0339  -9.7461  -9.4999  -9.1062  -9.0823  -8.8765  -4.6492  -4.6432
    -4.5802  -4.5681  -4.5106  -4.5059  -4.4525  -4.4402  -4.4144  -4.3931
    -4.3366  -4.2883  -4.2318  -4.1988  -4.1950  -4.1673  -4.1297  -3.9073
    -3.6986  -3.5009   2.2157   2.4235   3.3569   3.5407   3.7986   4.2003
     4.6367   4.7152   5.4155   5.7815   5.8142   6.4383   6.7506   6.8267
     7.2276   7.4506   7.5553   7.9746

     occupation numbers 
     1.0000   1.0000   1.0000   1.0000   1.0000   1.0000   1.0000   1.0000
     1.0000   1.0000   1.0000   1.0000   1.0000   1.0000   1.0000   1.0000
     1.0000   1.0000   1.0000   1.0000   1.0000   1.0000   1.0000   1.0000
     1.0000   1.0000   1.0000   1.0000   1.0000   1.0000   1.0000   1.0000
     1.0000   1.0000   1.0000   1.0000   1.0000   1.0000   1.0000   1.0000
     1.0000   1.0000   1.0000   1.0000

          k =-0.5186 0.2147-0.5179 (  8540 PWs)   bands (ev):

   -10.0218  -9.7698  -9.5139  -9.0985  -9.0635  -8.8750  -4.6489  -4.6451
    -4.5812  -4.5653  -4.5146  -4.5082  -4.4495  -4.4471  -4.4186  -4.3943
    -4.3291  -4.2878  -4.2395  -4.1963  -4.1754  -4.1724  -4.1425  -3.8545
    -3.7184  -3.5135   2.0584   2.5390   3.2729   3.5476   3.8621   4.2103
     4.5621   4.7645   5.3441   5.7177   5.9015   6.4482   6.7716   6.9294
     7.2603   7.4384   7.6086   7.9794

     occupation numbers 
     1.0000   1.0000   1.0000   1.0000   1.0000   1.0000   1.0000   1.0000
     1.0000   1.0000   1.0000   1.0000   1.0000   1.0000   1.0000   1.0000
     1.0000   1.0000   1.0000   1.0000   1.0000   1.0000   1.0000   1.0000
     1.0000   1.0000   1.0000   1.0000   1.0000   1.0000   1.0000   1.0000
     1.0000   1.0000   1.0000   1.0000   1.0000   1.0000   1.0000   1.0000
     1.0000   1.0000   1.0000   1.0000

          k =-0.5186 0.2147-0.4248 (  8535 PWs)   bands (ev):

   -10.0599  -9.7443  -9.5228  -9.1052  -9.0320  -8.8706  -4.6543  -4.6450
    -4.5795  -4.5626  -4.5206  -4.5151  -4.4540  -4.4460  -4.4222  -4.3908
    -4.3252  -4.2811  -4.2469  -4.2026  -4.1799  -4.1551  -4.1214  -3.8053
    -3.7408  -3.5330   1.8720   2.5821   2.9959   3.6347   3.9761   4.2014
     4.5915   4.9167   5.2452   5.6976   6.0603   6.3813   6.7667   7.1168
     7.2881   7.4443   7.6472   7.9763

     occupation numbers 
     1.0000   1.0000   1.0000   1.0000   1.0000   1.0000   1.0000   1.0000
     1.0000   1.0000   1.0000   1.0000   1.0000   1.0000   1.0000   1.0000
     1.0000   1.0000   1.0000   1.0000   1.0000   1.0000   1.0000   1.0000
     1.0000   1.0000   1.0000   1.0000   1.0000   1.0000   1.0000   1.0000
     1.0000   1.0000   1.0000   1.0000   1.0000   1.0000   1.0000   1.0000
     1.0000   1.0000   1.0000   1.0000

          k =-0.5186 0.2147-0.3317 (  8548 PWs)   bands (ev):

   -10.1179  -9.7019  -9.5205  -9.1177  -8.9982  -8.8682  -4.6597  -4.6471
    -4.5756  -4.5617  -4.5273  -4.5246  -4.4567  -4.4419  -4.4233  -4.3863
    -4.3243  -4.2729  -4.2527  -4.2127  -4.1808  -4.1532  -4.0639  -3.7922
    -3.7460  -3.5527   1.6984   2.5361   2.7624   3.6385   4.1336   4.1916
     4.7217   5.0691   5.1437   5.7544   6.1954   6.2888   6.8231   7.1889
     7.3493   7.4780   7.6686   7.9761

     occupation numbers 
     1.0000   1.0000   1.0000   1.0000   1.0000   1.0000   1.0000   1.0000
     1.0000   1.0000   1.0000   1.0000   1.0000   1.0000   1.0000   1.0000
     1.0000   1.0000   1.0000   1.0000   1.0000   1.0000   1.0000   1.0000
     1.0000   1.0000   1.0000   1.0000   1.0000   1.0000   1.0000   1.0000
     1.0000   1.0000   1.0000   1.0000   1.0000   1.0000   1.0000   1.0000
     1.0000   1.0000   1.0000   1.0000

          k =-0.5186 0.2147-0.2387 (  8530 PWs)   bands (ev):

   -10.1723  -9.6644  -9.5068  -9.1316  -8.9652  -8.8733  -4.6640  -4.6501
    -4.5717  -4.5631  -4.5338  -4.5312  -4.4566  -4.4366  -4.4222  -4.3821
    -4.3269  -4.2662  -4.2549  -4.2218  -4.1808  -4.1508  -3.9950  -3.8218
    -3.7373  -3.5652   1.5682   2.4073   2.6232   3.5790   4.2656   4.2980
     4.8243   5.0387   5.2320   5.8541   6.1910   6.2654   6.9405   7.1781
     7.3513   7.5148   7.6960   8.0038

     occupation numbers 
     1.0000   1.0000   1.0000   1.0000   1.0000   1.0000   1.0000   1.0000
     1.0000   1.0000   1.0000   1.0000   1.0000   1.0000   1.0000   1.0000
     1.0000   1.0000   1.0000   1.0000   1.0000   1.0000   1.0000   1.0000
     1.0000   1.0000   1.0000   1.0000   1.0000   1.0000   1.0000   1.0000
     1.0000   1.0000   1.0000   1.0000   1.0000   1.0000   1.0000   1.0000
     1.0000   1.0000   1.0000   1.0000

          k =-0.5186 0.2147-0.1456 (  8526 PWs)   bands (ev):

   -10.2133  -9.6336  -9.4905  -9.1437  -8.9350  -8.8895  -4.6670  -4.6524
    -4.5704  -4.5641  -4.5385  -4.5330  -4.4557  -4.4305  -4.4203  -4.3785
    -4.3330  -4.2645  -4.2501  -4.2280  -4.1814  -4.1467  -3.9383  -3.8437
    -3.7511  -3.5695   1.5006   2.2778   2.5430   3.5083   4.3863   4.4301
     4.8695   4.9850   5.3677   5.9421   6.1075   6.2933   7.0453   7.1532
     7.2902   7.4913   7.7212   8.0612

     occupation numbers 
     1.0000   1.0000   1.0000   1.0000   1.0000   1.0000   1.0000   1.0000
     1.0000   1.0000   1.0000   1.0000   1.0000   1.0000   1.0000   1.0000
     1.0000   1.0000   1.0000   1.0000   1.0000   1.0000   1.0000   1.0000
     1.0000   1.0000   1.0000   1.0000   1.0000   1.0000   1.0000   1.0000
     1.0000   1.0000   1.0000   1.0000   1.0000   1.0000   1.0000   1.0000
     1.0000   1.0000   1.0000   1.0000

          k =-0.6914 0.2576-0.0631 (  8535 PWs)   bands (ev):

    -9.9667  -9.5304  -9.3973  -9.1448  -8.9134  -8.9071  -4.6274  -4.5814
    -4.5708  -4.5484  -4.5139  -4.4890  -4.4677  -4.4506  -4.4070  -4.3705
    -4.3445  -4.2341  -4.2265  -4.2101  -4.1793  -4.1479  -3.8626  -3.7060
    -3.6307  -3.5028   1.5956   1.9963   2.0957   3.1659   3.5638   4.4931
     4.5374   4.7683   5.2711   5.6188   5.9137   6.2591   6.9572   7.1608
     7.3419   7.4862   7.6652   8.0617

     occupation numbers 
     1.0000   1.0000   1.0000   1.0000   1.0000   1.0000   1.0000   1.0000
     1.0000   1.0000   1.0000   1.0000   1.0000   1.0000   1.0000   1.0000
     1.0000   1.0000   1.0000   1.0000   1.0000   1.0000   1.0000   1.0000
     1.0000   1.0000   1.0000   1.0000   1.0000   1.0000   1.0000   1.0000
     1.0000   1.0000   1.0000   1.0000   1.0000   1.0000   1.0000   1.0000
     1.0000   1.0000   1.0000   1.0000

          k =-0.6914 0.2576 0.0300 (  8538 PWs)   bands (ev):

    -9.9707  -9.5075  -9.4031  -9.1430  -8.9415  -8.8950  -4.6273  -4.5834
    -4.5708  -4.5389  -4.5138  -4.4851  -4.4655  -4.4524  -4.4037  -4.3653
    -4.3505  -4.2301  -4.2250  -4.2110  -4.1821  -4.1405  -3.9063  -3.7460
    -3.6004  -3.4848   1.6190   1.9944   2.0872   3.1562   3.6340   4.4523
     4.6562   4.7381   5.4691   5.5028   5.8720   6.2910   6.9380   7.0660
     7.1566   7.4301   7.7258   8.0366

     occupation numbers 
     1.0000   1.0000   1.0000   1.0000   1.0000   1.0000   1.0000   1.0000
     1.0000   1.0000   1.0000   1.0000   1.0000   1.0000   1.0000   1.0000
     1.0000   1.0000   1.0000   1.0000   1.0000   1.0000   1.0000   1.0000
     1.0000   1.0000   1.0000   1.0000   1.0000   1.0000   1.0000   1.0000
     1.0000   1.0000   1.0000   1.0000   1.0000   1.0000   1.0000   1.0000
     1.0000   1.0000   1.0000   1.0000

          k =-0.6914 0.2576 0.1231 (  8544 PWs)   bands (ev):

    -9.9588  -9.4840  -9.4195  -9.1366  -8.9765  -8.8893  -4.6258  -4.5846
    -4.5665  -4.5250  -4.5137  -4.4830  -4.4625  -4.4541  -4.4005  -4.3625
    -4.3501  -4.2320  -4.2190  -4.2100  -4.1856  -4.1289  -3.9602  -3.7979
    -3.5860  -3.4656   1.6876   2.0265   2.1584   3.1698   3.7017   4.3645
     4.6114   4.7826   5.3963   5.6299   5.8814   6.3531   6.8590   6.9141
     7.0037   7.3559   7.7483   7.9698

     occupation numbers 
     1.0000   1.0000   1.0000   1.0000   1.0000   1.0000   1.0000   1.0000
     1.0000   1.0000   1.0000   1.0000   1.0000   1.0000   1.0000   1.0000
     1.0000   1.0000   1.0000   1.0000   1.0000   1.0000   1.0000   1.0000
     1.0000   1.0000   1.0000   1.0000   1.0000   1.0000   1.0000   1.0000
     1.0000   1.0000   1.0000   1.0000   1.0000   1.0000   1.0000   1.0000
     1.0000   1.0000   1.0000   1.0000

          k =-0.6914 0.2576 0.2161 (  8548 PWs)   bands (ev):

    -9.9323  -9.4783  -9.4308  -9.1274  -9.0117  -8.8900  -4.6229  -4.5861
    -4.5578  -4.5219  -4.5031  -4.4845  -4.4606  -4.4510  -4.3987  -4.3620
    -4.3415  -4.2385  -4.2136  -4.2062  -4.1894  -4.1134  -4.0142  -3.8533
    -3.5862  -3.4499   1.7910   2.0758   2.3055   3.1879   3.7694   4.2630
     4.4542   4.8267   5.3320   5.6630   5.9642   6.3979   6.6625   6.7712
     7.0297   7.2736   7.7102   7.9052

     occupation numbers 
     1.0000   1.0000   1.0000   1.0000   1.0000   1.0000   1.0000   1.0000
     1.0000   1.0000   1.0000   1.0000   1.0000   1.0000   1.0000   1.0000
     1.0000   1.0000   1.0000   1.0000   1.0000   1.0000   1.0000   1.0000
     1.0000   1.0000   1.0000   1.0000   1.0000   1.0000   1.0000   1.0000
     1.0000   1.0000   1.0000   1.0000   1.0000   1.0000   1.0000   1.0000
     1.0000   1.0000   1.0000   1.0000

          k =-0.6914 0.2576 0.3092 (  8536 PWs)   bands (ev):

    -9.8938  -9.5124  -9.4183  -9.1201  -9.0371  -8.8951  -4.6183  -4.5879
    -4.5491  -4.5238  -4.4939  -4.4846  -4.4588  -4.4446  -4.3995  -4.3592
    -4.3283  -4.2513  -4.2095  -4.1993  -4.1924  -4.1042  -4.0558  -3.8971
    -3.5920  -3.4455   1.9159   2.1400   2.4897   3.1740   3.8503   4.1375
     4.2896   4.8322   5.3204   5.5354   6.0688   6.2969   6.5856   6.7669
     7.1006   7.1929   7.6329   7.8660

     occupation numbers 
     1.0000   1.0000   1.0000   1.0000   1.0000   1.0000   1.0000   1.0000
     1.0000   1.0000   1.0000   1.0000   1.0000   1.0000   1.0000   1.0000
     1.0000   1.0000   1.0000   1.0000   1.0000   1.0000   1.0000   1.0000
     1.0000   1.0000   1.0000   1.0000   1.0000   1.0000   1.0000   1.0000
     1.0000   1.0000   1.0000   1.0000   1.0000   1.0000   1.0000   1.0000
     1.0000   1.0000   1.0000   1.0000

          k =-0.6914 0.2576 0.4023 (  8529 PWs)   bands (ev):

    -9.8485  -9.5617  -9.4081  -9.1184  -9.0439  -8.9010  -4.6125  -4.5912
    -4.5437  -4.5252  -4.4917  -4.4807  -4.4567  -4.4412  -4.4028  -4.3563
    -4.3108  -4.2695  -4.2078  -4.1955  -4.1860  -4.1228  -4.0732  -3.9029
    -3.6002  -3.4538   2.0431   2.2040   2.6667   3.1064   3.9126   4.0171
     4.1714   4.8149   5.2957   5.3923   6.0259   6.2472   6.6532   6.8058
     7.1056   7.2294   7.5636   7.8415

     occupation numbers 
     1.0000   1.0000   1.0000   1.0000   1.0000   1.0000   1.0000   1.0000
     1.0000   1.0000   1.0000   1.0000   1.0000   1.0000   1.0000   1.0000
     1.0000   1.0000   1.0000   1.0000   1.0000   1.0000   1.0000   1.0000
     1.0000   1.0000   1.0000   1.0000   1.0000   1.0000   1.0000   1.0000
     1.0000   1.0000   1.0000   1.0000   1.0000   1.0000   1.0000   1.0000
     1.0000   1.0000   1.0000   1.0000

          k =-0.6914 0.2576-0.6214 (  8537 PWs)   bands (ev):

    -9.8068  -9.6102  -9.4092  -9.1170  -9.0371  -8.9034  -4.6059  -4.5968
    -4.5421  -4.5248  -4.4890  -4.4781  -4.4581  -4.4446  -4.4081  -4.3556
    -4.3050  -4.2761  -4.2094  -4.1962  -4.1674  -4.1454  -4.0869  -3.8616
    -3.6112  -3.4726   2.1357   2.2441   2.8014   3.0033   3.7845   4.0365
     4.1548   4.7677   5.1293   5.4635   5.9491   6.2467   6.7589   6.8273
     7.1186   7.3335   7.5194   7.8309

     occupation numbers 
     1.0000   1.0000   1.0000   1.0000   1.0000   1.0000   1.0000   1.0000
     1.0000   1.0000   1.0000   1.0000   1.0000   1.0000   1.0000   1.0000
     1.0000   1.0000   1.0000   1.0000   1.0000   1.0000   1.0000   1.0000
     1.0000   1.0000   1.0000   1.0000   1.0000   1.0000   1.0000   1.0000
     1.0000   1.0000   1.0000   1.0000   1.0000   1.0000   1.0000   1.0000
     1.0000   1.0000   1.0000   1.0000

          k =-0.6914 0.2576-0.5284 (  8548 PWs)   bands (ev):

    -9.7923  -9.6344  -9.4178  -9.1145  -9.0237  -8.8998  -4.6042  -4.5995
    -4.5417  -4.5248  -4.4877  -4.4750  -4.4676  -4.4533  -4.4126  -4.3587
    -4.3186  -4.2623  -4.2137  -4.1967  -4.1614  -4.1529  -4.0748  -3.7939
    -3.6264  -3.4987   2.1163   2.2701   2.8430   2.9396   3.6571   3.9764
     4.2698   4.7084   5.0283   5.5589   6.0031   6.2110   6.6877   7.0340
     7.1577   7.4051   7.5136   7.8374

     occupation numbers 
     1.0000   1.0000   1.0000   1.0000   1.0000   1.0000   1.0000   1.0000
     1.0000   1.0000   1.0000   1.0000   1.0000   1.0000   1.0000   1.0000
     1.0000   1.0000   1.0000   1.0000   1.0000   1.0000   1.0000   1.0000
     1.0000   1.0000   1.0000   1.0000   1.0000   1.0000   1.0000   1.0000
     1.0000   1.0000   1.0000   1.0000   1.0000   1.0000   1.0000   1.0000
     1.0000   1.0000   1.0000   1.0000

          k =-0.6914 0.2576-0.4353 (  8551 PWs)   bands (ev):

    -9.8217  -9.6194  -9.4250  -9.1168  -9.0036  -8.8922  -4.6117  -4.5938
    -4.5407  -4.5285  -4.4952  -4.4802  -4.4701  -4.4613  -4.4139  -4.3661
    -4.3258  -4.2524  -4.2183  -4.1981  -4.1688  -4.1551  -4.0223  -3.7179
    -3.6465  -3.5284   1.9944   2.2612   2.6954   3.0198   3.6031   3.9072
     4.3959   4.7007   4.9583   5.6630   6.1164   6.1748   6.6735   7.1319
     7.2760   7.4223   7.5537   7.8596

     occupation numbers 
     1.0000   1.0000   1.0000   1.0000   1.0000   1.0000   1.0000   1.0000
     1.0000   1.0000   1.0000   1.0000   1.0000   1.0000   1.0000   1.0000
     1.0000   1.0000   1.0000   1.0000   1.0000   1.0000   1.0000   1.0000
     1.0000   1.0000   1.0000   1.0000   1.0000   1.0000   1.0000   1.0000
     1.0000   1.0000   1.0000   1.0000   1.0000   1.0000   1.0000   1.0000
     1.0000   1.0000   1.0000   1.0000

          k =-0.6914 0.2576-0.3422 (  8547 PWs)   bands (ev):

    -9.8686  -9.5921  -9.4237  -9.1247  -8.9781  -8.8856  -4.6182  -4.5886
    -4.5462  -4.5304  -4.5132  -4.4859  -4.4689  -4.4602  -4.4134  -4.3726
    -4.3285  -4.2475  -4.2218  -4.2009  -4.1732  -4.1570  -3.9521  -3.6703
    -3.6479  -3.5574   1.8438   2.2039   2.4982   3.1116   3.5640   3.9323
     4.5163   4.7344   4.9048   5.7647   6.0689   6.2324   6.7872   7.1135
     7.4092   7.4530   7.5956   7.8972

     occupation numbers 
     1.0000   1.0000   1.0000   1.0000   1.0000   1.0000   1.0000   1.0000
     1.0000   1.0000   1.0000   1.0000   1.0000   1.0000   1.0000   1.0000
     1.0000   1.0000   1.0000   1.0000   1.0000   1.0000   1.0000   1.0000
     1.0000   1.0000   1.0000   1.0000   1.0000   1.0000   1.0000   1.0000
     1.0000   1.0000   1.0000   1.0000   1.0000   1.0000   1.0000   1.0000
     1.0000   1.0000   1.0000   1.0000

          k =-0.6914 0.2576-0.2492 (  8549 PWs)   bands (ev):

    -9.9130  -9.5694  -9.4137  -9.1342  -8.9514  -8.8850  -4.6231  -4.5830
    -4.5609  -4.5309  -4.5245  -4.4890  -4.4695  -4.4549  -4.4121  -4.3752
    -4.3318  -4.2443  -4.2240  -4.2045  -4.1756  -4.1559  -3.8842  -3.6920
    -3.6168  -3.5609   1.7122   2.1246   2.3082   3.1794   3.5067   4.0861
     4.6163   4.7322   4.9384   5.7947   6.0192   6.2392   6.9501   7.1037
     7.4180   7.5216   7.6228   7.9588

     occupation numbers 
     1.0000   1.0000   1.0000   1.0000   1.0000   1.0000   1.0000   1.0000
     1.0000   1.0000   1.0000   1.0000   1.0000   1.0000   1.0000   1.0000
     1.0000   1.0000   1.0000   1.0000   1.0000   1.0000   1.0000   1.0000
     1.0000   1.0000   1.0000   1.0000   1.0000   1.0000   1.0000   1.0000
     1.0000   1.0000   1.0000   1.0000   1.0000   1.0000   1.0000   1.0000
     1.0000   1.0000   1.0000   1.0000

          k =-0.6914 0.2576-0.1561 (  8537 PWs)   bands (ev):

    -9.9469  -9.5504  -9.4022  -9.1416  -8.9271  -8.8935  -4.6261  -4.5771
    -4.5728  -4.5442  -4.5179  -4.4904  -4.4691  -4.4513  -4.4099  -4.3742
    -4.3374  -4.2399  -4.2255  -4.2079  -4.1773  -4.1528  -3.8476  -3.6970
    -3.6365  -3.5275   1.6260   2.0472   2.1687   3.1891   3.5075   4.2916
     4.6084   4.7489   5.0783   5.7279   5.9735   6.2448   6.9801   7.1661
     7.4214   7.5185   7.6263   8.0289

     occupation numbers 
     1.0000   1.0000   1.0000   1.0000   1.0000   1.0000   1.0000   1.0000
     1.0000   1.0000   1.0000   1.0000   1.0000   1.0000   1.0000   1.0000
     1.0000   1.0000   1.0000   1.0000   1.0000   1.0000   1.0000   1.0000
     1.0000   1.0000   1.0000   1.0000   1.0000   1.0000   1.0000   1.0000
     1.0000   1.0000   1.0000   1.0000   1.0000   1.0000   1.0000   1.0000
     1.0000   1.0000   1.0000   1.0000

          k = 1.2100-0.2147 0.0525 (  8538 PWs)   bands (ev):

    -9.7374  -9.4550  -9.3245  -9.1973  -8.9071  -8.9034  -4.5923  -4.5816
    -4.5507  -4.5319  -4.5145  -4.4708  -4.4595  -4.4153  -4.4061  -4.3612
    -4.3209  -4.2197  -4.2005  -4.1906  -4.1717  -4.1431  -3.8205  -3.7337
    -3.4783  -3.4045   1.4874   1.7708   1.9586   2.7277   3.2511   4.1649
     4.5646   4.7373   5.0602   5.2766   6.0999   6.2085   6.7670   7.0865
     7.4393   7.5114   7.7351   8.0256

     occupation numbers 
     1.0000   1.0000   1.0000   1.0000   1.0000   1.0000   1.0000   1.0000
     1.0000   1.0000   1.0000   1.0000   1.0000   1.0000   1.0000   1.0000
     1.0000   1.0000   1.0000   1.0000   1.0000   1.0000   1.0000   1.0000
     1.0000   1.0000   1.0000   1.0000   1.0000   1.0000   1.0000   1.0000
     1.0000   1.0000   1.0000   1.0000   1.0000   1.0000   1.0000   1.0000
     1.0000   1.0000   1.0000   1.0000

          k = 1.2100-0.2147 0.1456 (  8544 PWs)   bands (ev):

    -9.7390  -9.4427  -9.3294  -9.1944  -8.9167  -8.9029  -4.5916  -4.5800
    -4.5544  -4.5249  -4.5141  -4.4738  -4.4467  -4.4159  -4.4062  -4.3646
    -4.3182  -4.2160  -4.2020  -4.1892  -4.1727  -4.1403  -3.8457  -3.7497
    -3.4687  -3.4065   1.4801   1.7812   1.9691   2.7687   3.2539   4.1281
     4.6518   4.7709   5.1356   5.2091   6.1105   6.2031   6.7497   7.0008
     7.3261   7.4811   7.7467   7.9998

     occupation numbers 
     1.0000   1.0000   1.0000   1.0000   1.0000   1.0000   1.0000   1.0000
     1.0000   1.0000   1.0000   1.0000   1.0000   1.0000   1.0000   1.0000
     1.0000   1.0000   1.0000   1.0000   1.0000   1.0000   1.0000   1.0000
     1.0000   1.0000   1.0000   1.0000   1.0000   1.0000   1.0000   1.0000
     1.0000   1.0000   1.0000   1.0000   1.0000   1.0000   1.0000   1.0000
     1.0000   1.0000   1.0000   1.0000

          k = 1.2100-0.2147 0.2387 (  8535 PWs)   bands (ev):

    -9.7291  -9.4314  -9.3378  -9.1882  -8.9349  -8.9051  -4.5925  -4.5698
    -4.5541  -4.5237  -4.5062  -4.4830  -4.4290  -4.4161  -4.4066  -4.3659
    -4.3119  -4.2133  -4.2038  -4.1872  -4.1730  -4.1357  -3.8763  -3.7745
    -3.4831  -3.4160   1.5157   1.8417   2.0283   2.7887   3.3097   4.0375
     4.6204   4.8506   5.0210   5.3568   6.1664   6.2070   6.7463   6.8794
     7.1432   7.4021   7.7295   7.9270

     occupation numbers 
     1.0000   1.0000   1.0000   1.0000   1.0000   1.0000   1.0000   1.0000
     1.0000   1.0000   1.0000   1.0000   1.0000   1.0000   1.0000   1.0000
     1.0000   1.0000   1.0000   1.0000   1.0000   1.0000   1.0000   1.0000
     1.0000   1.0000   1.0000   1.0000   1.0000   1.0000   1.0000   1.0000
     1.0000   1.0000   1.0000   1.0000   1.0000   1.0000   1.0000   1.0000
     1.0000   1.0000   1.0000   1.0000

          k = 1.2100-0.2147 0.3317 (  8533 PWs)   bands (ev):

    -9.7086  -9.4308  -9.3415  -9.1805  -8.9547  -8.9127  -4.5906  -4.5648
    -4.5434  -4.5261  -4.4990  -4.4876  -4.4207  -4.4156  -4.4003  -4.3652
    -4.3014  -4.2166  -4.2039  -4.1849  -4.1711  -4.1291  -3.9103  -3.8040
    -3.5100  -3.4326   1.5882   1.9295   2.1310   2.7740   3.4164   3.9203
     4.5360   4.8972   4.9547   5.4675   6.1849   6.2476   6.6809   6.8440
     6.9591   7.3065   7.6786   7.8320

     occupation numbers 
     1.0000   1.0000   1.0000   1.0000   1.0000   1.0000   1.0000   1.0000
     1.0000   1.0000   1.0000   1.0000   1.0000   1.0000   1.0000   1.0000
     1.0000   1.0000   1.0000   1.0000   1.0000   1.0000   1.0000   1.0000
     1.0000   1.0000   1.0000   1.0000   1.0000   1.0000   1.0000   1.0000
     1.0000   1.0000   1.0000   1.0000   1.0000   1.0000   1.0000   1.0000
     1.0000   1.0000   1.0000   1.0000

          k = 1.2100-0.2147 0.4248 (  8536 PWs)   bands (ev):

    -9.6796  -9.4496  -9.3337  -9.1740  -8.9716  -8.9228  -4.5867  -4.5635
    -4.5329  -4.5271  -4.5024  -4.4763  -4.4231  -4.4179  -4.3894  -4.3615
    -4.2863  -4.2279  -4.2015  -4.1833  -4.1659  -4.1223  -3.9414  -3.8315
    -3.5354  -3.4560   1.6887   2.0195   2.2563   2.7183   3.5564   3.7993
     4.4341   4.8115   5.0495   5.4982   6.1075   6.2159   6.6834   6.8374
     6.9300   7.2050   7.6114   7.7378

     occupation numbers 
     1.0000   1.0000   1.0000   1.0000   1.0000   1.0000   1.0000   1.0000
     1.0000   1.0000   1.0000   1.0000   1.0000   1.0000   1.0000   1.0000
     1.0000   1.0000   1.0000   1.0000   1.0000   1.0000   1.0000   1.0000
     1.0000   1.0000   1.0000   1.0000   1.0000   1.0000   1.0000   1.0000
     1.0000   1.0000   1.0000   1.0000   1.0000   1.0000   1.0000   1.0000
     1.0000   1.0000   1.0000   1.0000

          k = 1.2100-0.2147 0.5179 (  8549 PWs)   bands (ev):

    -9.6452  -9.4824  -9.3221  -9.1704  -8.9819  -8.9312  -4.5818  -4.5636
    -4.5339  -4.5260  -4.4961  -4.4651  -4.4294  -4.4225  -4.3849  -4.3552
    -4.2693  -4.2442  -4.1986  -4.1833  -4.1579  -4.1209  -3.9606  -3.8431
    -3.5544  -3.4813   1.8046   2.0909   2.3646   2.6304   3.6875   3.7051
     4.3140   4.7582   5.1830   5.4141   5.9802   6.1300   6.7937   6.8521
     7.0209   7.1087   7.5560   7.6567

     occupation numbers 
     1.0000   1.0000   1.0000   1.0000   1.0000   1.0000   1.0000   1.0000
     1.0000   1.0000   1.0000   1.0000   1.0000   1.0000   1.0000   1.0000
     1.0000   1.0000   1.0000   1.0000   1.0000   1.0000   1.0000   1.0000
     1.0000   1.0000   1.0000   1.0000   1.0000   1.0000   1.0000   1.0000
     1.0000   1.0000   1.0000   1.0000   1.0000   1.0000   1.0000   1.0000
     1.0000   1.0000   1.0000   1.0000

          k = 1.2100-0.2147-0.5058 (  8554 PWs)   bands (ev):

    -9.6123  -9.5180  -9.3167  -9.1693  -8.9852  -8.9329  -4.5771  -4.5662
    -4.5380  -4.5236  -4.4868  -4.4589  -4.4408  -4.4261  -4.3871  -4.3499
    -4.2633  -4.2535  -4.1979  -4.1843  -4.1500  -4.1287  -3.9574  -3.8277
    -3.5702  -3.5002   1.9138   2.1177   2.4175   2.5424   3.6170   3.7951
     4.2070   4.7360   5.2300   5.3626   5.9438   6.0548   6.7950   6.9801
     7.0742   7.1282   7.5167   7.6107

     occupation numbers 
     1.0000   1.0000   1.0000   1.0000   1.0000   1.0000   1.0000   1.0000
     1.0000   1.0000   1.0000   1.0000   1.0000   1.0000   1.0000   1.0000
     1.0000   1.0000   1.0000   1.0000   1.0000   1.0000   1.0000   1.0000
     1.0000   1.0000   1.0000   1.0000   1.0000   1.0000   1.0000   1.0000
     1.0000   1.0000   1.0000   1.0000   1.0000   1.0000   1.0000   1.0000
     1.0000   1.0000   1.0000   1.0000

          k = 1.2100-0.2147-0.4128 (  8550 PWs)   bands (ev):

    -9.6040  -9.5324  -9.3196  -9.1703  -8.9815  -8.9262  -4.5759  -4.5687
    -4.5396  -4.5202  -4.4815  -4.4647  -4.4533  -4.4258  -4.3938  -4.3468
    -4.2812  -4.2412  -4.2012  -4.1848  -4.1467  -4.1410  -3.9257  -3.7935
    -3.5832  -3.5062   1.9610   2.0967   2.3886   2.5084   3.5655   3.8109
     4.1570   4.7428   5.0505   5.5340   5.9907   6.0461   6.7174   7.0424
     7.1822   7.2183   7.5065   7.6157

     occupation numbers 
     1.0000   1.0000   1.0000   1.0000   1.0000   1.0000   1.0000   1.0000
     1.0000   1.0000   1.0000   1.0000   1.0000   1.0000   1.0000   1.0000
     1.0000   1.0000   1.0000   1.0000   1.0000   1.0000   1.0000   1.0000
     1.0000   1.0000   1.0000   1.0000   1.0000   1.0000   1.0000   1.0000
     1.0000   1.0000   1.0000   1.0000   1.0000   1.0000   1.0000   1.0000
     1.0000   1.0000   1.0000   1.0000

          k = 1.2100-0.2147-0.3197 (  8554 PWs)   bands (ev):

    -9.6334  -9.5131  -9.3260  -9.1751  -8.9700  -8.9150  -4.5818  -4.5656
    -4.5389  -4.5181  -4.4864  -4.4819  -4.4587  -4.4215  -4.4009  -4.3458
    -4.2968  -4.2317  -4.2045  -4.1857  -4.1541  -4.1452  -3.8738  -3.7633
    -3.5839  -3.4980   1.8810   2.0739   2.3009   2.5261   3.5288   3.7891
     4.1707   4.7739   4.9118   5.6499   5.9805   6.1962   6.6715   7.0493
     7.2462   7.3266   7.5663   7.6643

     occupation numbers 
     1.0000   1.0000   1.0000   1.0000   1.0000   1.0000   1.0000   1.0000
     1.0000   1.0000   1.0000   1.0000   1.0000   1.0000   1.0000   1.0000
     1.0000   1.0000   1.0000   1.0000   1.0000   1.0000   1.0000   1.0000
     1.0000   1.0000   1.0000   1.0000   1.0000   1.0000   1.0000   1.0000
     1.0000   1.0000   1.0000   1.0000   1.0000   1.0000   1.0000   1.0000
     1.0000   1.0000   1.0000   1.0000

          k = 1.2100-0.2147-0.2266 (  8542 PWs)   bands (ev):

    -9.6696  -9.4915  -9.3293  -9.1830  -8.9527  -8.9042  -4.5886  -4.5615
    -4.5384  -4.5256  -4.4998  -4.4903  -4.4592  -4.4162  -4.4065  -4.3470
    -4.3088  -4.2268  -4.2039  -4.1875  -4.1626  -4.1459  -3.8199  -3.7527
    -3.5661  -3.4756   1.7524   2.0052   2.1890   2.5705   3.4599   3.8445
     4.2293   4.7811   4.8535   5.6431   6.0507   6.2538   6.7305   7.0637
     7.2763   7.4012   7.6477   7.7683

     occupation numbers 
     1.0000   1.0000   1.0000   1.0000   1.0000   1.0000   1.0000   1.0000
     1.0000   1.0000   1.0000   1.0000   1.0000   1.0000   1.0000   1.0000
     1.0000   1.0000   1.0000   1.0000   1.0000   1.0000   1.0000   1.0000
     1.0000   1.0000   1.0000   1.0000   1.0000   1.0000   1.0000   1.0000
     1.0000   1.0000   1.0000   1.0000   1.0000   1.0000   1.0000   1.0000
     1.0000   1.0000   1.0000   1.0000

          k = 1.2100-0.2147-0.1336 (  8554 PWs)   bands (ev):

    -9.7012  -9.4765  -9.3277  -9.1909  -8.9340  -8.8974  -4.5934  -4.5570
    -4.5524  -4.5279  -4.5127  -4.4863  -4.4594  -4.4118  -4.4102  -4.3507
    -4.3166  -4.2250  -4.2009  -4.1897  -4.1677  -4.1459  -3.7923  -3.7450
    -3.5380  -3.4438   1.6312   1.9053   2.0789   2.6243   3.3698   3.9750
     4.3290   4.7252   4.8992   5.5496   6.1384   6.2101   6.7943   7.1118
     7.3373   7.4521   7.6951   7.8965

     occupation numbers 
     1.0000   1.0000   1.0000   1.0000   1.0000   1.0000   1.0000   1.0000
     1.0000   1.0000   1.0000   1.0000   1.0000   1.0000   1.0000   1.0000
     1.0000   1.0000   1.0000   1.0000   1.0000   1.0000   1.0000   1.0000
     1.0000   1.0000   1.0000   1.0000   1.0000   1.0000   1.0000   1.0000
     1.0000   1.0000   1.0000   1.0000   1.0000   1.0000   1.0000   1.0000
     1.0000   1.0000   1.0000   1.0000

          k = 1.2100-0.2147-0.0405 (  8542 PWs)   bands (ev):

    -9.7245  -9.4657  -9.3246  -9.1962  -8.9179  -8.8968  -4.5949  -4.5703
    -4.5516  -4.5308  -4.5162  -4.4786  -4.4603  -4.4137  -4.4078  -4.3560
    -4.3205  -4.2229  -4.1996  -4.1910  -4.1703  -4.1450  -3.8007  -3.7317
    -3.5058  -3.4166   1.5391   1.8167   1.9969   2.6777   3.2938   4.1080
     4.4485   4.7061   4.9650   5.4190   6.1358   6.1995   6.7924   7.1253
     7.4366   7.4861   7.7182   7.9903

     occupation numbers 
     1.0000   1.0000   1.0000   1.0000   1.0000   1.0000   1.0000   1.0000
     1.0000   1.0000   1.0000   1.0000   1.0000   1.0000   1.0000   1.0000
     1.0000   1.0000   1.0000   1.0000   1.0000   1.0000   1.0000   1.0000
     1.0000   1.0000   1.0000   1.0000   1.0000   1.0000   1.0000   1.0000
     1.0000   1.0000   1.0000   1.0000   1.0000   1.0000   1.0000   1.0000
     1.0000   1.0000   1.0000   1.0000

          k = 1.0372-0.1717 0.0420 (  8550 PWs)   bands (ev):

    -9.6582  -9.3989  -9.2861  -9.2473  -8.9081  -8.8995  -4.5841  -4.5788
    -4.5495  -4.5269  -4.5228  -4.4770  -4.4329  -4.4068  -4.3906  -4.3707
    -4.2719  -4.2022  -4.2005  -4.1813  -4.1631  -4.1398  -3.8723  -3.7217
    -3.4023  -3.3764   1.3642   1.6200   1.9191   2.5863   3.2483   4.0687
     4.5749   4.7967   4.9502   5.2184   6.0315   6.4002   6.6427   6.9772
     7.4601   7.5034   7.7293   8.0035

     occupation numbers 
     1.0000   1.0000   1.0000   1.0000   1.0000   1.0000   1.0000   1.0000
     1.0000   1.0000   1.0000   1.0000   1.0000   1.0000   1.0000   1.0000
     1.0000   1.0000   1.0000   1.0000   1.0000   1.0000   1.0000   1.0000
     1.0000   1.0000   1.0000   1.0000   1.0000   1.0000   1.0000   1.0000
     1.0000   1.0000   1.0000   1.0000   1.0000   1.0000   1.0000   1.0000
     1.0000   1.0000   1.0000   1.0000

          k = 1.0372-0.1717 0.1351 (  8547 PWs)   bands (ev):

    -9.6533  -9.4014  -9.2811  -9.2489  -8.9114  -8.9024  -4.5863  -4.5699
    -4.5511  -4.5284  -4.5216  -4.4788  -4.4241  -4.4092  -4.3950  -4.3681
    -4.2715  -4.2015  -4.1991  -4.1837  -4.1623  -4.1389  -3.8703  -3.7256
    -3.4132  -3.3904   1.3695   1.6652   1.9567   2.5623   3.2873   3.9895
     4.4852   4.8740   5.0100   5.2125   6.0568   6.4017   6.6511   6.9004
     7.4258   7.5121   7.7081   7.9709

     occupation numbers 
     1.0000   1.0000   1.0000   1.0000   1.0000   1.0000   1.0000   1.0000
     1.0000   1.0000   1.0000   1.0000   1.0000   1.0000   1.0000   1.0000
     1.0000   1.0000   1.0000   1.0000   1.0000   1.0000   1.0000   1.0000
     1.0000   1.0000   1.0000   1.0000   1.0000   1.0000   1.0000   1.0000
     1.0000   1.0000   1.0000   1.0000   1.0000   1.0000   1.0000   1.0000
     1.0000   1.0000   1.0000   1.0000

          k = 1.0372-0.1717 0.2282 (  8547 PWs)   bands (ev):

    -9.6394  -9.4084  -9.2712  -9.2493  -8.9208  -8.9101  -4.5850  -4.5567
    -4.5514  -4.5309  -4.5158  -4.4842  -4.4165  -4.4091  -4.3961  -4.3655
    -4.2691  -4.1991  -4.1969  -4.1894  -4.1601  -4.1376  -3.8653  -3.7349
    -3.4481  -3.4240   1.4139   1.7660   2.0317   2.5326   3.3586   3.8698
     4.3490   4.9334   5.0667   5.2609   6.1020   6.3803   6.6738   6.8192
     7.2985   7.4810   7.6691   7.8836

     occupation numbers 
     1.0000   1.0000   1.0000   1.0000   1.0000   1.0000   1.0000   1.0000
     1.0000   1.0000   1.0000   1.0000   1.0000   1.0000   1.0000   1.0000
     1.0000   1.0000   1.0000   1.0000   1.0000   1.0000   1.0000   1.0000
     1.0000   1.0000   1.0000   1.0000   1.0000   1.0000   1.0000   1.0000
     1.0000   1.0000   1.0000   1.0000   1.0000   1.0000   1.0000   1.0000
     1.0000   1.0000   1.0000   1.0000

          k = 1.0372-0.1717 0.3212 (  8544 PWs)   bands (ev):

    -9.6174  -9.4225  -9.2583  -9.2463  -8.9346  -8.9213  -4.5800  -4.5592
    -4.5371  -4.5296  -4.5114  -4.4840  -4.4206  -4.4059  -4.3888  -4.3640
    -4.2643  -4.2010  -4.1947  -4.1929  -4.1555  -4.1364  -3.8574  -3.7493
    -3.4976  -3.4681   1.4919   1.8985   2.1296   2.4881   3.4449   3.7389
     4.2674   4.9459   5.0931   5.3252   6.1160   6.3059   6.7145   6.7760
     7.1702   7.4142   7.6137   7.7619

     occupation numbers 
     1.0000   1.0000   1.0000   1.0000   1.0000   1.0000   1.0000   1.0000
     1.0000   1.0000   1.0000   1.0000   1.0000   1.0000   1.0000   1.0000
     1.0000   1.0000   1.0000   1.0000   1.0000   1.0000   1.0000   1.0000
     1.0000   1.0000   1.0000   1.0000   1.0000   1.0000   1.0000   1.0000
     1.0000   1.0000   1.0000   1.0000   1.0000   1.0000   1.0000   1.0000
     1.0000   1.0000   1.0000   1.0000

          k = 1.0372-0.1717 0.4143 (  8530 PWs)   bands (ev):

    -9.5891  -9.4448  -9.2454  -9.2393  -8.9497  -8.9332  -4.5732  -4.5624
    -4.5347  -4.5279  -4.4989  -4.4741  -4.4266  -4.4094  -4.3766  -4.3642
    -4.2571  -4.2148  -4.1914  -4.1878  -4.1493  -4.1360  -3.8469  -3.7682
    -3.5464  -3.5126   1.5930   2.0225   2.2298   2.4249   3.5286   3.6186
     4.2858   4.8924   5.1186   5.3724   6.0589   6.1636   6.7823   6.7984
     7.1067   7.3312   7.5439   7.6412

     occupation numbers 
     1.0000   1.0000   1.0000   1.0000   1.0000   1.0000   1.0000   1.0000
     1.0000   1.0000   1.0000   1.0000   1.0000   1.0000   1.0000   1.0000
     1.0000   1.0000   1.0000   1.0000   1.0000   1.0000   1.0000   1.0000
     1.0000   1.0000   1.0000   1.0000   1.0000   1.0000   1.0000   1.0000
     1.0000   1.0000   1.0000   1.0000   1.0000   1.0000   1.0000   1.0000
     1.0000   1.0000   1.0000   1.0000

          k = 1.0372-0.1717 0.5073 (  8530 PWs)   bands (ev):

    -9.5583  -9.4723  -9.2370  -9.2304  -8.9619  -8.9426  -4.5679  -4.5635
    -4.5349  -4.5323  -4.4817  -4.4627  -4.4328  -4.4144  -4.3684  -4.3633
    -4.2483  -4.2304  -4.1886  -4.1822  -4.1438  -4.1367  -3.8336  -3.7902
    -3.5787  -3.5476   1.6985   2.0829   2.3092   2.3645   3.5397   3.6070
     4.3572   4.7762   5.1806   5.3991   5.9731   5.9979   6.8408   6.8897
     7.0968   7.2301   7.4768   7.5650

     occupation numbers 
     1.0000   1.0000   1.0000   1.0000   1.0000   1.0000   1.0000   1.0000
     1.0000   1.0000   1.0000   1.0000   1.0000   1.0000   1.0000   1.0000
     1.0000   1.0000   1.0000   1.0000   1.0000   1.0000   1.0000   1.0000
     1.0000   1.0000   1.0000   1.0000   1.0000   1.0000   1.0000   1.0000
     1.0000   1.0000   1.0000   1.0000   1.0000   1.0000   1.0000   1.0000
     1.0000   1.0000   1.0000   1.0000

          k = 1.0372-0.1717-0.5163 (  8538 PWs)   bands (ev):

    -9.5392  -9.4903  -9.2355  -9.2250  -8.9666  -8.9461  -4.5690  -4.5591
    -4.5390  -4.5317  -4.4700  -4.4624  -4.4357  -4.4170  -4.3712  -4.3560
    -4.2444  -4.2382  -4.1882  -4.1791  -4.1415  -4.1369  -3.8196  -3.8091
    -3.5841  -3.5655   1.7750   2.0363   2.3277   2.3760   3.5180   3.6678
     4.4025   4.6311   5.3144   5.3969   5.8927   5.9210   6.8772   6.9618
     7.0824   7.1630   7.4448   7.5515

     occupation numbers 
     1.0000   1.0000   1.0000   1.0000   1.0000   1.0000   1.0000   1.0000
     1.0000   1.0000   1.0000   1.0000   1.0000   1.0000   1.0000   1.0000
     1.0000   1.0000   1.0000   1.0000   1.0000   1.0000   1.0000   1.0000
     1.0000   1.0000   1.0000   1.0000   1.0000   1.0000   1.0000   1.0000
     1.0000   1.0000   1.0000   1.0000   1.0000   1.0000   1.0000   1.0000
     1.0000   1.0000   1.0000   1.0000

          k = 1.0372-0.1717-0.4233 (  8540 PWs)   bands (ev):

    -9.5588  -9.4714  -9.2420  -9.2258  -8.9620  -8.9425  -4.5716  -4.5568
    -4.5402  -4.5300  -4.4764  -4.4667  -4.4367  -4.4130  -4.3771  -4.3518
    -4.2541  -4.2269  -4.1909  -4.1801  -4.1430  -4.1368  -3.8340  -3.7918
    -3.5644  -3.5599   1.7767   1.9395   2.2817   2.4478   3.5230   3.6892
     4.4191   4.5267   5.2853   5.5230   5.8932   5.9611   6.8533   6.9057
     7.0808   7.2269   7.4604   7.5929

     occupation numbers 
     1.0000   1.0000   1.0000   1.0000   1.0000   1.0000   1.0000   1.0000
     1.0000   1.0000   1.0000   1.0000   1.0000   1.0000   1.0000   1.0000
     1.0000   1.0000   1.0000   1.0000   1.0000   1.0000   1.0000   1.0000
     1.0000   1.0000   1.0000   1.0000   1.0000   1.0000   1.0000   1.0000
     1.0000   1.0000   1.0000   1.0000   1.0000   1.0000   1.0000   1.0000
     1.0000   1.0000   1.0000   1.0000

          k = 1.0372-0.1717-0.3302 (  8549 PWs)   bands (ev):

    -9.5896  -9.4434  -9.2543  -9.2313  -8.9500  -8.9330  -4.5755  -4.5568
    -4.5388  -4.5275  -4.4943  -4.4740  -4.4358  -4.4073  -4.3833  -4.3526
    -4.2598  -4.2145  -4.1946  -4.1849  -4.1470  -4.1375  -3.8489  -3.7678
    -3.5382  -3.5194   1.6890   1.8591   2.1885   2.5336   3.4793   3.7206
     4.4262   4.5292   5.1714   5.5812   5.9824   6.1123   6.7677   6.8802
     7.0820   7.3140   7.5221   7.6754

     occupation numbers 
     1.0000   1.0000   1.0000   1.0000   1.0000   1.0000   1.0000   1.0000
     1.0000   1.0000   1.0000   1.0000   1.0000   1.0000   1.0000   1.0000
     1.0000   1.0000   1.0000   1.0000   1.0000   1.0000   1.0000   1.0000
     1.0000   1.0000   1.0000   1.0000   1.0000   1.0000   1.0000   1.0000
     1.0000   1.0000   1.0000   1.0000   1.0000   1.0000   1.0000   1.0000
     1.0000   1.0000   1.0000   1.0000

          k = 1.0372-0.1717-0.2372 (  8552 PWs)   bands (ev):

    -9.6178  -9.4206  -9.2681  -9.2380  -8.9350  -8.9210  -4.5807  -4.5564
    -4.5375  -4.5343  -4.5002  -4.4877  -4.4345  -4.4053  -4.3855  -4.3577
    -4.2640  -4.2041  -4.1957  -4.1909  -4.1530  -4.1383  -3.8598  -3.7469
    -3.4974  -3.4682   1.5726   1.7808   2.0751   2.5975   3.3784   3.8212
     4.4414   4.6051   5.0666   5.5179   6.0762   6.2490   6.7100   6.9575
     7.0820   7.3704   7.6110   7.7832

     occupation numbers 
     1.0000   1.0000   1.0000   1.0000   1.0000   1.0000   1.0000   1.0000
     1.0000   1.0000   1.0000   1.0000   1.0000   1.0000   1.0000   1.0000
     1.0000   1.0000   1.0000   1.0000   1.0000   1.0000   1.0000   1.0000
     1.0000   1.0000   1.0000   1.0000   1.0000   1.0000   1.0000   1.0000
     1.0000   1.0000   1.0000   1.0000   1.0000   1.0000   1.0000   1.0000
     1.0000   1.0000   1.0000   1.0000

          k = 1.0372-0.1717-0.1441 (  8551 PWs)   bands (ev):

    -9.6397  -9.4063  -9.2793  -9.2430  -8.9212  -8.9098  -4.5849  -4.5577
    -4.5508  -4.5327  -4.5028  -4.4919  -4.4350  -4.4059  -4.3840  -4.3653
    -4.2677  -4.2018  -4.1973  -4.1878  -4.1590  -4.1392  -3.8672  -3.7321
    -3.4525  -3.4202   1.4706   1.6991   1.9800   2.6191   3.2922   3.9569
     4.4789   4.6888   4.9877   5.4074   6.0805   6.3281   6.6780   7.0700
     7.1438   7.4315   7.6824   7.8936

     occupation numbers 
     1.0000   1.0000   1.0000   1.0000   1.0000   1.0000   1.0000   1.0000
     1.0000   1.0000   1.0000   1.0000   1.0000   1.0000   1.0000   1.0000
     1.0000   1.0000   1.0000   1.0000   1.0000   1.0000   1.0000   1.0000
     1.0000   1.0000   1.0000   1.0000   1.0000   1.0000   1.0000   1.0000
     1.0000   1.0000   1.0000   1.0000   1.0000   1.0000   1.0000   1.0000
     1.0000   1.0000   1.0000   1.0000

          k = 1.0372-0.1717-0.0510 (  8553 PWs)   bands (ev):

    -9.6535  -9.3999  -9.2856  -9.2457  -8.9116  -8.9021  -4.5860  -4.5710
    -4.5511  -4.5285  -4.5158  -4.4822  -4.4357  -4.4061  -4.3849  -4.3710
    -4.2706  -4.2015  -4.2007  -4.1822  -4.1626  -4.1398  -3.8713  -3.7238
    -3.4172  -3.3869   1.3989   1.6360   1.9262   2.6083   3.2488   4.0611
     4.5392   4.7495   4.9442   5.2914   6.0449   6.3778   6.6526   7.0350
     7.3367   7.4900   7.7224   7.9747

     occupation numbers 
     1.0000   1.0000   1.0000   1.0000   1.0000   1.0000   1.0000   1.0000
     1.0000   1.0000   1.0000   1.0000   1.0000   1.0000   1.0000   1.0000
     1.0000   1.0000   1.0000   1.0000   1.0000   1.0000   1.0000   1.0000
     1.0000   1.0000   1.0000   1.0000   1.0000   1.0000   1.0000   1.0000
     1.0000   1.0000   1.0000   1.0000   1.0000   1.0000   1.0000   1.0000
     1.0000   1.0000   1.0000   1.0000

          k = 0.8643-0.1288 0.0315 (  8553 PWs)   bands (ev):

    -9.7870  -9.3973  -9.3449  -9.1763  -8.9101  -8.9040  -4.5978  -4.5826
    -4.5484  -4.5309  -4.5136  -4.4709  -4.4363  -4.4235  -4.3931  -4.3685
    -4.3069  -4.2177  -4.1931  -4.1864  -4.1744  -4.1179  -3.8758  -3.7528
    -3.4610  -3.4128   1.4108   1.6290   1.8575   3.1024   3.1404   4.2400
     4.5659   4.8310   5.0907   5.4524   5.8743   6.3902   6.7880   6.9488
     7.3108   7.5063   7.6123   8.0226

     occupation numbers 
     1.0000   1.0000   1.0000   1.0000   1.0000   1.0000   1.0000   1.0000
     1.0000   1.0000   1.0000   1.0000   1.0000   1.0000   1.0000   1.0000
     1.0000   1.0000   1.0000   1.0000   1.0000   1.0000   1.0000   1.0000
     1.0000   1.0000   1.0000   1.0000   1.0000   1.0000   1.0000   1.0000
     1.0000   1.0000   1.0000   1.0000   1.0000   1.0000   1.0000   1.0000
     1.0000   1.0000   1.0000   1.0000

          k = 0.8643-0.1288 0.1246 (  8546 PWs)   bands (ev):

    -9.7770  -9.4095  -9.3403  -9.1752  -8.9202  -8.8983  -4.5991  -4.5742
    -4.5497  -4.5303  -4.5152  -4.4738  -4.4390  -4.4202  -4.3996  -4.3610
    -4.3062  -4.2176  -4.1949  -4.1881  -4.1724  -4.1210  -3.8597  -3.7476
    -3.4899  -3.4219   1.4398   1.6723   1.9057   3.0473   3.2015   4.1185
     4.4591   4.8077   5.2238   5.4184   5.9214   6.3688   6.8279   6.8868
     7.4191   7.4827   7.5645   7.9922

     occupation numbers 
     1.0000   1.0000   1.0000   1.0000   1.0000   1.0000   1.0000   1.0000
     1.0000   1.0000   1.0000   1.0000   1.0000   1.0000   1.0000   1.0000
     1.0000   1.0000   1.0000   1.0000   1.0000   1.0000   1.0000   1.0000
     1.0000   1.0000   1.0000   1.0000   1.0000   1.0000   1.0000   1.0000
     1.0000   1.0000   1.0000   1.0000   1.0000   1.0000   1.0000   1.0000
     1.0000   1.0000   1.0000   1.0000

          k = 0.8643-0.1288 0.2176 (  8545 PWs)   bands (ev):

    -9.7554  -9.4273  -9.3346  -9.1707  -8.9365  -8.8982  -4.5978  -4.5585
    -4.5536  -4.5251  -4.5171  -4.4807  -4.4395  -4.4135  -4.4057  -4.3544
    -4.3024  -4.2170  -4.1980  -4.1891  -4.1699  -4.1241  -3.8416  -3.7526
    -3.5328  -3.4512   1.5078   1.7528   2.0211   2.9641   3.3242   3.9392
     4.2923   4.8585   5.3116   5.3851   5.9736   6.3468   6.8069   6.8700
     7.3468   7.4986   7.5387   7.9137

     occupation numbers 
     1.0000   1.0000   1.0000   1.0000   1.0000   1.0000   1.0000   1.0000
     1.0000   1.0000   1.0000   1.0000   1.0000   1.0000   1.0000   1.0000
     1.0000   1.0000   1.0000   1.0000   1.0000   1.0000   1.0000   1.0000
     1.0000   1.0000   1.0000   1.0000   1.0000   1.0000   1.0000   1.0000
     1.0000   1.0000   1.0000   1.0000   1.0000   1.0000   1.0000   1.0000
     1.0000   1.0000   1.0000   1.0000

          k = 0.8643-0.1288 0.3107 (  8538 PWs)   bands (ev):

    -9.7243  -9.4534  -9.3250  -9.1637  -8.9551  -8.9040  -4.5935  -4.5589
    -4.5397  -4.5224  -4.5146  -4.4839  -4.4408  -4.4145  -4.4024  -4.3507
    -4.2951  -4.2161  -4.2026  -4.1897  -4.1657  -4.1269  -3.8247  -3.7704
    -3.5729  -3.4959   1.6056   1.8570   2.1782   2.8534   3.4957   3.7604
     4.1559   4.9285   5.2018   5.4596   5.9960   6.2801   6.7764   6.8598
     7.2904   7.4290   7.5562   7.8078

     occupation numbers 
     1.0000   1.0000   1.0000   1.0000   1.0000   1.0000   1.0000   1.0000
     1.0000   1.0000   1.0000   1.0000   1.0000   1.0000   1.0000   1.0000
     1.0000   1.0000   1.0000   1.0000   1.0000   1.0000   1.0000   1.0000
     1.0000   1.0000   1.0000   1.0000   1.0000   1.0000   1.0000   1.0000
     1.0000   1.0000   1.0000   1.0000   1.0000   1.0000   1.0000   1.0000
     1.0000   1.0000   1.0000   1.0000

          k = 0.8643-0.1288 0.4038 (  8529 PWs)   bands (ev):

    -9.6877  -9.4859  -9.3120  -9.1567  -8.9722  -8.9136  -4.5870  -4.5640
    -4.5329  -4.5200  -4.5028  -4.4788  -4.4434  -4.4218  -4.3927  -4.3507
    -4.2838  -4.2209  -4.2039  -4.1901  -4.1591  -4.1297  -3.8299  -3.7827
    -3.6006  -3.5416   1.7168   1.9595   2.3368   2.7265   3.6303   3.6695
     4.1144   4.9930   5.0092   5.5280   5.9741   6.1417   6.7722   6.8829
     7.2796   7.3240   7.5598   7.7058

     occupation numbers 
     1.0000   1.0000   1.0000   1.0000   1.0000   1.0000   1.0000   1.0000
     1.0000   1.0000   1.0000   1.0000   1.0000   1.0000   1.0000   1.0000
     1.0000   1.0000   1.0000   1.0000   1.0000   1.0000   1.0000   1.0000
     1.0000   1.0000   1.0000   1.0000   1.0000   1.0000   1.0000   1.0000
     1.0000   1.0000   1.0000   1.0000   1.0000   1.0000   1.0000   1.0000
     1.0000   1.0000   1.0000   1.0000

          k = 0.8643-0.1288 0.4968 (  8535 PWs)   bands (ev):

    -9.6550  -9.5157  -9.2998  -9.1525  -8.9836  -8.9234  -4.5792  -4.5703
    -4.5319  -4.5225  -4.4869  -4.4700  -4.4453  -4.4282  -4.3833  -4.3533
    -4.2691  -4.2337  -4.1996  -4.1906  -4.1505  -4.1327  -3.8651  -3.7776
    -3.6215  -3.5641   1.8123   2.0175   2.4646   2.6085   3.5834   3.7692
     4.2117   4.7938   5.0415   5.5795   5.8695   6.0476   6.8004   6.9370
     7.1725   7.2808   7.5581   7.6423

     occupation numbers 
     1.0000   1.0000   1.0000   1.0000   1.0000   1.0000   1.0000   1.0000
     1.0000   1.0000   1.0000   1.0000   1.0000   1.0000   1.0000   1.0000
     1.0000   1.0000   1.0000   1.0000   1.0000   1.0000   1.0000   1.0000
     1.0000   1.0000   1.0000   1.0000   1.0000   1.0000   1.0000   1.0000
     1.0000   1.0000   1.0000   1.0000   1.0000   1.0000   1.0000   1.0000
     1.0000   1.0000   1.0000   1.0000

          k = 0.8643-0.1288-0.5268 (  8534 PWs)   bands (ev):

    -9.6481  -9.5205  -9.2942  -9.1515  -8.9874  -8.9289  -4.5773  -4.5709
    -4.5314  -4.5246  -4.4844  -4.4656  -4.4417  -4.4300  -4.3767  -4.3552
    -4.2570  -4.2449  -4.1971  -4.1898  -4.1479  -4.1300  -3.8967  -3.7833
    -3.6288  -3.5555   1.8472   1.9957   2.5095   2.5838   3.6076   3.8249
     4.2614   4.7125   5.0860   5.5783   5.7937   6.0354   6.8195   6.9851
     7.0621   7.2187   7.5597   7.6395

     occupation numbers 
     1.0000   1.0000   1.0000   1.0000   1.0000   1.0000   1.0000   1.0000
     1.0000   1.0000   1.0000   1.0000   1.0000   1.0000   1.0000   1.0000
     1.0000   1.0000   1.0000   1.0000   1.0000   1.0000   1.0000   1.0000
     1.0000   1.0000   1.0000   1.0000   1.0000   1.0000   1.0000   1.0000
     1.0000   1.0000   1.0000   1.0000   1.0000   1.0000   1.0000   1.0000
     1.0000   1.0000   1.0000   1.0000

          k = 0.8643-0.1288-0.4338 (  8522 PWs)   bands (ev):

    -9.6742  -9.4925  -9.2993  -9.1524  -8.9842  -8.9269  -4.5839  -4.5637
    -4.5308  -4.5254  -4.4948  -4.4701  -4.4347  -4.4248  -4.3777  -4.3535
    -4.2675  -4.2345  -4.1986  -4.1874  -4.1556  -4.1190  -3.9142  -3.7954
    -3.6138  -3.5279   1.7944   1.9173   2.4179   2.7114   3.6344   3.8824
     4.1638   4.7741   5.2054   5.5009   5.8492   6.0796   6.7495   6.9796
     7.0511   7.1666   7.5690   7.6833

     occupation numbers 
     1.0000   1.0000   1.0000   1.0000   1.0000   1.0000   1.0000   1.0000
     1.0000   1.0000   1.0000   1.0000   1.0000   1.0000   1.0000   1.0000
     1.0000   1.0000   1.0000   1.0000   1.0000   1.0000   1.0000   1.0000
     1.0000   1.0000   1.0000   1.0000   1.0000   1.0000   1.0000   1.0000
     1.0000   1.0000   1.0000   1.0000   1.0000   1.0000   1.0000   1.0000
     1.0000   1.0000   1.0000   1.0000

          k = 0.8643-0.1288-0.3407 (  8524 PWs)   bands (ev):

    -9.7106  -9.4545  -9.3137  -9.1555  -8.9738  -8.9192  -4.5899  -4.5596
    -4.5318  -4.5257  -4.5063  -4.4788  -4.4300  -4.4170  -4.3839  -4.3534
    -4.2805  -4.2249  -4.1981  -4.1869  -4.1638  -4.1109  -3.9184  -3.7992
    -3.5822  -3.4916   1.6866   1.8238   2.2845   2.8570   3.5520   3.9547
     4.1795   4.7976   5.3067   5.4853   5.9164   6.1984   6.6705   6.8895
     7.0648   7.2034   7.5930   7.7540

     occupation numbers 
     1.0000   1.0000   1.0000   1.0000   1.0000   1.0000   1.0000   1.0000
     1.0000   1.0000   1.0000   1.0000   1.0000   1.0000   1.0000   1.0000
     1.0000   1.0000   1.0000   1.0000   1.0000   1.0000   1.0000   1.0000
     1.0000   1.0000   1.0000   1.0000   1.0000   1.0000   1.0000   1.0000
     1.0000   1.0000   1.0000   1.0000   1.0000   1.0000   1.0000   1.0000
     1.0000   1.0000   1.0000   1.0000

          k = 0.8643-0.1288-0.2477 (  8539 PWs)   bands (ev):

    -9.7443  -9.4199  -9.3317  -9.1614  -8.9570  -8.9101  -4.5946  -4.5591
    -4.5435  -4.5247  -4.5066  -4.4867  -4.4278  -4.4128  -4.3885  -4.3590
    -4.2918  -4.2211  -4.1928  -4.1885  -4.1696  -4.1090  -3.9131  -3.7920
    -3.5397  -3.4562   1.5728   1.7358   2.1252   2.9877   3.3907   4.0583
     4.3059   4.8166   5.2391   5.5431   5.9461   6.3347   6.7057   6.7933
     7.0735   7.2657   7.6302   7.8417

     occupation numbers 
     1.0000   1.0000   1.0000   1.0000   1.0000   1.0000   1.0000   1.0000
     1.0000   1.0000   1.0000   1.0000   1.0000   1.0000   1.0000   1.0000
     1.0000   1.0000   1.0000   1.0000   1.0000   1.0000   1.0000   1.0000
     1.0000   1.0000   1.0000   1.0000   1.0000   1.0000   1.0000   1.0000
     1.0000   1.0000   1.0000   1.0000   1.0000   1.0000   1.0000   1.0000
     1.0000   1.0000   1.0000   1.0000

          k = 0.8643-0.1288-0.1546 (  8542 PWs)   bands (ev):

    -9.7698  -9.3959  -9.3465  -9.1683  -8.9375  -8.9038  -4.5974  -4.5666
    -4.5522  -4.5228  -4.5091  -4.4846  -4.4280  -4.4163  -4.3872  -4.3683
    -4.3001  -4.2193  -4.1904  -4.1872  -4.1737  -4.1113  -3.9027  -3.7786
    -3.4951  -3.4299   1.4808   1.6671   1.9802   3.0762   3.2463   4.1707
     4.4502   4.8568   5.1267   5.5344   5.9080   6.4116   6.7359   6.8927
     7.0594   7.3533   7.6585   7.9316

     occupation numbers 
     1.0000   1.0000   1.0000   1.0000   1.0000   1.0000   1.0000   1.0000
     1.0000   1.0000   1.0000   1.0000   1.0000   1.0000   1.0000   1.0000
     1.0000   1.0000   1.0000   1.0000   1.0000   1.0000   1.0000   1.0000
     1.0000   1.0000   1.0000   1.0000   1.0000   1.0000   1.0000   1.0000
     1.0000   1.0000   1.0000   1.0000   1.0000   1.0000   1.0000   1.0000
     1.0000   1.0000   1.0000   1.0000

          k = 0.8643-0.1288-0.0615 (  8546 PWs)   bands (ev):

    -9.7845  -9.3898  -9.3498  -9.1738  -8.9197  -8.9025  -4.5978  -4.5788
    -4.5511  -4.5250  -4.5134  -4.4759  -4.4310  -4.4220  -4.3869  -4.3734
    -4.3050  -4.2182  -4.1919  -4.1849  -4.1755  -4.1146  -3.8900  -3.7643
    -3.4628  -3.4167   1.4247   1.6285   1.8843   3.1170   3.1540   4.2515
     4.5496   4.9055   5.0211   5.4902   5.8678   6.4148   6.7459   7.0080
     7.1240   7.4506   7.6553   7.9992

     occupation numbers 
     1.0000   1.0000   1.0000   1.0000   1.0000   1.0000   1.0000   1.0000
     1.0000   1.0000   1.0000   1.0000   1.0000   1.0000   1.0000   1.0000
     1.0000   1.0000   1.0000   1.0000   1.0000   1.0000   1.0000   1.0000
     1.0000   1.0000   1.0000   1.0000   1.0000   1.0000   1.0000   1.0000
     1.0000   1.0000   1.0000   1.0000   1.0000   1.0000   1.0000   1.0000
     1.0000   1.0000   1.0000   1.0000

          k = 0.6914-0.0859 0.0210 (  8523 PWs)   bands (ev):

   -10.0338  -9.4329  -9.4037  -9.1536  -8.9161  -8.9103  -4.6289  -4.5799
    -4.5707  -4.5449  -4.5126  -4.4874  -4.4673  -4.4484  -4.3830  -4.3620
    -4.3408  -4.2329  -4.2182  -4.2026  -4.1847  -4.0773  -3.8948  -3.8233
    -3.6128  -3.5078   1.4718   1.8384   2.1035   3.0950   3.8533   4.5103
     4.7340   4.8752   5.3720   5.7407   5.8097   6.3747   6.8219   7.0066
     7.1256   7.4855   7.5517   8.0716

     occupation numbers 
     1.0000   1.0000   1.0000   1.0000   1.0000   1.0000   1.0000   1.0000
     1.0000   1.0000   1.0000   1.0000   1.0000   1.0000   1.0000   1.0000
     1.0000   1.0000   1.0000   1.0000   1.0000   1.0000   1.0000   1.0000
     1.0000   1.0000   1.0000   1.0000   1.0000   1.0000   1.0000   1.0000
     1.0000   1.0000   1.0000   1.0000   1.0000   1.0000   1.0000   1.0000
     1.0000   1.0000   1.0000   1.0000

          k = 0.6914-0.0859 0.1141 (  8535 PWs)   bands (ev):

   -10.0212  -9.4529  -9.3996  -9.1495  -8.9318  -8.8974  -4.6281  -4.5767
    -4.5724  -4.5416  -4.5121  -4.4893  -4.4673  -4.4507  -4.3919  -4.3528
    -4.3399  -4.2328  -4.2212  -4.2020  -4.1830  -4.0882  -3.8723  -3.8229
    -3.6318  -3.5148   1.5008   1.8645   2.1665   3.1382   3.7969   4.3346
     4.7352   4.8666   5.4906   5.6132   5.8341   6.3681   6.8634   6.9496
     7.2537   7.4545   7.5572   8.0382

     occupation numbers 
     1.0000   1.0000   1.0000   1.0000   1.0000   1.0000   1.0000   1.0000
     1.0000   1.0000   1.0000   1.0000   1.0000   1.0000   1.0000   1.0000
     1.0000   1.0000   1.0000   1.0000   1.0000   1.0000   1.0000   1.0000
     1.0000   1.0000   1.0000   1.0000   1.0000   1.0000   1.0000   1.0000
     1.0000   1.0000   1.0000   1.0000   1.0000   1.0000   1.0000   1.0000
     1.0000   1.0000   1.0000   1.0000

          k = 0.6914-0.0859 0.2071 (  8535 PWs)   bands (ev):

    -9.9926  -9.4838  -9.3958  -9.1402  -8.9553  -8.8895  -4.6257  -4.5797
    -4.5646  -4.5343  -4.5093  -4.4909  -4.4664  -4.4554  -4.3986  -4.3483
    -4.3344  -4.2347  -4.2226  -4.2006  -4.1810  -4.0987  -3.8737  -3.8242
    -3.6473  -3.5321   1.5807   1.9192   2.3128   3.2241   3.7109   4.1026
     4.6423   4.9316   5.4108   5.6310   5.8860   6.3235   6.8751   6.9029
     7.3037   7.4076   7.6049   7.9542

     occupation numbers 
     1.0000   1.0000   1.0000   1.0000   1.0000   1.0000   1.0000   1.0000
     1.0000   1.0000   1.0000   1.0000   1.0000   1.0000   1.0000   1.0000
     1.0000   1.0000   1.0000   1.0000   1.0000   1.0000   1.0000   1.0000
     1.0000   1.0000   1.0000   1.0000   1.0000   1.0000   1.0000   1.0000
     1.0000   1.0000   1.0000   1.0000   1.0000   1.0000   1.0000   1.0000
     1.0000   1.0000   1.0000   1.0000

          k = 0.6914-0.0859 0.3002 (  8531 PWs)   bands (ev):

    -9.9511  -9.5264  -9.3888  -9.1280  -8.9793  -8.8902  -4.6214  -4.5845
    -4.5516  -4.5314  -4.5014  -4.4898  -4.4647  -4.4609  -4.4031  -4.3464
    -4.3277  -4.2401  -4.2199  -4.1995  -4.1785  -4.1098  -3.9100  -3.8132
    -3.6473  -3.5629   1.7028   1.9918   2.5203   3.2900   3.6572   3.8892
     4.5234   5.0176   5.1635   5.7490   5.9292   6.1985   6.8424   6.9045
     7.2852   7.4077   7.6396   7.8582

     occupation numbers 
     1.0000   1.0000   1.0000   1.0000   1.0000   1.0000   1.0000   1.0000
     1.0000   1.0000   1.0000   1.0000   1.0000   1.0000   1.0000   1.0000
     1.0000   1.0000   1.0000   1.0000   1.0000   1.0000   1.0000   1.0000
     1.0000   1.0000   1.0000   1.0000   1.0000   1.0000   1.0000   1.0000
     1.0000   1.0000   1.0000   1.0000   1.0000   1.0000   1.0000   1.0000
     1.0000   1.0000   1.0000   1.0000

          k = 0.6914-0.0859 0.3933 (  8529 PWs)   bands (ev):

    -9.9023  -9.5760  -9.3785  -9.1167  -8.9996  -8.8971  -4.6155  -4.5896
    -4.5399  -4.5320  -4.4944  -4.4829  -4.4671  -4.4592  -4.4054  -4.3457
    -4.3205  -4.2484  -4.2146  -4.1990  -4.1747  -4.1235  -3.9502  -3.8072
    -3.6388  -3.5965   1.8479   2.0618   2.7471   3.2303   3.6662   3.8316
     4.4060   4.8652   5.1254   5.8161   5.9581   6.0225   6.8097   6.9507
     7.2285   7.3855   7.6584   7.7980

     occupation numbers 
     1.0000   1.0000   1.0000   1.0000   1.0000   1.0000   1.0000   1.0000
     1.0000   1.0000   1.0000   1.0000   1.0000   1.0000   1.0000   1.0000
     1.0000   1.0000   1.0000   1.0000   1.0000   1.0000   1.0000   1.0000
     1.0000   1.0000   1.0000   1.0000   1.0000   1.0000   1.0000   1.0000
     1.0000   1.0000   1.0000   1.0000   1.0000   1.0000   1.0000   1.0000
     1.0000   1.0000   1.0000   1.0000

          k = 0.6914-0.0859 0.4863 (  8529 PWs)   bands (ev):

    -9.8594  -9.6188  -9.3675  -9.1105  -9.0129  -8.9055  -4.6082  -4.5959
    -4.5357  -4.5301  -4.4906  -4.4786  -4.4683  -4.4511  -4.4051  -4.3472
    -4.3098  -4.2601  -4.2087  -4.1994  -4.1682  -4.1411  -3.9743  -3.8145
    -3.6555  -3.5925   1.9821   2.0963   2.9281   3.1063   3.6781   3.9575
     4.3518   4.5691   5.2167   5.7225   5.9518   5.9938   6.8213   6.9974
     7.1031   7.3635   7.6621   7.7782

     occupation numbers 
     1.0000   1.0000   1.0000   1.0000   1.0000   1.0000   1.0000   1.0000
     1.0000   1.0000   1.0000   1.0000   1.0000   1.0000   1.0000   1.0000
     1.0000   1.0000   1.0000   1.0000   1.0000   1.0000   1.0000   1.0000
     1.0000   1.0000   1.0000   1.0000   1.0000   1.0000   1.0000   1.0000
     1.0000   1.0000   1.0000   1.0000   1.0000   1.0000   1.0000   1.0000
     1.0000   1.0000   1.0000   1.0000

          k = 0.6914-0.0859-0.5374 (  8538 PWs)   bands (ev):

    -9.8484  -9.6283  -9.3599  -9.1096  -9.0206  -8.9093  -4.6032  -4.6003
    -4.5357  -4.5287  -4.4901  -4.4796  -4.4655  -4.4448  -4.4024  -4.3489
    -4.2997  -4.2700  -4.2041  -4.2008  -4.1637  -4.1510  -3.9780  -3.8365
    -3.6786  -3.5636   2.0400   2.0840   2.9703   3.0593   3.7853   3.9904
     4.2980   4.5118   5.2774   5.5777   5.9746   6.0262   6.8618   6.9378
     7.0476   7.3366   7.6606   7.7718

     occupation numbers 
     1.0000   1.0000   1.0000   1.0000   1.0000   1.0000   1.0000   1.0000
     1.0000   1.0000   1.0000   1.0000   1.0000   1.0000   1.0000   1.0000
     1.0000   1.0000   1.0000   1.0000   1.0000   1.0000   1.0000   1.0000
     1.0000   1.0000   1.0000   1.0000   1.0000   1.0000   1.0000   1.0000
     1.0000   1.0000   1.0000   1.0000   1.0000   1.0000   1.0000   1.0000
     1.0000   1.0000   1.0000   1.0000

          k = 0.6914-0.0859-0.4443 (  8526 PWs)   bands (ev):

    -9.8796  -9.5941  -9.3591  -9.1118  -9.0237  -8.9059  -4.6106  -4.5931
    -4.5376  -4.5298  -4.4927  -4.4801  -4.4641  -4.4448  -4.3996  -4.3486
    -4.3069  -4.2622  -4.2041  -4.2013  -4.1762  -4.1294  -3.9694  -3.8644
    -3.6868  -3.5329   1.9465   2.0759   2.8326   3.1645   3.8322   3.9929
     4.1979   4.7908   5.2721   5.5208   6.0261   6.0535   6.7991   6.8978
     7.0721   7.3069   7.6683   7.7686

     occupation numbers 
     1.0000   1.0000   1.0000   1.0000   1.0000   1.0000   1.0000   1.0000
     1.0000   1.0000   1.0000   1.0000   1.0000   1.0000   1.0000   1.0000
     1.0000   1.0000   1.0000   1.0000   1.0000   1.0000   1.0000   1.0000
     1.0000   1.0000   1.0000   1.0000   1.0000   1.0000   1.0000   1.0000
     1.0000   1.0000   1.0000   1.0000   1.0000   1.0000   1.0000   1.0000
     1.0000   1.0000   1.0000   1.0000

          k = 0.6914-0.0859-0.3512 (  8522 PWs)   bands (ev):

    -9.9276  -9.5419  -9.3660  -9.1188  -9.0164  -8.8985  -4.6172  -4.5876
    -4.5446  -4.5303  -4.4943  -4.4834  -4.4638  -4.4498  -4.3960  -4.3483
    -4.3198  -4.2493  -4.2093  -4.1996  -4.1835  -4.0980  -3.9629  -3.8794
    -3.6802  -3.5077   1.8105   2.0193   2.6405   3.2496   3.8315   3.9493
     4.3556   5.0272   5.2767   5.5117   6.0270   6.1570   6.7155   6.8738
     7.0985   7.2816   7.6946   7.7827

     occupation numbers 
     1.0000   1.0000   1.0000   1.0000   1.0000   1.0000   1.0000   1.0000
     1.0000   1.0000   1.0000   1.0000   1.0000   1.0000   1.0000   1.0000
     1.0000   1.0000   1.0000   1.0000   1.0000   1.0000   1.0000   1.0000
     1.0000   1.0000   1.0000   1.0000   1.0000   1.0000   1.0000   1.0000
     1.0000   1.0000   1.0000   1.0000   1.0000   1.0000   1.0000   1.0000
     1.0000   1.0000   1.0000   1.0000

          k = 0.6914-0.0859-0.2582 (  8522 PWs)   bands (ev):

    -9.9734  -9.4914  -9.3785  -9.1309  -8.9961  -8.8925  -4.6225  -4.5836
    -4.5556  -4.5302  -4.4965  -4.4895  -4.4634  -4.4537  -4.3901  -4.3519
    -4.3296  -4.2403  -4.2139  -4.1990  -4.1865  -4.0694  -3.9627  -3.8714
    -3.6613  -3.4930   1.6754   1.9459   2.4287   3.2427   3.7937   4.1299
     4.4971   5.0706   5.3472   5.5741   5.9843   6.2893   6.7101   6.8059
     7.1364   7.2583   7.7023   7.8545

     occupation numbers 
     1.0000   1.0000   1.0000   1.0000   1.0000   1.0000   1.0000   1.0000
     1.0000   1.0000   1.0000   1.0000   1.0000   1.0000   1.0000   1.0000
     1.0000   1.0000   1.0000   1.0000   1.0000   1.0000   1.0000   1.0000
     1.0000   1.0000   1.0000   1.0000   1.0000   1.0000   1.0000   1.0000
     1.0000   1.0000   1.0000   1.0000   1.0000   1.0000   1.0000   1.0000
     1.0000   1.0000   1.0000   1.0000

          k = 0.6914-0.0859-0.1651 (  8529 PWs)   bands (ev):

   -10.0087  -9.4515  -9.3931  -9.1432  -8.9682  -8.8917  -4.6262  -4.5803
    -4.5666  -4.5326  -4.5058  -4.4886  -4.4646  -4.4524  -4.3821  -4.3608
    -4.3356  -4.2355  -4.2161  -4.1998  -4.1871  -4.0597  -3.9497  -3.8530
    -3.6349  -3.4914   1.5651   1.8831   2.2474   3.1682   3.8330   4.3428
     4.6000   5.0390   5.3114   5.7153   5.9189   6.3743   6.7235   6.8306
     7.1314   7.2937   7.6798   7.9582

     occupation numbers 
     1.0000   1.0000   1.0000   1.0000   1.0000   1.0000   1.0000   1.0000
     1.0000   1.0000   1.0000   1.0000   1.0000   1.0000   1.0000   1.0000
     1.0000   1.0000   1.0000   1.0000   1.0000   1.0000   1.0000   1.0000
     1.0000   1.0000   1.0000   1.0000   1.0000   1.0000   1.0000   1.0000
     1.0000   1.0000   1.0000   1.0000   1.0000   1.0000   1.0000   1.0000
     1.0000   1.0000   1.0000   1.0000

          k = 0.6914-0.0859-0.0720 (  8527 PWs)   bands (ev):

   -10.0296  -9.4284  -9.4051  -9.1514  -8.9394  -8.8979  -4.6283  -4.5791
    -4.5718  -4.5395  -4.5114  -4.4871  -4.4663  -4.4494  -4.3728  -4.3719
    -4.3390  -4.2336  -4.2167  -4.2016  -4.1861  -4.0663  -3.9230  -3.8350
    -3.6133  -3.4997   1.4945   1.8452   2.1324   3.1072   3.8643   4.5117
     4.6698   4.9606   5.3035   5.7685   5.8572   6.3839   6.7588   6.9681
     7.0743   7.3911   7.6305   8.0412

     occupation numbers 
     1.0000   1.0000   1.0000   1.0000   1.0000   1.0000   1.0000   1.0000
     1.0000   1.0000   1.0000   1.0000   1.0000   1.0000   1.0000   1.0000
     1.0000   1.0000   1.0000   1.0000   1.0000   1.0000   1.0000   1.0000
     1.0000   1.0000   1.0000   1.0000   1.0000   1.0000   1.0000   1.0000
     1.0000   1.0000   1.0000   1.0000   1.0000   1.0000   1.0000   1.0000
     1.0000   1.0000   1.0000   1.0000

          k = 0.5186-0.0429 0.0105 (  8527 PWs)   bands (ev):

   -10.2997  -9.4993  -9.4630  -9.2003  -8.9209  -8.9085  -4.6649  -4.6488
    -4.5772  -4.5646  -4.5366  -4.5331  -4.4540  -4.4187  -4.3932  -4.3695
    -4.3477  -4.2528  -4.2461  -4.2077  -4.1875  -4.0310  -3.9660  -3.9151
    -3.7903  -3.6370   1.4515   2.1977   2.4045   3.3382   4.4985   4.8248
     4.9288   5.2037   5.6150   6.0033   6.0721   6.3473   6.6334   7.0292
     7.1626   7.5082   7.6236   8.1148

     occupation numbers 
     1.0000   1.0000   1.0000   1.0000   1.0000   1.0000   1.0000   1.0000
     1.0000   1.0000   1.0000   1.0000   1.0000   1.0000   1.0000   1.0000
     1.0000   1.0000   1.0000   1.0000   1.0000   1.0000   1.0000   1.0000
     1.0000   1.0000   1.0000   1.0000   1.0000   1.0000   1.0000   1.0000
     1.0000   1.0000   1.0000   1.0000   1.0000   1.0000   1.0000   1.0000
     1.0000   1.0000   1.0000   1.0000

          k = 0.5186-0.0429 0.1036 (  8530 PWs)   bands (ev):

   -10.2866  -9.5208  -9.4625  -9.1917  -8.9407  -8.8923  -4.6641  -4.6479
    -4.5775  -4.5643  -4.5348  -4.5325  -4.4545  -4.4219  -4.3995  -4.3654
    -4.3446  -4.2514  -4.2475  -4.2092  -4.1860  -4.0520  -3.9482  -3.9149
    -3.8032  -3.6273   1.4715   2.2297   2.4458   3.3704   4.4472   4.6883
     5.0120   5.1990   5.5643   5.9370   6.1095   6.3185   6.6958   6.9949
     7.1989   7.5111   7.6425   8.0749

     occupation numbers 
     1.0000   1.0000   1.0000   1.0000   1.0000   1.0000   1.0000   1.0000
     1.0000   1.0000   1.0000   1.0000   1.0000   1.0000   1.0000   1.0000
     1.0000   1.0000   1.0000   1.0000   1.0000   1.0000   1.0000   1.0000
     1.0000   1.0000   1.0000   1.0000   1.0000   1.0000   1.0000   1.0000
     1.0000   1.0000   1.0000   1.0000   1.0000   1.0000   1.0000   1.0000
     1.0000   1.0000   1.0000   1.0000

          k = 0.5186-0.0429 0.1966 (  8529 PWs)   bands (ev):

   -10.2538  -9.5642  -9.4606  -9.1754  -8.9696  -8.8791  -4.6618  -4.6453
    -4.5785  -4.5641  -4.5299  -4.5288  -4.4558  -4.4294  -4.4052  -4.3638
    -4.3391  -4.2518  -4.2473  -4.2097  -4.1842  -4.0768  -3.9675  -3.9045
    -3.8054  -3.6136   1.5483   2.2908   2.5653   3.4468   4.3031   4.5591
     5.0126   5.1902   5.4505   5.9176   6.1284   6.2542   6.7628   6.9526
     7.2075   7.5083   7.6968   7.9737

     occupation numbers 
     1.0000   1.0000   1.0000   1.0000   1.0000   1.0000   1.0000   1.0000
     1.0000   1.0000   1.0000   1.0000   1.0000   1.0000   1.0000   1.0000
     1.0000   1.0000   1.0000   1.0000   1.0000   1.0000   1.0000   1.0000
     1.0000   1.0000   1.0000   1.0000   1.0000   1.0000   1.0000   1.0000
     1.0000   1.0000   1.0000   1.0000   1.0000   1.0000   1.0000   1.0000
     1.0000   1.0000   1.0000   1.0000

          k = 0.5186-0.0429 0.2897 (  8523 PWs)   bands (ev):

   -10.2044  -9.6239  -9.4574  -9.1546  -8.9975  -8.8756  -4.6582  -4.6420
    -4.5799  -4.5649  -4.5255  -4.5204  -4.4568  -4.4373  -4.4098  -4.3650
    -4.3342  -4.2583  -4.2430  -4.2073  -4.1822  -4.1072  -3.9949  -3.8997
    -3.7932  -3.6055   1.6758   2.3467   2.7713   3.5525   4.1242   4.4421
     4.8448   5.2194   5.3231   5.9374   6.0796   6.2135   6.7964   6.9418
     7.1995   7.5037   7.7390   7.8660

     occupation numbers 
     1.0000   1.0000   1.0000   1.0000   1.0000   1.0000   1.0000   1.0000
     1.0000   1.0000   1.0000   1.0000   1.0000   1.0000   1.0000   1.0000
     1.0000   1.0000   1.0000   1.0000   1.0000   1.0000   1.0000   1.0000
     1.0000   1.0000   1.0000   1.0000   1.0000   1.0000   1.0000   1.0000
     1.0000   1.0000   1.0000   1.0000   1.0000   1.0000   1.0000   1.0000
     1.0000   1.0000   1.0000   1.0000

          k = 0.5186-0.0429 0.3828 (  8527 PWs)   bands (ev):

   -10.1449  -9.6923  -9.4523  -9.1338  -9.0212  -8.8797  -4.6533  -4.6398
    -4.5809  -4.5672  -4.5209  -4.5116  -4.4558  -4.4421  -4.4136  -4.3682
    -4.3313  -4.2674  -4.2374  -4.2033  -4.1800  -4.1401  -4.0117  -3.9036
    -3.7778  -3.6027   1.8381   2.3726   3.0470   3.6480   3.9742   4.3634
     4.5691   5.0703   5.3870   5.9101   5.9994   6.2344   6.8145   6.9484
     7.1842   7.4494   7.7546   7.8261

     occupation numbers 
     1.0000   1.0000   1.0000   1.0000   1.0000   1.0000   1.0000   1.0000
     1.0000   1.0000   1.0000   1.0000   1.0000   1.0000   1.0000   1.0000
     1.0000   1.0000   1.0000   1.0000   1.0000   1.0000   1.0000   1.0000
     1.0000   1.0000   1.0000   1.0000   1.0000   1.0000   1.0000   1.0000
     1.0000   1.0000   1.0000   1.0000   1.0000   1.0000   1.0000   1.0000
     1.0000   1.0000   1.0000   1.0000

          k = 0.5186-0.0429 0.4758 (  8532 PWs)   bands (ev):

   -10.0902  -9.7527  -9.4461  -9.1190  -9.0379  -8.8861  -4.6477  -4.6400
    -4.5804  -4.5705  -4.5174  -4.5058  -4.4526  -4.4430  -4.4159  -4.3726
    -4.3304  -4.2757  -4.2312  -4.2012  -4.1774  -4.1661  -4.0161  -3.9123
    -3.7707  -3.5992   2.0066   2.3467   3.3618   3.6818   3.8590   4.2514
     4.4341   4.8427   5.5145   5.7979   5.9870   6.2683   6.8343   6.9499
     7.1370   7.3928   7.7524   7.8363

     occupation numbers 
     1.0000   1.0000   1.0000   1.0000   1.0000   1.0000   1.0000   1.0000
     1.0000   1.0000   1.0000   1.0000   1.0000   1.0000   1.0000   1.0000
     1.0000   1.0000   1.0000   1.0000   1.0000   1.0000   1.0000   1.0000
     1.0000   1.0000   1.0000   1.0000   1.0000   1.0000   1.0000   1.0000
     1.0000   1.0000   1.0000   1.0000   1.0000   1.0000   1.0000   1.0000
     1.0000   1.0000   1.0000   1.0000

          k = 0.5186-0.0429-0.5479 (  8523 PWs)   bands (ev):

   -10.0704  -9.7732  -9.4406  -9.1152  -9.0466  -8.8889  -4.6435  -4.6425
    -4.5791  -4.5730  -4.5156  -4.5039  -4.4519  -4.4411  -4.4158  -4.3750
    -4.3312  -4.2786  -4.2265  -4.2037  -4.1788  -4.1728  -4.0100  -3.9226
    -3.7768  -3.5909   2.1193   2.2853   3.5937   3.6732   3.7436   4.1095
     4.6155   4.6215   5.6249   5.6866   6.0022   6.2900   6.8410   6.9139
     7.1135   7.3772   7.7402   7.8473

     occupation numbers 
     1.0000   1.0000   1.0000   1.0000   1.0000   1.0000   1.0000   1.0000
     1.0000   1.0000   1.0000   1.0000   1.0000   1.0000   1.0000   1.0000
     1.0000   1.0000   1.0000   1.0000   1.0000   1.0000   1.0000   1.0000
     1.0000   1.0000   1.0000   1.0000   1.0000   1.0000   1.0000   1.0000
     1.0000   1.0000   1.0000   1.0000   1.0000   1.0000   1.0000   1.0000
     1.0000   1.0000   1.0000   1.0000

          k = 0.5186-0.0429-0.4548 (  8515 PWs)   bands (ev):

   -10.1034  -9.7355  -9.4374  -9.1244  -9.0457  -8.8855  -4.6486  -4.6395
    -4.5799  -4.5714  -4.5160  -4.5052  -4.4545  -4.4408  -4.4131  -4.3726
    -4.3336  -4.2739  -4.2274  -4.2061  -4.1825  -4.1613  -3.9959  -3.9328
    -3.7914  -3.5816   2.0399   2.3082   3.3274   3.6875   3.8457   4.2791
     4.4805   4.8591   5.5401   5.7482   6.0435   6.2916   6.7923   6.8883
     7.1325   7.3996   7.7247   7.8448

     occupation numbers 
     1.0000   1.0000   1.0000   1.0000   1.0000   1.0000   1.0000   1.0000
     1.0000   1.0000   1.0000   1.0000   1.0000   1.0000   1.0000   1.0000
     1.0000   1.0000   1.0000   1.0000   1.0000   1.0000   1.0000   1.0000
     1.0000   1.0000   1.0000   1.0000   1.0000   1.0000   1.0000   1.0000
     1.0000   1.0000   1.0000   1.0000   1.0000   1.0000   1.0000   1.0000
     1.0000   1.0000   1.0000   1.0000

          k = 0.5186-0.0429-0.3617 (  8520 PWs)   bands (ev):

   -10.1615  -9.6684  -9.4376  -9.1443  -9.0328  -8.8792  -4.6542  -4.6395
    -4.5805  -4.5683  -4.5188  -4.5102  -4.4570  -4.4403  -4.4085  -4.3681
    -4.3372  -4.2650  -4.2325  -4.2077  -4.1841  -4.1361  -3.9789  -3.9417
    -3.8052  -3.5783   1.8747   2.3293   3.0151   3.6215   3.9712   4.4510
     4.5989   5.0872   5.4391   5.8146   6.1050   6.2791   6.7440   6.8677
     7.1447   7.4425   7.7416   7.8257

     occupation numbers 
     1.0000   1.0000   1.0000   1.0000   1.0000   1.0000   1.0000   1.0000
     1.0000   1.0000   1.0000   1.0000   1.0000   1.0000   1.0000   1.0000
     1.0000   1.0000   1.0000   1.0000   1.0000   1.0000   1.0000   1.0000
     1.0000   1.0000   1.0000   1.0000   1.0000   1.0000   1.0000   1.0000
     1.0000   1.0000   1.0000   1.0000   1.0000   1.0000   1.0000   1.0000
     1.0000   1.0000   1.0000   1.0000

          k = 0.5186-0.0429-0.2687 (  8518 PWs)   bands (ev):

   -10.2190  -9.6000  -9.4410  -9.1678  -9.0095  -8.8759  -4.6590  -4.6419
    -4.5797  -4.5661  -4.5232  -4.5186  -4.4573  -4.4356  -4.4032  -4.3655
    -4.3416  -4.2574  -4.2377  -4.2091  -4.1856  -4.0982  -3.9722  -3.9422
    -3.8092  -3.5861   1.7109   2.3081   2.7424   3.5149   4.1435   4.5272
     4.8690   5.1915   5.4433   5.8482   6.1593   6.2756   6.7440   6.8227
     7.1613   7.4460   7.7852   7.8400

     occupation numbers 
     1.0000   1.0000   1.0000   1.0000   1.0000   1.0000   1.0000   1.0000
     1.0000   1.0000   1.0000   1.0000   1.0000   1.0000   1.0000   1.0000
     1.0000   1.0000   1.0000   1.0000   1.0000   1.0000   1.0000   1.0000
     1.0000   1.0000   1.0000   1.0000   1.0000   1.0000   1.0000   1.0000
     1.0000   1.0000   1.0000   1.0000   1.0000   1.0000   1.0000   1.0000
     1.0000   1.0000   1.0000   1.0000

          k = 0.5186-0.0429-0.1756 (  8534 PWs)   bands (ev):

   -10.2643  -9.5443  -9.4474  -9.1876  -8.9792  -8.8795  -4.6625  -4.6452
    -4.5785  -4.5651  -4.5281  -4.5273  -4.4561  -4.4278  -4.3974  -4.3665
    -4.3457  -4.2539  -4.2419  -4.2086  -4.1871  -4.0544  -3.9839  -3.9304
    -3.8008  -3.6053   1.5770   2.2632   2.5415   3.4165   4.3314   4.6239
     5.0373   5.1585   5.5491   5.8946   6.1407   6.3147   6.7087   6.8524
     7.1850   7.4290   7.7374   7.9695

     occupation numbers 
     1.0000   1.0000   1.0000   1.0000   1.0000   1.0000   1.0000   1.0000
     1.0000   1.0000   1.0000   1.0000   1.0000   1.0000   1.0000   1.0000
     1.0000   1.0000   1.0000   1.0000   1.0000   1.0000   1.0000   1.0000
     1.0000   1.0000   1.0000   1.0000   1.0000   1.0000   1.0000   1.0000
     1.0000   1.0000   1.0000   1.0000   1.0000   1.0000   1.0000   1.0000
     1.0000   1.0000   1.0000   1.0000

          k = 0.5186-0.0429-0.0826 (  8526 PWs)   bands (ev):

   -10.2920  -9.5085  -9.4562  -9.1991  -8.9469  -8.8917  -4.6644  -4.6478
    -4.5775  -4.5648  -4.5340  -4.5315  -4.4546  -4.4211  -4.3922  -4.3701
    -4.3479  -4.2531  -4.2446  -4.2075  -4.1879  -4.0204  -3.9930  -3.9197
    -3.7889  -3.6280   1.4880   2.2156   2.4318   3.3542   4.4634   4.7424
     5.0068   5.1800   5.6082   5.9863   6.0842   6.3454   6.6388   6.9615
     7.1767   7.4540   7.6769   8.0751

     occupation numbers 
     1.0000   1.0000   1.0000   1.0000   1.0000   1.0000   1.0000   1.0000
     1.0000   1.0000   1.0000   1.0000   1.0000   1.0000   1.0000   1.0000
     1.0000   1.0000   1.0000   1.0000   1.0000   1.0000   1.0000   1.0000
     1.0000   1.0000   1.0000   1.0000   1.0000   1.0000   1.0000   1.0000
     1.0000   1.0000   1.0000   1.0000   1.0000   1.0000   1.0000   1.0000
     1.0000   1.0000   1.0000   1.0000

          k = 0.3457-0.0000 0.0000 (  8535 PWs)   bands (ev):

   -10.5234  -9.5766  -9.5183  -9.2807  -8.9167  -8.9057  -4.7086  -4.6951
    -4.6303  -4.5891  -4.5438  -4.5194  -4.4408  -4.4248  -4.4066  -4.3693
    -4.3519  -4.2654  -4.2443  -4.1946  -4.1927  -4.0571  -4.0555  -3.9817
    -3.9186  -3.7621   1.3555   2.3341   2.8520   3.7989   4.4617   5.2669
     5.3516   5.7187   5.8741   6.2303   6.2575   6.5068   6.6298   7.0707
     7.2744   7.6149   7.7623   8.1364

     occupation numbers 
     1.0000   1.0000   1.0000   1.0000   1.0000   1.0000   1.0000   1.0000
     1.0000   1.0000   1.0000   1.0000   1.0000   1.0000   1.0000   1.0000
     1.0000   1.0000   1.0000   1.0000   1.0000   1.0000   1.0000   1.0000
     1.0000   1.0000   1.0000   1.0000   1.0000   1.0000   1.0000   1.0000
     1.0000   1.0000   1.0000   1.0000   1.0000   1.0000   1.0000   1.0000
     1.0000   1.0000   1.0000   1.0000

          k = 0.3457-0.0000 0.0931 (  8524 PWs)   bands (ev):

   -10.5117  -9.5943  -9.5182  -9.2734  -8.9428  -8.8850  -4.7071  -4.6947
    -4.6305  -4.5893  -4.5458  -4.5194  -4.4437  -4.4270  -4.4046  -4.3701
    -4.3509  -4.2651  -4.2435  -4.1986  -4.1900  -4.0862  -4.0368  -3.9759
    -3.9332  -3.7407   1.3851   2.3733   2.8535   3.8119   4.4668   5.1963
     5.3771   5.6841   5.8256   6.2304   6.2757   6.4995   6.6510   7.0257
     7.2787   7.6188   7.7778   8.0857

     occupation numbers 
     1.0000   1.0000   1.0000   1.0000   1.0000   1.0000   1.0000   1.0000
     1.0000   1.0000   1.0000   1.0000   1.0000   1.0000   1.0000   1.0000
     1.0000   1.0000   1.0000   1.0000   1.0000   1.0000   1.0000   1.0000
     1.0000   1.0000   1.0000   1.0000   1.0000   1.0000   1.0000   1.0000
     1.0000   1.0000   1.0000   1.0000   1.0000   1.0000   1.0000   1.0000
     1.0000   1.0000   1.0000   1.0000

          k = 0.3457-0.0000 0.1861 (  8521 PWs)   bands (ev):

   -10.4774  -9.6430  -9.5193  -9.2534  -8.9744  -8.8685  -4.7028  -4.6935
    -4.6311  -4.5904  -4.5519  -4.5204  -4.4475  -4.4330  -4.4005  -4.3728
    -4.3486  -4.2639  -4.2427  -4.2040  -4.1875  -4.1186  -4.0312  -3.9746
    -3.9451  -3.6973   1.4729   2.4775   2.8614   3.8481   4.4774   5.0852
     5.3400   5.6122   5.7071   6.2307   6.3129   6.4690   6.6968   6.9498
     7.2767   7.6201   7.8102   7.9615

     occupation numbers 
     1.0000   1.0000   1.0000   1.0000   1.0000   1.0000   1.0000   1.0000
     1.0000   1.0000   1.0000   1.0000   1.0000   1.0000   1.0000   1.0000
     1.0000   1.0000   1.0000   1.0000   1.0000   1.0000   1.0000   1.0000
     1.0000   1.0000   1.0000   1.0000   1.0000   1.0000   1.0000   1.0000
     1.0000   1.0000   1.0000   1.0000   1.0000   1.0000   1.0000   1.0000
     1.0000   1.0000   1.0000   1.0000

          k = 0.3457-0.0000 0.2792 (  8529 PWs)   bands (ev):

   -10.4238  -9.7148  -9.5213  -9.2259  -9.0031  -8.8616  -4.6966  -4.6914
    -4.6315  -4.5933  -4.5605  -4.5252  -4.4467  -4.4374  -4.3983  -4.3772
    -4.3465  -4.2611  -4.2461  -4.2083  -4.1858  -4.1458  -4.0359  -3.9926
    -3.9286  -3.6545   1.6148   2.5836   2.9108   3.9003   4.4903   4.9362
     5.2259   5.5306   5.5937   6.2030   6.3534   6.4216   6.7244   6.9268
     7.2715   7.5813   7.8117   7.8652

     occupation numbers 
     1.0000   1.0000   1.0000   1.0000   1.0000   1.0000   1.0000   1.0000
     1.0000   1.0000   1.0000   1.0000   1.0000   1.0000   1.0000   1.0000
     1.0000   1.0000   1.0000   1.0000   1.0000   1.0000   1.0000   1.0000
     1.0000   1.0000   1.0000   1.0000   1.0000   1.0000   1.0000   1.0000
     1.0000   1.0000   1.0000   1.0000   1.0000   1.0000   1.0000   1.0000
     1.0000   1.0000   1.0000   1.0000

          k = 0.3457-0.0000 0.3722 (  8526 PWs)   bands (ev):

   -10.3574  -9.7988  -9.5230  -9.1975  -9.0257  -8.8629  -4.6900  -4.6885
    -4.6312  -4.6003  -4.5664  -4.5347  -4.4415  -4.4357  -4.3996  -4.3835
    -4.3452  -4.2571  -4.2546  -4.2125  -4.1845  -4.1617  -4.0465  -4.0039
    -3.9111  -3.6216   1.7998   2.5758   3.0749   3.9612   4.5161   4.7211
     5.0613   5.4106   5.6121   6.1530   6.2787   6.4589   6.7247   6.9620
     7.2720   7.4745   7.7698   7.8721

     occupation numbers 
     1.0000   1.0000   1.0000   1.0000   1.0000   1.0000   1.0000   1.0000
     1.0000   1.0000   1.0000   1.0000   1.0000   1.0000   1.0000   1.0000
     1.0000   1.0000   1.0000   1.0000   1.0000   1.0000   1.0000   1.0000
     1.0000   1.0000   1.0000   1.0000   1.0000   1.0000   1.0000   1.0000
     1.0000   1.0000   1.0000   1.0000   1.0000   1.0000   1.0000   1.0000
     1.0000   1.0000   1.0000   1.0000

          k = 0.3457-0.0000 0.4653 (  8518 PWs)   bands (ev):

   -10.2929  -9.8759  -9.5238  -9.1757  -9.0400  -8.8675  -4.6855  -4.6849
    -4.6289  -4.6106  -4.5667  -4.5456  -4.4346  -4.4291  -4.4035  -4.3909
    -4.3446  -4.2637  -4.2518  -4.2187  -4.1837  -4.1664  -4.0563  -4.0088
    -3.8992  -3.6017   2.0044   2.4639   3.2878   4.0267   4.4754   4.5590
     4.9164   5.2836   5.7449   6.0864   6.1615   6.5085   6.7212   7.0029
     7.2749   7.3726   7.7601   7.8771

     occupation numbers 
     1.0000   1.0000   1.0000   1.0000   1.0000   1.0000   1.0000   1.0000
     1.0000   1.0000   1.0000   1.0000   1.0000   1.0000   1.0000   1.0000
     1.0000   1.0000   1.0000   1.0000   1.0000   1.0000   1.0000   1.0000
     1.0000   1.0000   1.0000   1.0000   1.0000   1.0000   1.0000   1.0000
     1.0000   1.0000   1.0000   1.0000   1.0000   1.0000   1.0000   1.0000
     1.0000   1.0000   1.0000   1.0000

          k = 0.3457-0.0000-0.5584 (  8500 PWs)   bands (ev):

   -10.2625  -9.9108  -9.5240  -9.1674  -9.0449  -8.8700  -4.6841  -4.6830
    -4.6258  -4.6173  -4.5648  -4.5514  -4.4310  -4.4247  -4.4060  -4.3953
    -4.3444  -4.2672  -4.2491  -4.2222  -4.1834  -4.1667  -4.0602  -4.0102
    -3.8950  -3.5951   2.1417   2.3564   3.3957   4.0720   4.3419   4.5765
     4.8627   5.2267   5.8831   5.9709   6.1251   6.5275   6.7199   7.0198
     7.2737   7.3362   7.7592   7.8775

     occupation numbers 
     1.0000   1.0000   1.0000   1.0000   1.0000   1.0000   1.0000   1.0000
     1.0000   1.0000   1.0000   1.0000   1.0000   1.0000   1.0000   1.0000
     1.0000   1.0000   1.0000   1.0000   1.0000   1.0000   1.0000   1.0000
     1.0000   1.0000   1.0000   1.0000   1.0000   1.0000   1.0000   1.0000
     1.0000   1.0000   1.0000   1.0000   1.0000   1.0000   1.0000   1.0000
     1.0000   1.0000   1.0000   1.0000

          k = 0.0000 0.1717-0.0420 (  8543 PWs)   bands (ev):

   -10.6692  -9.7535  -9.6470  -9.2658  -8.9142  -8.9015  -4.7236  -4.7166
    -4.7086  -4.6455  -4.5016  -4.4830  -4.4805  -4.4653  -4.4310  -4.3449
    -4.2988  -4.2880  -4.2596  -4.2244  -4.1969  -4.1942  -4.1408  -4.1045
    -4.0332  -3.6255   1.2344   2.2522   3.3009   4.2954   4.7859   5.3070
     5.6180   5.9424   6.2470   6.2543   6.5811   6.9624   7.1858   7.5581
     7.5855   7.6195   7.6700   8.1064

     occupation numbers 
     1.0000   1.0000   1.0000   1.0000   1.0000   1.0000   1.0000   1.0000
     1.0000   1.0000   1.0000   1.0000   1.0000   1.0000   1.0000   1.0000
     1.0000   1.0000   1.0000   1.0000   1.0000   1.0000   1.0000   1.0000
     1.0000   1.0000   1.0000   1.0000   1.0000   1.0000   1.0000   1.0000
     1.0000   1.0000   1.0000   1.0000   1.0000   1.0000   1.0000   1.0000
     1.0000   1.0000   1.0000   1.0000

          k = 0.0000 0.1717 0.0510 (  8522 PWs)   bands (ev):

   -10.6705  -9.7082  -9.6561  -9.2934  -8.9537  -8.8748  -4.7232  -4.7164
    -4.7097  -4.6455  -4.5154  -4.4965  -4.4787  -4.4634  -4.4218  -4.3633
    -4.3013  -4.2905  -4.2616  -4.2227  -4.1974  -4.1929  -4.1409  -4.1082
    -3.9536  -3.6730   1.3370   2.3064   3.2655   4.2759   4.6251   5.3576
     5.5682   5.9012   6.2178   6.2730   6.5251   7.0364   7.2124   7.5499
     7.5927   7.6241   7.7495   8.0796

     occupation numbers 
     1.0000   1.0000   1.0000   1.0000   1.0000   1.0000   1.0000   1.0000
     1.0000   1.0000   1.0000   1.0000   1.0000   1.0000   1.0000   1.0000
     1.0000   1.0000   1.0000   1.0000   1.0000   1.0000   1.0000   1.0000
     1.0000   1.0000   1.0000   1.0000   1.0000   1.0000   1.0000   1.0000
     1.0000   1.0000   1.0000   1.0000   1.0000   1.0000   1.0000   1.0000
     1.0000   1.0000   1.0000   1.0000

          k = 0.0000 0.1717 0.1441 (  8531 PWs)   bands (ev):

   -10.6473  -9.6918  -9.6662  -9.3190  -8.9932  -8.8532  -4.7186  -4.7163
    -4.7113  -4.6452  -4.5577  -4.5075  -4.4699  -4.4563  -4.4204  -4.3704
    -4.3092  -4.2982  -4.2656  -4.2223  -4.1975  -4.1948  -4.1406  -4.1044
    -3.8547  -3.7185   1.5010   2.4371   3.1696   4.2218   4.5195   5.4364
     5.5497   5.8804   6.1540   6.1648   6.4759   7.0779   7.1795   7.5581
     7.5902   7.6147   7.7108   8.0536

     occupation numbers 
     1.0000   1.0000   1.0000   1.0000   1.0000   1.0000   1.0000   1.0000
     1.0000   1.0000   1.0000   1.0000   1.0000   1.0000   1.0000   1.0000
     1.0000   1.0000   1.0000   1.0000   1.0000   1.0000   1.0000   1.0000
     1.0000   1.0000   1.0000   1.0000   1.0000   1.0000   1.0000   1.0000
     1.0000   1.0000   1.0000   1.0000   1.0000   1.0000   1.0000   1.0000
     1.0000   1.0000   1.0000   1.0000

          k = 0.0000 0.1717 0.2372 (  8529 PWs)   bands (ev):

   -10.6017  -9.7534  -9.6389  -9.3311  -9.0243  -8.8399  -4.7163  -4.7131
    -4.7103  -4.6444  -4.5976  -4.5292  -4.4581  -4.4444  -4.4234  -4.3699
    -4.3214  -4.3103  -4.2712  -4.2254  -4.1971  -4.1936  -4.1401  -4.0952
    -3.7737  -3.7415   1.7101   2.6309   3.0272   4.0188   4.5954   5.5379
     5.5662   5.8691   5.9509   6.0826   6.4338   7.0907   7.1049   7.4527
     7.5667   7.6403   7.6488   8.0531

     occupation numbers 
     1.0000   1.0000   1.0000   1.0000   1.0000   1.0000   1.0000   1.0000
     1.0000   1.0000   1.0000   1.0000   1.0000   1.0000   1.0000   1.0000
     1.0000   1.0000   1.0000   1.0000   1.0000   1.0000   1.0000   1.0000
     1.0000   1.0000   1.0000   1.0000   1.0000   1.0000   1.0000   1.0000
     1.0000   1.0000   1.0000   1.0000   1.0000   1.0000   1.0000   1.0000
     1.0000   1.0000   1.0000   1.0000

          k = 0.0000 0.1717 0.3302 (  8508 PWs)   bands (ev):

   -10.5383  -9.8384  -9.6338  -9.3184  -9.0441  -8.8344  -4.7163  -4.7145
    -4.6993  -4.6433  -4.6270  -4.5559  -4.4454  -4.4287  -4.4274  -4.3652
    -4.3359  -4.3254  -4.2768  -4.2303  -4.1964  -4.1892  -4.1395  -4.0861
    -3.8079  -3.6573   1.9490   2.6879   3.0383   3.7601   4.7600   5.6105
     5.6527   5.6952   5.8269   6.0554   6.3888   7.0056   7.0504   7.2738
     7.5733   7.5926   7.6816   8.0488

     occupation numbers 
     1.0000   1.0000   1.0000   1.0000   1.0000   1.0000   1.0000   1.0000
     1.0000   1.0000   1.0000   1.0000   1.0000   1.0000   1.0000   1.0000
     1.0000   1.0000   1.0000   1.0000   1.0000   1.0000   1.0000   1.0000
     1.0000   1.0000   1.0000   1.0000   1.0000   1.0000   1.0000   1.0000
     1.0000   1.0000   1.0000   1.0000   1.0000   1.0000   1.0000   1.0000
     1.0000   1.0000   1.0000   1.0000

          k = 0.0000 0.1717 0.4233 (  8517 PWs)   bands (ev):

   -10.4669  -9.9332  -9.6480  -9.2850  -9.0533  -8.8341  -4.7170  -4.7145
    -4.6865  -4.6536  -4.6307  -4.5818  -4.4354  -4.4315  -4.4122  -4.3562
    -4.3485  -4.3408  -4.2811  -4.2353  -4.1956  -4.1853  -4.1390  -4.0797
    -3.8485  -3.5833   2.1970   2.4651   3.3087   3.5401   4.9349   5.4703
     5.6633   5.7259   5.7757   6.1042   6.3367   6.8940   6.9412   7.1668
     7.5437   7.5786   7.7053   8.0366

     occupation numbers 
     1.0000   1.0000   1.0000   1.0000   1.0000   1.0000   1.0000   1.0000
     1.0000   1.0000   1.0000   1.0000   1.0000   1.0000   1.0000   1.0000
     1.0000   1.0000   1.0000   1.0000   1.0000   1.0000   1.0000   1.0000
     1.0000   1.0000   1.0000   1.0000   1.0000   1.0000   1.0000   1.0000
     1.0000   1.0000   1.0000   1.0000   1.0000   1.0000   1.0000   1.0000
     1.0000   1.0000   1.0000   1.0000

          k = 0.0000 0.1717-0.6004 (  8523 PWs)   bands (ev):

   -10.4086 -10.0113  -9.6697  -9.2460  -9.0535  -8.8355  -4.7179  -4.7136
    -4.6754  -4.6638  -4.6177  -4.6021  -4.4347  -4.4331  -4.4023  -4.3531
    -4.3499  -4.3426  -4.2836  -4.2404  -4.1949  -4.1842  -4.1386  -4.0768
    -3.8898  -3.5309   2.1483   2.4846   3.1805   3.8011   4.9864   5.3957
     5.6161   5.7089   5.8813   6.1942   6.2903   6.7871   6.8648   7.0846
     7.4959   7.5826   7.7163   8.0267

     occupation numbers 
     1.0000   1.0000   1.0000   1.0000   1.0000   1.0000   1.0000   1.0000
     1.0000   1.0000   1.0000   1.0000   1.0000   1.0000   1.0000   1.0000
     1.0000   1.0000   1.0000   1.0000   1.0000   1.0000   1.0000   1.0000
     1.0000   1.0000   1.0000   1.0000   1.0000   1.0000   1.0000   1.0000
     1.0000   1.0000   1.0000   1.0000   1.0000   1.0000   1.0000   1.0000
     1.0000   1.0000   1.0000   1.0000

          k = 0.0000 0.1717-0.5073 (  8522 PWs)   bands (ev):

   -10.4019 -10.0312  -9.6892  -9.2156  -9.0452  -8.8360  -4.7185  -4.7122
    -4.6822  -4.6515  -4.6166  -4.5939  -4.4406  -4.4359  -4.4086  -4.3460
    -4.3441  -4.3258  -4.2839  -4.2461  -4.1943  -4.1866  -4.1385  -4.0771
    -3.9324  -3.5017   1.8658   2.7017   2.9563   4.2008   4.9010   5.3961
     5.5073   5.8173   5.9781   6.2748   6.2814   6.7203   6.8705   6.9903
     7.4636   7.5852   7.7135   8.0263

     occupation numbers 
     1.0000   1.0000   1.0000   1.0000   1.0000   1.0000   1.0000   1.0000
     1.0000   1.0000   1.0000   1.0000   1.0000   1.0000   1.0000   1.0000
     1.0000   1.0000   1.0000   1.0000   1.0000   1.0000   1.0000   1.0000
     1.0000   1.0000   1.0000   1.0000   1.0000   1.0000   1.0000   1.0000
     1.0000   1.0000   1.0000   1.0000   1.0000   1.0000   1.0000   1.0000
     1.0000   1.0000   1.0000   1.0000

          k = 0.0000 0.1717-0.4143 (  8518 PWs)   bands (ev):

   -10.4548  -9.9854  -9.6995  -9.2022  -9.0273  -8.8359  -4.7185  -4.7106
    -4.6929  -4.6410  -4.6100  -4.5659  -4.4534  -4.4349  -4.4239  -4.3344
    -4.3282  -4.3102  -4.2794  -4.2522  -4.1942  -4.1921  -4.1387  -4.0805
    -3.9763  -3.4950   1.6058   2.6700   2.9694   4.5001   4.8849   5.3360
     5.4138   5.9870   6.0595   6.2830   6.3245   6.7482   6.8709   6.9664
     7.4641   7.5862   7.6968   8.0354

     occupation numbers 
     1.0000   1.0000   1.0000   1.0000   1.0000   1.0000   1.0000   1.0000
     1.0000   1.0000   1.0000   1.0000   1.0000   1.0000   1.0000   1.0000
     1.0000   1.0000   1.0000   1.0000   1.0000   1.0000   1.0000   1.0000
     1.0000   1.0000   1.0000   1.0000   1.0000   1.0000   1.0000   1.0000
     1.0000   1.0000   1.0000   1.0000   1.0000   1.0000   1.0000   1.0000
     1.0000   1.0000   1.0000   1.0000

          k = 0.0000 0.1717-0.3212 (  8530 PWs)   bands (ev):

   -10.5279  -9.9163  -9.6963  -9.2056  -9.0011  -8.8395  -4.7182  -4.7093
    -4.7034  -4.6423  -4.5811  -4.5344  -4.4662  -4.4398  -4.4329  -4.3212
    -4.3122  -4.3038  -4.2654  -4.2564  -4.1994  -4.1945  -4.1391  -4.0877
    -4.0184  -3.5084   1.3982   2.4938   3.1142   4.5280   4.9826   5.3431
     5.4020   6.0497   6.1061   6.2411   6.4672   6.7805   6.8567   7.1037
     7.5012   7.5860   7.6678   8.0511

     occupation numbers 
     1.0000   1.0000   1.0000   1.0000   1.0000   1.0000   1.0000   1.0000
     1.0000   1.0000   1.0000   1.0000   1.0000   1.0000   1.0000   1.0000
     1.0000   1.0000   1.0000   1.0000   1.0000   1.0000   1.0000   1.0000
     1.0000   1.0000   1.0000   1.0000   1.0000   1.0000   1.0000   1.0000
     1.0000   1.0000   1.0000   1.0000   1.0000   1.0000   1.0000   1.0000
     1.0000   1.0000   1.0000   1.0000

          k = 0.0000 0.1717-0.2282 (  8536 PWs)   bands (ev):

   -10.5944  -9.8527  -9.6795  -9.2201  -8.9699  -8.8518  -4.7176  -4.7129
    -4.7083  -4.6442  -4.5470  -4.5025  -4.4763  -4.4529  -4.4327  -4.3098
    -4.3075  -4.2994  -4.2617  -4.2408  -4.2053  -4.1951  -4.1397  -4.0994
    -4.0505  -3.5380   1.2617   2.3543   3.2201   4.4454   4.9717   5.3000
     5.6104   6.0384   6.0724   6.2417   6.6440   6.7235   6.9863   7.2925
     7.5566   7.5848   7.6300   8.0722

     occupation numbers 
     1.0000   1.0000   1.0000   1.0000   1.0000   1.0000   1.0000   1.0000
     1.0000   1.0000   1.0000   1.0000   1.0000   1.0000   1.0000   1.0000
     1.0000   1.0000   1.0000   1.0000   1.0000   1.0000   1.0000   1.0000
     1.0000   1.0000   1.0000   1.0000   1.0000   1.0000   1.0000   1.0000
     1.0000   1.0000   1.0000   1.0000   1.0000   1.0000   1.0000   1.0000
     1.0000   1.0000   1.0000   1.0000

          k = 0.0000 0.1717-0.1351 (  8560 PWs)   bands (ev):

   -10.6432  -9.8003  -9.6582  -9.2409  -8.9368  -8.8759  -4.7199  -4.7170
    -4.7081  -4.6452  -4.5184  -4.4822  -4.4771  -4.4617  -4.4361  -4.3223
    -4.3019  -4.2911  -4.2604  -4.2271  -4.2016  -4.1960  -4.1403  -4.1044
    -4.0640  -3.5789   1.2067   2.2706   3.2829   4.3553   4.9047   5.2876
     5.6716   6.0030   6.1260   6.2595   6.6320   6.8446   7.1034   7.4946
     7.5820   7.5916   7.6047   8.0963

     occupation numbers 
     1.0000   1.0000   1.0000   1.0000   1.0000   1.0000   1.0000   1.0000
     1.0000   1.0000   1.0000   1.0000   1.0000   1.0000   1.0000   1.0000
     1.0000   1.0000   1.0000   1.0000   1.0000   1.0000   1.0000   1.0000
     1.0000   1.0000   1.0000   1.0000   1.0000   1.0000   1.0000   1.0000
     1.0000   1.0000   1.0000   1.0000   1.0000   1.0000   1.0000   1.0000
     1.0000   1.0000   1.0000   1.0000

          k =-0.1729 0.2147-0.0525 (  8545 PWs)   bands (ev):

   -10.5912  -9.7884  -9.6239  -9.2215  -8.9172  -8.9020  -4.7363  -4.7096
    -4.6796  -4.6278  -4.5131  -4.4970  -4.4852  -4.4457  -4.4218  -4.3735
    -4.3120  -4.3090  -4.2386  -4.2251  -4.2059  -4.1501  -4.1396  -4.0633
    -4.0081  -3.5611   1.2751   2.2368   3.2046   4.3632   4.6674   5.0954
     5.4562   5.9474   6.0979   6.3770   6.4629   6.6799   7.1417   7.3705
     7.4222   7.5781   7.7821   8.0953

     occupation numbers 
     1.0000   1.0000   1.0000   1.0000   1.0000   1.0000   1.0000   1.0000
     1.0000   1.0000   1.0000   1.0000   1.0000   1.0000   1.0000   1.0000
     1.0000   1.0000   1.0000   1.0000   1.0000   1.0000   1.0000   1.0000
     1.0000   1.0000   1.0000   1.0000   1.0000   1.0000   1.0000   1.0000
     1.0000   1.0000   1.0000   1.0000   1.0000   1.0000   1.0000   1.0000
     1.0000   1.0000   1.0000   1.0000

          k =-0.1729 0.2147 0.0405 (  8536 PWs)   bands (ev):

   -10.5959  -9.7429  -9.6308  -9.2456  -8.9591  -8.8754  -4.7360  -4.7108
    -4.6794  -4.6275  -4.5228  -4.5040  -4.4794  -4.4538  -4.4154  -4.3827
    -4.3172  -4.3080  -4.2337  -4.2300  -4.2050  -4.1585  -4.1381  -4.0809
    -3.9279  -3.6029   1.3862   2.2846   3.1691   4.3419   4.5503   5.0585
     5.4344   5.9357   6.1267   6.3458   6.4192   6.7344   7.1752   7.3793
     7.4219   7.5792   7.8190   8.0775

     occupation numbers 
     1.0000   1.0000   1.0000   1.0000   1.0000   1.0000   1.0000   1.0000
     1.0000   1.0000   1.0000   1.0000   1.0000   1.0000   1.0000   1.0000
     1.0000   1.0000   1.0000   1.0000   1.0000   1.0000   1.0000   1.0000
     1.0000   1.0000   1.0000   1.0000   1.0000   1.0000   1.0000   1.0000
     1.0000   1.0000   1.0000   1.0000   1.0000   1.0000   1.0000   1.0000
     1.0000   1.0000   1.0000   1.0000

          k =-0.1729 0.2147 0.1336 (  8535 PWs)   bands (ev):

   -10.5768  -9.6982  -9.6604  -9.2727  -9.0009  -8.8539  -4.7330  -4.7120
    -4.6784  -4.6275  -4.5532  -4.5128  -4.4709  -4.4561  -4.4156  -4.3831
    -4.3258  -4.3096  -4.2408  -4.2308  -4.2011  -4.1636  -4.1397  -4.0926
    -3.8303  -3.6449   1.5631   2.4120   3.0895   4.2555   4.4958   5.0274
     5.4837   5.8904   6.0392   6.1980   6.4149   6.7890   7.2068   7.3190
     7.4459   7.6031   7.7715   8.0595

     occupation numbers 
     1.0000   1.0000   1.0000   1.0000   1.0000   1.0000   1.0000   1.0000
     1.0000   1.0000   1.0000   1.0000   1.0000   1.0000   1.0000   1.0000
     1.0000   1.0000   1.0000   1.0000   1.0000   1.0000   1.0000   1.0000
     1.0000   1.0000   1.0000   1.0000   1.0000   1.0000   1.0000   1.0000
     1.0000   1.0000   1.0000   1.0000   1.0000   1.0000   1.0000   1.0000
     1.0000   1.0000   1.0000   1.0000

          k =-0.1729 0.2147 0.2266 (  8536 PWs)   bands (ev):

   -10.5358  -9.7179  -9.6588  -9.2950  -9.0326  -8.8406  -4.7278  -4.7129
    -4.6761  -4.6281  -4.5863  -4.5303  -4.4613  -4.4513  -4.4159  -4.3796
    -4.3374  -4.3145  -4.2526  -4.2289  -4.1978  -4.1695  -4.1442  -4.0918
    -3.7342  -3.6836   1.7864   2.6184   2.9584   4.0479   4.5626   5.0370
     5.5521   5.8287   5.9089   6.0067   6.4023   6.8016   7.1950   7.2903
     7.4529   7.6207   7.6570   8.0669

     occupation numbers 
     1.0000   1.0000   1.0000   1.0000   1.0000   1.0000   1.0000   1.0000
     1.0000   1.0000   1.0000   1.0000   1.0000   1.0000   1.0000   1.0000
     1.0000   1.0000   1.0000   1.0000   1.0000   1.0000   1.0000   1.0000
     1.0000   1.0000   1.0000   1.0000   1.0000   1.0000   1.0000   1.0000
     1.0000   1.0000   1.0000   1.0000   1.0000   1.0000   1.0000   1.0000
     1.0000   1.0000   1.0000   1.0000

          k =-0.1729 0.2147 0.3197 (  8527 PWs)   bands (ev):

   -10.4771  -9.7942  -9.6431  -9.2979  -9.0513  -8.8347  -4.7215  -4.7130
    -4.6720  -4.6322  -4.6094  -4.5528  -4.4524  -4.4443  -4.4114  -4.3746
    -4.3510  -4.3224  -4.2627  -4.2289  -4.1956  -4.1768  -4.1461  -4.0839
    -3.7326  -3.6369   2.0369   2.7141   2.9608   3.7901   4.6844   5.0833
     5.5139   5.7552   5.8315   5.8861   6.3532   6.7747   7.1399   7.2839
     7.4441   7.5167   7.6624   8.0785

     occupation numbers 
     1.0000   1.0000   1.0000   1.0000   1.0000   1.0000   1.0000   1.0000
     1.0000   1.0000   1.0000   1.0000   1.0000   1.0000   1.0000   1.0000
     1.0000   1.0000   1.0000   1.0000   1.0000   1.0000   1.0000   1.0000
     1.0000   1.0000   1.0000   1.0000   1.0000   1.0000   1.0000   1.0000
     1.0000   1.0000   1.0000   1.0000   1.0000   1.0000   1.0000   1.0000
     1.0000   1.0000   1.0000   1.0000

          k =-0.1729 0.2147 0.4128 (  8526 PWs)   bands (ev):

   -10.4091  -9.8833  -9.6506  -9.2747  -9.0591  -8.8339  -4.7162  -4.7121
    -4.6658  -4.6447  -4.6124  -4.5746  -4.4497  -4.4358  -4.4027  -4.3687
    -4.3641  -4.3302  -4.2698  -4.2309  -4.1949  -4.1818  -4.1459  -4.0740
    -3.7743  -3.5641   2.2930   2.4860   3.3122   3.5139   4.8299   5.1135
     5.3374   5.6856   5.8276   5.9065   6.2835   6.7238   7.0765   7.2491
     7.4136   7.4713   7.6790   8.0812

     occupation numbers 
     1.0000   1.0000   1.0000   1.0000   1.0000   1.0000   1.0000   1.0000
     1.0000   1.0000   1.0000   1.0000   1.0000   1.0000   1.0000   1.0000
     1.0000   1.0000   1.0000   1.0000   1.0000   1.0000   1.0000   1.0000
     1.0000   1.0000   1.0000   1.0000   1.0000   1.0000   1.0000   1.0000
     1.0000   1.0000   1.0000   1.0000   1.0000   1.0000   1.0000   1.0000
     1.0000   1.0000   1.0000   1.0000

          k =-0.1729 0.2147-0.6109 (  8516 PWs)   bands (ev):

   -10.3493  -9.9642  -9.6706  -9.2367  -9.0591  -8.8349  -4.7146  -4.7096
    -4.6593  -4.6531  -4.6042  -4.5910  -4.4506  -4.4317  -4.3988  -4.3685
    -4.3635  -4.3315  -4.2740  -4.2336  -4.1954  -4.1849  -4.1448  -4.0641
    -3.8189  -3.5104   2.1928   2.5606   3.2341   3.7350   4.9156   5.0555
     5.2709   5.6375   5.8393   5.9407   6.2726   6.6618   7.0363   7.1965
     7.3864   7.4653   7.6868   8.0762

     occupation numbers 
     1.0000   1.0000   1.0000   1.0000   1.0000   1.0000   1.0000   1.0000
     1.0000   1.0000   1.0000   1.0000   1.0000   1.0000   1.0000   1.0000
     1.0000   1.0000   1.0000   1.0000   1.0000   1.0000   1.0000   1.0000
     1.0000   1.0000   1.0000   1.0000   1.0000   1.0000   1.0000   1.0000
     1.0000   1.0000   1.0000   1.0000   1.0000   1.0000   1.0000   1.0000
     1.0000   1.0000   1.0000   1.0000

          k =-0.1729 0.2147-0.5179 (  8523 PWs)   bands (ev):

   -10.3328  -9.9995  -9.6895  -9.2005  -9.0519  -8.8354  -4.7162  -4.7080
    -4.6648  -4.6419  -4.6025  -4.5844  -4.4525  -4.4372  -4.4060  -4.3614
    -4.3553  -4.3243  -4.2761  -4.2344  -4.1975  -4.1872  -4.1436  -4.0546
    -3.8666  -3.4775   1.9105   2.7634   2.9931   4.1813   4.7781   5.1430
     5.2272   5.6508   5.8250   5.9609   6.3458   6.6275   7.0300   7.1535
     7.3546   7.4769   7.6826   8.0704

     occupation numbers 
     1.0000   1.0000   1.0000   1.0000   1.0000   1.0000   1.0000   1.0000
     1.0000   1.0000   1.0000   1.0000   1.0000   1.0000   1.0000   1.0000
     1.0000   1.0000   1.0000   1.0000   1.0000   1.0000   1.0000   1.0000
     1.0000   1.0000   1.0000   1.0000   1.0000   1.0000   1.0000   1.0000
     1.0000   1.0000   1.0000   1.0000   1.0000   1.0000   1.0000   1.0000
     1.0000   1.0000   1.0000   1.0000

          k =-0.1729 0.2147-0.4248 (  8533 PWs)   bands (ev):

   -10.3769  -9.9728  -9.6971  -9.1791  -9.0347  -8.8357  -4.7197  -4.7077
    -4.6701  -4.6312  -4.5960  -4.5616  -4.4552  -4.4485  -4.4154  -4.3536
    -4.3421  -4.3139  -4.2768  -4.2305  -4.2021  -4.1881  -4.1426  -4.0464
    -3.9176  -3.4648   1.6505   2.6901   3.0077   4.5811   4.6835   5.1184
     5.2282   5.7000   5.8497   5.9908   6.3787   6.6911   7.0377   7.1495
     7.3159   7.5033   7.6694   8.0684

     occupation numbers 
     1.0000   1.0000   1.0000   1.0000   1.0000   1.0000   1.0000   1.0000
     1.0000   1.0000   1.0000   1.0000   1.0000   1.0000   1.0000   1.0000
     1.0000   1.0000   1.0000   1.0000   1.0000   1.0000   1.0000   1.0000
     1.0000   1.0000   1.0000   1.0000   1.0000   1.0000   1.0000   1.0000
     1.0000   1.0000   1.0000   1.0000   1.0000   1.0000   1.0000   1.0000
     1.0000   1.0000   1.0000   1.0000

          k =-0.1729 0.2147-0.3317 (  8534 PWs)   bands (ev):

   -10.4467  -9.9215  -9.6876  -9.1761  -9.0069  -8.8396  -4.7245  -4.7079
    -4.6743  -4.6288  -4.5725  -4.5357  -4.4598  -4.4592  -4.4214  -4.3489
    -4.3294  -4.3061  -4.2742  -4.2200  -4.2087  -4.1859  -4.1420  -4.0409
    -3.9701  -3.4701   1.4403   2.5014   3.1167   4.5378   4.9266   5.0537
     5.3095   5.7419   5.8963   6.0673   6.3619   6.7891   7.0523   7.2016
     7.2940   7.5345   7.6590   8.0706

     occupation numbers 
     1.0000   1.0000   1.0000   1.0000   1.0000   1.0000   1.0000   1.0000
     1.0000   1.0000   1.0000   1.0000   1.0000   1.0000   1.0000   1.0000
     1.0000   1.0000   1.0000   1.0000   1.0000   1.0000   1.0000   1.0000
     1.0000   1.0000   1.0000   1.0000   1.0000   1.0000   1.0000   1.0000
     1.0000   1.0000   1.0000   1.0000   1.0000   1.0000   1.0000   1.0000
     1.0000   1.0000   1.0000   1.0000

          k =-0.1729 0.2147-0.2387 (  8534 PWs)   bands (ev):

   -10.5128  -9.8735  -9.6635  -9.1856  -8.9733  -8.8523  -4.7296  -4.7082
    -4.6772  -4.6285  -4.5448  -4.5130  -4.4693  -4.4595  -4.4238  -4.3505
    -4.3196  -4.3054  -4.2639  -4.2167  -4.2075  -4.1744  -4.1417  -4.0406
    -4.0179  -3.4906   1.3006   2.3533   3.1809   4.4642   4.8702   5.0952
     5.5495   5.7301   5.9287   6.2102   6.3688   6.7918   7.0872   7.2556
     7.3536   7.5553   7.6696   8.0777

     occupation numbers 
     1.0000   1.0000   1.0000   1.0000   1.0000   1.0000   1.0000   1.0000
     1.0000   1.0000   1.0000   1.0000   1.0000   1.0000   1.0000   1.0000
     1.0000   1.0000   1.0000   1.0000   1.0000   1.0000   1.0000   1.0000
     1.0000   1.0000   1.0000   1.0000   1.0000   1.0000   1.0000   1.0000
     1.0000   1.0000   1.0000   1.0000   1.0000   1.0000   1.0000   1.0000
     1.0000   1.0000   1.0000   1.0000

          k =-0.1729 0.2147-0.1456 (  8542 PWs)   bands (ev):

   -10.5628  -9.8311  -9.6375  -9.2015  -8.9385  -8.8771  -4.7339  -4.7087
    -4.6789  -4.6283  -4.5230  -4.5008  -4.4786  -4.4489  -4.4257  -4.3598
    -4.3134  -4.3079  -4.2497  -4.2222  -4.2045  -4.1522  -4.1416  -4.0491
    -4.0413  -3.5224   1.2444   2.2622   3.2075   4.4032   4.7722   5.1045
     5.5491   5.8864   5.9718   6.3444   6.4120   6.7219   7.1172   7.3064
     7.4231   7.5741   7.7132   8.0895

     occupation numbers 
     1.0000   1.0000   1.0000   1.0000   1.0000   1.0000   1.0000   1.0000
     1.0000   1.0000   1.0000   1.0000   1.0000   1.0000   1.0000   1.0000
     1.0000   1.0000   1.0000   1.0000   1.0000   1.0000   1.0000   1.0000
     1.0000   1.0000   1.0000   1.0000   1.0000   1.0000   1.0000   1.0000
     1.0000   1.0000   1.0000   1.0000   1.0000   1.0000   1.0000   1.0000
     1.0000   1.0000   1.0000   1.0000

          k =-0.3457 0.2576-0.0631 (  8534 PWs)   bands (ev):

   -10.4177  -9.7680  -9.5623  -9.1671  -8.9210  -8.9036  -4.7183  -4.6984
    -4.6217  -4.5878  -4.5455  -4.5226  -4.4603  -4.4267  -4.4108  -4.3951
    -4.3403  -4.3051  -4.2488  -4.2372  -4.1895  -4.1477  -4.0407  -3.9712
    -3.8967  -3.5198   1.3873   2.2320   2.9909   4.0891   4.5013   4.8368
     5.1574   5.4612   5.6272   6.1206   6.4901   6.6548   6.8413   7.2762
     7.3092   7.4989   7.8293   8.0868

     occupation numbers 
     1.0000   1.0000   1.0000   1.0000   1.0000   1.0000   1.0000   1.0000
     1.0000   1.0000   1.0000   1.0000   1.0000   1.0000   1.0000   1.0000
     1.0000   1.0000   1.0000   1.0000   1.0000   1.0000   1.0000   1.0000
     1.0000   1.0000   1.0000   1.0000   1.0000   1.0000   1.0000   1.0000
     1.0000   1.0000   1.0000   1.0000   1.0000   1.0000   1.0000   1.0000
     1.0000   1.0000   1.0000   1.0000

          k =-0.3457 0.2576 0.0300 (  8525 PWs)   bands (ev):

   -10.4251  -9.7265  -9.5678  -9.1807  -8.9647  -8.8792  -4.7181  -4.6988
    -4.6215  -4.5890  -4.5450  -4.5231  -4.4578  -4.4307  -4.4094  -4.3976
    -4.3452  -4.3051  -4.2436  -4.2318  -4.1937  -4.1452  -4.0853  -3.9728
    -3.8345  -3.5482   1.4921   2.2600   2.9502   4.0575   4.4995   4.7450
     5.1783   5.4854   5.6724   6.1401   6.4844   6.6495   6.7924   7.2166
     7.2814   7.5092   7.8465   8.0663

     occupation numbers 
     1.0000   1.0000   1.0000   1.0000   1.0000   1.0000   1.0000   1.0000
     1.0000   1.0000   1.0000   1.0000   1.0000   1.0000   1.0000   1.0000
     1.0000   1.0000   1.0000   1.0000   1.0000   1.0000   1.0000   1.0000
     1.0000   1.0000   1.0000   1.0000   1.0000   1.0000   1.0000   1.0000
     1.0000   1.0000   1.0000   1.0000   1.0000   1.0000   1.0000   1.0000
     1.0000   1.0000   1.0000   1.0000

          k =-0.3457 0.2576 0.1231 (  8528 PWs)   bands (ev):

   -10.4105  -9.6830  -9.5930  -9.1973  -9.0108  -8.8604  -4.7152  -4.6981
    -4.6213  -4.5922  -4.5480  -4.5254  -4.4552  -4.4378  -4.4117  -4.3944
    -4.3523  -4.3039  -4.2408  -4.2249  -4.2002  -4.1454  -4.1158  -4.0035
    -3.7466  -3.5780   1.6642   2.3708   2.8987   4.0293   4.4848   4.6183
     5.2545   5.4400   5.7209   6.0556   6.3403   6.6396   6.8398   7.1413
     7.2776   7.5227   7.8056   8.0354

     occupation numbers 
     1.0000   1.0000   1.0000   1.0000   1.0000   1.0000   1.0000   1.0000
     1.0000   1.0000   1.0000   1.0000   1.0000   1.0000   1.0000   1.0000
     1.0000   1.0000   1.0000   1.0000   1.0000   1.0000   1.0000   1.0000
     1.0000   1.0000   1.0000   1.0000   1.0000   1.0000   1.0000   1.0000
     1.0000   1.0000   1.0000   1.0000   1.0000   1.0000   1.0000   1.0000
     1.0000   1.0000   1.0000   1.0000

          k =-0.3457 0.2576 0.2161 (  8518 PWs)   bands (ev):

   -10.3756  -9.6563  -9.6256  -9.2170  -9.0458  -8.8494  -4.7103  -4.6961
    -4.6212  -4.5981  -4.5544  -4.5304  -4.4521  -4.4425  -4.4116  -4.3921
    -4.3603  -4.3027  -4.2375  -4.2272  -4.2031  -4.1536  -4.1274  -4.0328
    -3.6623  -3.6078   1.8825   2.5667   2.8218   3.9724   4.3904   4.5970
     5.3095   5.3673   5.7592   5.9082   6.1678   6.6725   6.7558   7.1828
     7.2846   7.5197   7.6944   8.0374

     occupation numbers 
     1.0000   1.0000   1.0000   1.0000   1.0000   1.0000   1.0000   1.0000
     1.0000   1.0000   1.0000   1.0000   1.0000   1.0000   1.0000   1.0000
     1.0000   1.0000   1.0000   1.0000   1.0000   1.0000   1.0000   1.0000
     1.0000   1.0000   1.0000   1.0000   1.0000   1.0000   1.0000   1.0000
     1.0000   1.0000   1.0000   1.0000   1.0000   1.0000   1.0000   1.0000
     1.0000   1.0000   1.0000   1.0000

          k =-0.3457 0.2576 0.3092 (  8518 PWs)   bands (ev):

   -10.3240  -9.7095  -9.6117  -9.2300  -9.0642  -8.8453  -4.7043  -4.6929
    -4.6209  -4.6070  -4.5601  -4.5393  -4.4487  -4.4418  -4.4092  -4.3912
    -4.3684  -4.3026  -4.2404  -4.2322  -4.1997  -4.1624  -4.1366  -4.0455
    -3.6425  -3.5860   2.1252   2.6832   2.8597   3.8359   4.3436   4.6033
     5.1994   5.3910   5.7393   5.7943   6.0588   6.5893   6.7615   7.2269
     7.2780   7.5255   7.5771   8.0591

     occupation numbers 
     1.0000   1.0000   1.0000   1.0000   1.0000   1.0000   1.0000   1.0000
     1.0000   1.0000   1.0000   1.0000   1.0000   1.0000   1.0000   1.0000
     1.0000   1.0000   1.0000   1.0000   1.0000   1.0000   1.0000   1.0000
     1.0000   1.0000   1.0000   1.0000   1.0000   1.0000   1.0000   1.0000
     1.0000   1.0000   1.0000   1.0000   1.0000   1.0000   1.0000   1.0000
     1.0000   1.0000   1.0000   1.0000

          k =-0.3457 0.2576 0.4023 (  8508 PWs)   bands (ev):

   -10.2628  -9.7859  -9.6099  -9.2216  -9.0700  -8.8453  -4.6984  -4.6895
    -4.6201  -4.6161  -4.5619  -4.5497  -4.4481  -4.4358  -4.4058  -4.3947
    -4.3727  -4.3041  -4.2494  -4.2294  -4.1956  -4.1714  -4.1479  -4.0374
    -3.6757  -3.5297   2.3710   2.5063   3.1992   3.6283   4.3672   4.5978
     5.0514   5.3739   5.6655   5.7229   6.0837   6.4907   6.8253   7.1701
     7.2752   7.4885   7.5842   8.0807

     occupation numbers 
     1.0000   1.0000   1.0000   1.0000   1.0000   1.0000   1.0000   1.0000
     1.0000   1.0000   1.0000   1.0000   1.0000   1.0000   1.0000   1.0000
     1.0000   1.0000   1.0000   1.0000   1.0000   1.0000   1.0000   1.0000
     1.0000   1.0000   1.0000   1.0000   1.0000   1.0000   1.0000   1.0000
     1.0000   1.0000   1.0000   1.0000   1.0000   1.0000   1.0000   1.0000
     1.0000   1.0000   1.0000   1.0000

          k =-0.3457 0.2576-0.6214 (  8513 PWs)   bands (ev):

   -10.2058  -9.8617  -9.6237  -9.1924  -9.0694  -8.8463  -4.6948  -4.6877
    -4.6249  -4.6144  -4.5619  -4.5560  -4.4492  -4.4310  -4.4053  -4.4011
    -4.3688  -4.3063  -4.2550  -4.2244  -4.1922  -4.1838  -4.1525  -4.0160
    -3.7128  -3.4904   2.2697   2.6081   3.3564   3.6074   4.4131   4.5952
     4.8972   5.3489   5.6121   5.6411   6.1740   6.4738   6.8899   7.0667
     7.2830   7.4496   7.6391   8.0929

     occupation numbers 
     1.0000   1.0000   1.0000   1.0000   1.0000   1.0000   1.0000   1.0000
     1.0000   1.0000   1.0000   1.0000   1.0000   1.0000   1.0000   1.0000
     1.0000   1.0000   1.0000   1.0000   1.0000   1.0000   1.0000   1.0000
     1.0000   1.0000   1.0000   1.0000   1.0000   1.0000   1.0000   1.0000
     1.0000   1.0000   1.0000   1.0000   1.0000   1.0000   1.0000   1.0000
     1.0000   1.0000   1.0000   1.0000

          k =-0.3457 0.2576-0.5284 (  8519 PWs)   bands (ev):

   -10.1819  -9.9073  -9.6387  -9.1573  -9.0638  -8.8462  -4.6955  -4.6881
    -4.6270  -4.6073  -4.5652  -4.5508  -4.4512  -4.4323  -4.4174  -4.3934
    -4.3610  -4.3068  -4.2599  -4.2143  -4.1964  -4.1880  -4.1525  -3.9880
    -3.7546  -3.4678   2.0171   2.7851   3.1174   3.9762   4.4432   4.6249
     4.7739   5.3504   5.5209   5.6311   6.2210   6.5806   6.9265   7.0024
     7.2953   7.4367   7.6764   8.0932

     occupation numbers 
     1.0000   1.0000   1.0000   1.0000   1.0000   1.0000   1.0000   1.0000
     1.0000   1.0000   1.0000   1.0000   1.0000   1.0000   1.0000   1.0000
     1.0000   1.0000   1.0000   1.0000   1.0000   1.0000   1.0000   1.0000
     1.0000   1.0000   1.0000   1.0000   1.0000   1.0000   1.0000   1.0000
     1.0000   1.0000   1.0000   1.0000   1.0000   1.0000   1.0000   1.0000
     1.0000   1.0000   1.0000   1.0000

          k =-0.3457 0.2576-0.4353 (  8529 PWs)   bands (ev):

   -10.2150  -9.9003  -9.6421  -9.1353  -9.0460  -8.8455  -4.6998  -4.6905
    -4.6257  -4.5996  -4.5641  -4.5419  -4.4540  -4.4381  -4.4247  -4.3850
    -4.3531  -4.3046  -4.2654  -4.2119  -4.1944  -4.1793  -4.1514  -3.9597
    -3.8012  -3.4594   1.7735   2.7632   3.0176   4.2044   4.5485   4.6691
     4.7152   5.3804   5.4665   5.6384   6.2671   6.6785   6.9297   7.0446
     7.3170   7.4452   7.6881   8.0850

     occupation numbers 
     1.0000   1.0000   1.0000   1.0000   1.0000   1.0000   1.0000   1.0000
     1.0000   1.0000   1.0000   1.0000   1.0000   1.0000   1.0000   1.0000
     1.0000   1.0000   1.0000   1.0000   1.0000   1.0000   1.0000   1.0000
     1.0000   1.0000   1.0000   1.0000   1.0000   1.0000   1.0000   1.0000
     1.0000   1.0000   1.0000   1.0000   1.0000   1.0000   1.0000   1.0000
     1.0000   1.0000   1.0000   1.0000

          k =-0.3457 0.2576-0.3422 (  8533 PWs)   bands (ev):

   -10.2779  -9.8685  -9.6278  -9.1337  -9.0135  -8.8480  -4.7057  -4.6934
    -4.6237  -4.5940  -4.5581  -4.5332  -4.4575  -4.4409  -4.4263  -4.3797
    -4.3466  -4.3012  -4.2690  -4.2210  -4.1890  -4.1539  -4.1445  -3.9395
    -3.8499  -3.4627   1.5688   2.5677   3.0512   4.2150   4.6028   4.7518
     4.8385   5.3841   5.5297   5.6582   6.3341   6.6723   6.9647   7.1501
     7.3423   7.4729   7.6841   8.0752

     occupation numbers 
     1.0000   1.0000   1.0000   1.0000   1.0000   1.0000   1.0000   1.0000
     1.0000   1.0000   1.0000   1.0000   1.0000   1.0000   1.0000   1.0000
     1.0000   1.0000   1.0000   1.0000   1.0000   1.0000   1.0000   1.0000
     1.0000   1.0000   1.0000   1.0000   1.0000   1.0000   1.0000   1.0000
     1.0000   1.0000   1.0000   1.0000   1.0000   1.0000   1.0000   1.0000
     1.0000   1.0000   1.0000   1.0000

          k =-0.3457 0.2576-0.2492 (  8551 PWs)   bands (ev):

   -10.3402  -9.8362  -9.6011  -9.1425  -8.9758  -8.8587  -4.7115  -4.6957
    -4.6225  -4.5905  -4.5516  -4.5271  -4.4608  -4.4356  -4.4244  -4.3801
    -4.3417  -4.3007  -4.2667  -4.2294  -4.1875  -4.1509  -4.0967  -3.9455
    -3.8863  -3.4751   1.4269   2.3957   3.0526   4.1761   4.5592   4.7953
     5.0553   5.3859   5.5870   5.7789   6.3944   6.6539   6.9797   7.2318
     7.3484   7.5157   7.7034   8.0714

     occupation numbers 
     1.0000   1.0000   1.0000   1.0000   1.0000   1.0000   1.0000   1.0000
     1.0000   1.0000   1.0000   1.0000   1.0000   1.0000   1.0000   1.0000
     1.0000   1.0000   1.0000   1.0000   1.0000   1.0000   1.0000   1.0000
     1.0000   1.0000   1.0000   1.0000   1.0000   1.0000   1.0000   1.0000
     1.0000   1.0000   1.0000   1.0000   1.0000   1.0000   1.0000   1.0000
     1.0000   1.0000   1.0000   1.0000

          k =-0.3457 0.2576-0.1561 (  8543 PWs)   bands (ev):

   -10.3887  -9.8041  -9.5754  -9.1545  -8.9396  -8.8814  -4.7159  -4.6974
    -4.6220  -4.5883  -4.5476  -4.5237  -4.4617  -4.4283  -4.4190  -4.3863
    -4.3391  -4.3032  -4.2585  -4.2353  -4.1876  -4.1497  -4.0333  -3.9877
    -3.8987  -3.4948   1.3642   2.2799   3.0270   4.1303   4.5221   4.8328
     5.1619   5.4127   5.5905   5.9816   6.4418   6.6454   6.9478   7.2772
     7.3210   7.5207   7.7724   8.0792

     occupation numbers 
     1.0000   1.0000   1.0000   1.0000   1.0000   1.0000   1.0000   1.0000
     1.0000   1.0000   1.0000   1.0000   1.0000   1.0000   1.0000   1.0000
     1.0000   1.0000   1.0000   1.0000   1.0000   1.0000   1.0000   1.0000
     1.0000   1.0000   1.0000   1.0000   1.0000   1.0000   1.0000   1.0000
     1.0000   1.0000   1.0000   1.0000   1.0000   1.0000   1.0000   1.0000
     1.0000   1.0000   1.0000   1.0000

          k =-0.5186 0.3005-0.0736 (  8527 PWs)   bands (ev):

   -10.1756  -9.6998  -9.4779  -9.1320  -8.9197  -8.9053  -4.6705  -4.6569
    -4.5704  -4.5599  -4.5408  -4.5301  -4.4564  -4.4358  -4.4313  -4.3895
    -4.3361  -4.2724  -4.2515  -4.2386  -4.1810  -4.1588  -3.9397  -3.8210
    -3.7316  -3.5227   1.5480   2.1674   2.6445   3.5523   4.2232   4.4864
     4.7366   4.9469   5.3931   5.8988   6.1310   6.3234   7.1604   7.2102
     7.2779   7.4694   7.7828   8.0747

     occupation numbers 
     1.0000   1.0000   1.0000   1.0000   1.0000   1.0000   1.0000   1.0000
     1.0000   1.0000   1.0000   1.0000   1.0000   1.0000   1.0000   1.0000
     1.0000   1.0000   1.0000   1.0000   1.0000   1.0000   1.0000   1.0000
     1.0000   1.0000   1.0000   1.0000   1.0000   1.0000   1.0000   1.0000
     1.0000   1.0000   1.0000   1.0000   1.0000   1.0000   1.0000   1.0000
     1.0000   1.0000   1.0000   1.0000

          k =-0.5186 0.3005 0.0195 (  8530 PWs)   bands (ev):

   -10.1843  -9.6654  -9.4828  -9.1339  -8.9610  -8.8854  -4.6710  -4.6554
    -4.5729  -4.5575  -4.5391  -4.5254  -4.4570  -4.4333  -4.4288  -4.3872
    -4.3439  -4.2722  -4.2434  -4.2391  -4.1844  -4.1544  -3.9922  -3.8231
    -3.7007  -3.5251   1.6276   2.1701   2.6013   3.5385   4.2970   4.4764
     4.7082   4.9901   5.4663   5.8660   6.0951   6.4235   6.9892   7.1326
     7.1813   7.5004   7.7980   8.0532

     occupation numbers 
     1.0000   1.0000   1.0000   1.0000   1.0000   1.0000   1.0000   1.0000
     1.0000   1.0000   1.0000   1.0000   1.0000   1.0000   1.0000   1.0000
     1.0000   1.0000   1.0000   1.0000   1.0000   1.0000   1.0000   1.0000
     1.0000   1.0000   1.0000   1.0000   1.0000   1.0000   1.0000   1.0000
     1.0000   1.0000   1.0000   1.0000   1.0000   1.0000   1.0000   1.0000
     1.0000   1.0000   1.0000   1.0000

          k =-0.5186 0.3005 0.1126 (  8530 PWs)   bands (ev):

   -10.1740  -9.6276  -9.5033  -9.1322  -9.0114  -8.8719  -4.6698  -4.6524
    -4.5744  -4.5571  -4.5333  -4.5190  -4.4579  -4.4334  -4.4264  -4.3850
    -4.3508  -4.2724  -4.2390  -4.2333  -4.1897  -4.1481  -4.0486  -3.8722
    -3.6387  -3.5265   1.7684   2.2557   2.5739   3.5553   4.2727   4.4583
     4.6880   4.9902   5.5524   5.8098   6.0585   6.5304   6.7490   6.9780
     7.1806   7.4853   7.7810   8.0094

     occupation numbers 
     1.0000   1.0000   1.0000   1.0000   1.0000   1.0000   1.0000   1.0000
     1.0000   1.0000   1.0000   1.0000   1.0000   1.0000   1.0000   1.0000
     1.0000   1.0000   1.0000   1.0000   1.0000   1.0000   1.0000   1.0000
     1.0000   1.0000   1.0000   1.0000   1.0000   1.0000   1.0000   1.0000
     1.0000   1.0000   1.0000   1.0000   1.0000   1.0000   1.0000   1.0000
     1.0000   1.0000   1.0000   1.0000

          k =-0.5186 0.3005 0.2056 (  8546 PWs)   bands (ev):

   -10.1459  -9.5962  -9.5337  -9.1298  -9.0593  -8.8658  -4.6669  -4.6482
    -4.5761  -4.5585  -4.5250  -4.5122  -4.4579  -4.4364  -4.4240  -4.3837
    -4.3548  -4.2742  -4.2351  -4.2262  -4.1957  -4.1404  -4.0970  -3.9283
    -3.5951  -3.5184   1.9491   2.4165   2.5606   3.6007   4.1211   4.4433
     4.6938   4.9376   5.6679   5.7518   5.9852   6.4580   6.5811   6.9560
     7.2050   7.4189   7.7016   7.9930

     occupation numbers 
     1.0000   1.0000   1.0000   1.0000   1.0000   1.0000   1.0000   1.0000
     1.0000   1.0000   1.0000   1.0000   1.0000   1.0000   1.0000   1.0000
     1.0000   1.0000   1.0000   1.0000   1.0000   1.0000   1.0000   1.0000
     1.0000   1.0000   1.0000   1.0000   1.0000   1.0000   1.0000   1.0000
     1.0000   1.0000   1.0000   1.0000   1.0000   1.0000   1.0000   1.0000
     1.0000   1.0000   1.0000   1.0000

          k =-0.5186 0.3005 0.2987 (  8533 PWs)   bands (ev):

   -10.1032  -9.6109  -9.5409  -9.1348  -9.0862  -8.8653  -4.6625  -4.6443
    -4.5783  -4.5609  -4.5172  -4.5064  -4.4562  -4.4393  -4.4226  -4.3863
    -4.3539  -4.2798  -4.2305  -4.2222  -4.1999  -4.1408  -4.1249  -3.9722
    -3.5851  -3.4946   2.1495   2.5025   2.6791   3.6590   3.9225   4.3753
     4.6931   4.8911   5.6250   5.7811   5.9562   6.2033   6.5579   7.0473
     7.2533   7.3182   7.6073   7.9981

     occupation numbers 
     1.0000   1.0000   1.0000   1.0000   1.0000   1.0000   1.0000   1.0000
     1.0000   1.0000   1.0000   1.0000   1.0000   1.0000   1.0000   1.0000
     1.0000   1.0000   1.0000   1.0000   1.0000   1.0000   1.0000   1.0000
     1.0000   1.0000   1.0000   1.0000   1.0000   1.0000   1.0000   1.0000
     1.0000   1.0000   1.0000   1.0000   1.0000   1.0000   1.0000   1.0000
     1.0000   1.0000   1.0000   1.0000

          k =-0.5186 0.3005 0.3917 (  8536 PWs)   bands (ev):

   -10.0515  -9.6675  -9.5338  -9.1405  -9.0884  -8.8675  -4.6574  -4.6424
    -4.5808  -4.5627  -4.5123  -4.5026  -4.4539  -4.4393  -4.4229  -4.3944
    -4.3475  -4.2893  -4.2298  -4.2182  -4.1993  -4.1576  -4.1333  -3.9825
    -3.5939  -3.4731   2.3478   2.4496   2.9395   3.6278   3.8005   4.2713
     4.6731   4.8625   5.4831   5.7619   5.9380   6.1366   6.6057   7.0390
     7.2380   7.3650   7.5384   8.0078

     occupation numbers 
     1.0000   1.0000   1.0000   1.0000   1.0000   1.0000   1.0000   1.0000
     1.0000   1.0000   1.0000   1.0000   1.0000   1.0000   1.0000   1.0000
     1.0000   1.0000   1.0000   1.0000   1.0000   1.0000   1.0000   1.0000
     1.0000   1.0000   1.0000   1.0000   1.0000   1.0000   1.0000   1.0000
     1.0000   1.0000   1.0000   1.0000   1.0000   1.0000   1.0000   1.0000
     1.0000   1.0000   1.0000   1.0000

          k =-0.5186 0.3005-0.6319 (  8543 PWs)   bands (ev):

   -10.0010  -9.7312  -9.5391  -9.1264  -9.0856  -8.8690  -4.6527  -4.6437
    -4.5831  -4.5623  -4.5114  -4.5016  -4.4525  -4.4398  -4.4228  -4.4067
    -4.3368  -4.2972  -4.2352  -4.2088  -4.1942  -4.1703  -4.1479  -3.9538
    -3.6113  -3.4642   2.3154   2.5469   3.1902   3.4203   3.8362   4.1886
     4.6807   4.8014   5.3612   5.7128   5.8320   6.3249   6.6984   6.9107
     7.2576   7.4797   7.4918   8.0184

     occupation numbers 
     1.0000   1.0000   1.0000   1.0000   1.0000   1.0000   1.0000   1.0000
     1.0000   1.0000   1.0000   1.0000   1.0000   1.0000   1.0000   1.0000
     1.0000   1.0000   1.0000   1.0000   1.0000   1.0000   1.0000   1.0000
     1.0000   1.0000   1.0000   1.0000   1.0000   1.0000   1.0000   1.0000
     1.0000   1.0000   1.0000   1.0000   1.0000   1.0000   1.0000   1.0000
     1.0000   1.0000   1.0000   1.0000

          k =-0.5186 0.3005-0.5389 (  8550 PWs)   bands (ev):

    -9.9736  -9.7791  -9.5485  -9.0962  -9.0848  -8.8677  -4.6507  -4.6473
    -4.5836  -4.5598  -4.5141  -4.5043  -4.4515  -4.4467  -4.4196  -4.4177
    -4.3272  -4.2967  -4.2431  -4.2036  -4.1835  -4.1731  -4.1567  -3.9034
    -3.6355  -3.4679   2.1408   2.6816   3.1646   3.4019   3.8847   4.1598
     4.7222   4.7526   5.2670   5.5890   5.9593   6.4384   6.7812   6.8658
     7.2986   7.4541   7.5774   8.0271

     occupation numbers 
     1.0000   1.0000   1.0000   1.0000   1.0000   1.0000   1.0000   1.0000
     1.0000   1.0000   1.0000   1.0000   1.0000   1.0000   1.0000   1.0000
     1.0000   1.0000   1.0000   1.0000   1.0000   1.0000   1.0000   1.0000
     1.0000   1.0000   1.0000   1.0000   1.0000   1.0000   1.0000   1.0000
     1.0000   1.0000   1.0000   1.0000   1.0000   1.0000   1.0000   1.0000
     1.0000   1.0000   1.0000   1.0000

          k =-0.5186 0.3005-0.4458 (  8542 PWs)   bands (ev):

    -9.9959  -9.7861  -9.5486  -9.0950  -9.0522  -8.8646  -4.6546  -4.6492
    -4.5810  -4.5573  -4.5199  -4.5120  -4.4547  -4.4488  -4.4290  -4.4108
    -4.3236  -4.2886  -4.2514  -4.2099  -4.1857  -4.1598  -4.1341  -3.8485
    -3.6654  -3.4806   1.9412   2.7145   2.9429   3.5349   3.9535   4.1496
     4.6810   4.8850   5.1728   5.5621   6.1263   6.4444   6.7324   7.0754
     7.3480   7.4214   7.6437   8.0307

     occupation numbers 
     1.0000   1.0000   1.0000   1.0000   1.0000   1.0000   1.0000   1.0000
     1.0000   1.0000   1.0000   1.0000   1.0000   1.0000   1.0000   1.0000
     1.0000   1.0000   1.0000   1.0000   1.0000   1.0000   1.0000   1.0000
     1.0000   1.0000   1.0000   1.0000   1.0000   1.0000   1.0000   1.0000
     1.0000   1.0000   1.0000   1.0000   1.0000   1.0000   1.0000   1.0000
     1.0000   1.0000   1.0000   1.0000

          k =-0.5186 0.3005-0.3527 (  8542 PWs)   bands (ev):

   -10.0495  -9.7694  -9.5338  -9.1054  -9.0104  -8.8635  -4.6602  -4.6516
    -4.5760  -4.5571  -4.5268  -4.5227  -4.4575  -4.4461  -4.4339  -4.4038
    -4.3231  -4.2803  -4.2581  -4.2199  -4.1837  -4.1608  -4.0760  -3.8082
    -3.6953  -3.4973   1.7557   2.5745   2.8346   3.6113   4.0143   4.1887
     4.6858   5.0327   5.0762   5.6399   6.2324   6.3826   6.8102   7.2436
     7.4019   7.4110   7.6789   8.0295

     occupation numbers 
     1.0000   1.0000   1.0000   1.0000   1.0000   1.0000   1.0000   1.0000
     1.0000   1.0000   1.0000   1.0000   1.0000   1.0000   1.0000   1.0000
     1.0000   1.0000   1.0000   1.0000   1.0000   1.0000   1.0000   1.0000
     1.0000   1.0000   1.0000   1.0000   1.0000   1.0000   1.0000   1.0000
     1.0000   1.0000   1.0000   1.0000   1.0000   1.0000   1.0000   1.0000
     1.0000   1.0000   1.0000   1.0000

          k =-0.5186 0.3005-0.2597 (  8533 PWs)   bands (ev):

   -10.1044  -9.7498  -9.5099  -9.1167  -8.9710  -8.8696  -4.6650  -4.6544
    -4.5700  -4.5603  -4.5326  -4.5313  -4.4575  -4.4427  -4.4351  -4.3976
    -4.3247  -4.2746  -4.2613  -4.2286  -4.1811  -4.1614  -4.0055  -3.8079
    -3.7100  -3.5119   1.6160   2.3863   2.7693   3.6226   4.0555   4.3129
     4.7095   4.9890   5.1712   5.7719   6.2226   6.3254   6.9867   7.2660
     7.4110   7.4824   7.7068   8.0339

     occupation numbers 
     1.0000   1.0000   1.0000   1.0000   1.0000   1.0000   1.0000   1.0000
     1.0000   1.0000   1.0000   1.0000   1.0000   1.0000   1.0000   1.0000
     1.0000   1.0000   1.0000   1.0000   1.0000   1.0000   1.0000   1.0000
     1.0000   1.0000   1.0000   1.0000   1.0000   1.0000   1.0000   1.0000
     1.0000   1.0000   1.0000   1.0000   1.0000   1.0000   1.0000   1.0000
     1.0000   1.0000   1.0000   1.0000

          k =-0.5186 0.3005-0.1666 (  8541 PWs)   bands (ev):

   -10.1482  -9.7276  -9.4883  -9.1261  -8.9364  -8.8868  -4.6684  -4.6564
    -4.5668  -4.5634  -4.5384  -4.5324  -4.4567  -4.4391  -4.4338  -4.3928
    -4.3291  -4.2726  -4.2585  -4.2349  -4.1799  -4.1610  -3.9391  -3.8363
    -3.7179  -3.5198   1.5434   2.2429   2.7029   3.5885   4.1310   4.4316
     4.7336   4.9383   5.2942   5.8751   6.1714   6.2955   7.1428   7.2512
     7.3713   7.4743   7.7530   8.0564

     occupation numbers 
     1.0000   1.0000   1.0000   1.0000   1.0000   1.0000   1.0000   1.0000
     1.0000   1.0000   1.0000   1.0000   1.0000   1.0000   1.0000   1.0000
     1.0000   1.0000   1.0000   1.0000   1.0000   1.0000   1.0000   1.0000
     1.0000   1.0000   1.0000   1.0000   1.0000   1.0000   1.0000   1.0000
     1.0000   1.0000   1.0000   1.0000   1.0000   1.0000   1.0000   1.0000
     1.0000   1.0000   1.0000   1.0000

          k = 1.3829-0.1717 0.0420 (  8544 PWs)   bands (ev):

    -9.9121  -9.6013  -9.3908  -9.1440  -8.9111  -8.9059  -4.6234  -4.5847
    -4.5724  -4.5498  -4.5126  -4.4903  -4.4683  -4.4506  -4.4168  -4.3948
    -4.3393  -4.2446  -4.2243  -4.2121  -4.1769  -4.1620  -3.8450  -3.6548
    -3.6375  -3.5060   1.6861   1.9958   2.2137   3.1134   3.4579   4.4200
     4.5004   4.7910   5.0426   5.6057   5.9973   6.2380   6.9570   7.2663
     7.3914   7.5453   7.7415   8.0556

     occupation numbers 
     1.0000   1.0000   1.0000   1.0000   1.0000   1.0000   1.0000   1.0000
     1.0000   1.0000   1.0000   1.0000   1.0000   1.0000   1.0000   1.0000
     1.0000   1.0000   1.0000   1.0000   1.0000   1.0000   1.0000   1.0000
     1.0000   1.0000   1.0000   1.0000   1.0000   1.0000   1.0000   1.0000
     1.0000   1.0000   1.0000   1.0000   1.0000   1.0000   1.0000   1.0000
     1.0000   1.0000   1.0000   1.0000

          k = 1.3829-0.1717 0.1351 (  8539 PWs)   bands (ev):

    -9.9197  -9.5766  -9.3956  -9.1421  -8.9391  -8.8931  -4.6236  -4.5875
    -4.5709  -4.5402  -4.5127  -4.4847  -4.4670  -4.4536  -4.4164  -4.3880
    -4.3438  -4.2394  -4.2256  -4.2121  -4.1795  -4.1577  -3.8890  -3.7054
    -3.5970  -3.4837   1.7165   1.9970   2.1874   3.1333   3.5004   4.3770
     4.5407   4.8096   5.2528   5.5023   5.9316   6.2947   6.9175   7.1602
     7.2636   7.5025   7.7698   8.0345

     occupation numbers 
     1.0000   1.0000   1.0000   1.0000   1.0000   1.0000   1.0000   1.0000
     1.0000   1.0000   1.0000   1.0000   1.0000   1.0000   1.0000   1.0000
     1.0000   1.0000   1.0000   1.0000   1.0000   1.0000   1.0000   1.0000
     1.0000   1.0000   1.0000   1.0000   1.0000   1.0000   1.0000   1.0000
     1.0000   1.0000   1.0000   1.0000   1.0000   1.0000   1.0000   1.0000
     1.0000   1.0000   1.0000   1.0000

          k = 1.3829-0.1717 0.2282 (  8543 PWs)   bands (ev):

    -9.9122  -9.5481  -9.4113  -9.1362  -8.9749  -8.8872  -4.6227  -4.5886
    -4.5662  -4.5233  -4.5152  -4.4794  -4.4638  -4.4569  -4.4168  -4.3786
    -4.3467  -4.2327  -4.2283  -4.2105  -4.1831  -4.1507  -3.9485  -3.7671
    -3.5677  -3.4615   1.7913   2.0723   2.1950   3.1414   3.5782   4.2952
     4.5264   4.8266   5.3800   5.4595   5.9049   6.3783   6.8504   6.9982
     7.0797   7.4437   7.7582   7.9815

     occupation numbers 
     1.0000   1.0000   1.0000   1.0000   1.0000   1.0000   1.0000   1.0000
     1.0000   1.0000   1.0000   1.0000   1.0000   1.0000   1.0000   1.0000
     1.0000   1.0000   1.0000   1.0000   1.0000   1.0000   1.0000   1.0000
     1.0000   1.0000   1.0000   1.0000   1.0000   1.0000   1.0000   1.0000
     1.0000   1.0000   1.0000   1.0000   1.0000   1.0000   1.0000   1.0000
     1.0000   1.0000   1.0000   1.0000

          k = 1.3829-0.1717 0.3212 (  8554 PWs)   bands (ev):

    -9.8907  -9.5239  -9.4327  -9.1287  -9.0119  -8.8878  -4.6203  -4.5890
    -4.5583  -4.5181  -4.5048  -4.4811  -4.4592  -4.4540  -4.4171  -4.3681
    -4.3458  -4.2350  -4.2254  -4.2066  -4.1869  -4.1397  -4.0098  -3.8348
    -3.5536  -3.4416   1.8970   2.1770   2.2642   3.1365   3.6761   4.2028
     4.4492   4.8105   5.3063   5.5970   5.9167   6.4347   6.6783   6.8619
     7.0101   7.3603   7.6878   7.9327

     occupation numbers 
     1.0000   1.0000   1.0000   1.0000   1.0000   1.0000   1.0000   1.0000
     1.0000   1.0000   1.0000   1.0000   1.0000   1.0000   1.0000   1.0000
     1.0000   1.0000   1.0000   1.0000   1.0000   1.0000   1.0000   1.0000
     1.0000   1.0000   1.0000   1.0000   1.0000   1.0000   1.0000   1.0000
     1.0000   1.0000   1.0000   1.0000   1.0000   1.0000   1.0000   1.0000
     1.0000   1.0000   1.0000   1.0000

          k = 1.3829-0.1717 0.4143 (  8548 PWs)   bands (ev):

    -9.8574  -9.5248  -9.4424  -9.1249  -9.0393  -8.8926  -4.6164  -4.5893
    -4.5513  -4.5209  -4.4901  -4.4850  -4.4570  -4.4449  -4.4166  -4.3611
    -4.3358  -4.2486  -4.2188  -4.1998  -4.1900  -4.1269  -4.0619  -3.8960
    -3.5485  -3.4305   2.0195   2.2472   2.4204   3.1042   3.7774   4.1015
     4.3329   4.7816   5.2782   5.6140   5.9729   6.2778   6.6138   6.8514
     7.0382   7.2572   7.5970   7.8934

     occupation numbers 
     1.0000   1.0000   1.0000   1.0000   1.0000   1.0000   1.0000   1.0000
     1.0000   1.0000   1.0000   1.0000   1.0000   1.0000   1.0000   1.0000
     1.0000   1.0000   1.0000   1.0000   1.0000   1.0000   1.0000   1.0000
     1.0000   1.0000   1.0000   1.0000   1.0000   1.0000   1.0000   1.0000
     1.0000   1.0000   1.0000   1.0000   1.0000   1.0000   1.0000   1.0000
     1.0000   1.0000   1.0000   1.0000

          k = 1.3829-0.1717 0.5073 (  8543 PWs)   bands (ev):

    -9.8165  -9.5597  -9.4364  -9.1273  -9.0480  -8.8981  -4.6114  -4.5908
    -4.5475  -4.5230  -4.4874  -4.4805  -4.4540  -4.4412  -4.4160  -4.3591
    -4.3160  -4.2689  -4.2149  -4.1936  -4.1866  -4.1302  -4.0908  -3.9265
    -3.5492  -3.4311   2.1385   2.3119   2.5809   3.0316   3.8421   4.0080
     4.2204   4.7787   5.3066   5.4651   5.9898   6.1544   6.6538   6.8921
     7.0925   7.2017   7.5231   7.8607

     occupation numbers 
     1.0000   1.0000   1.0000   1.0000   1.0000   1.0000   1.0000   1.0000
     1.0000   1.0000   1.0000   1.0000   1.0000   1.0000   1.0000   1.0000
     1.0000   1.0000   1.0000   1.0000   1.0000   1.0000   1.0000   1.0000
     1.0000   1.0000   1.0000   1.0000   1.0000   1.0000   1.0000   1.0000
     1.0000   1.0000   1.0000   1.0000   1.0000   1.0000   1.0000   1.0000
     1.0000   1.0000   1.0000   1.0000

          k = 1.3829-0.1717-0.5163 (  8564 PWs)   bands (ev):

    -9.7748  -9.6075  -9.4348  -9.1269  -9.0436  -8.9003  -4.6058  -4.5947
    -4.5468  -4.5231  -4.4859  -4.4766  -4.4532  -4.4452  -4.4185  -4.3610
    -4.3064  -4.2776  -4.2150  -4.1946  -4.1678  -4.1494  -4.1060  -3.9037
    -3.5554  -3.4423   2.2172   2.3682   2.6959   2.9241   3.7947   3.9726
     4.1734   4.8098   5.2437   5.3741   5.9207   6.2092   6.7653   6.8192
     7.1760   7.2704   7.4663   7.8437

     occupation numbers 
     1.0000   1.0000   1.0000   1.0000   1.0000   1.0000   1.0000   1.0000
     1.0000   1.0000   1.0000   1.0000   1.0000   1.0000   1.0000   1.0000
     1.0000   1.0000   1.0000   1.0000   1.0000   1.0000   1.0000   1.0000
     1.0000   1.0000   1.0000   1.0000   1.0000   1.0000   1.0000   1.0000
     1.0000   1.0000   1.0000   1.0000   1.0000   1.0000   1.0000   1.0000
     1.0000   1.0000   1.0000   1.0000

          k = 1.3829-0.1717-0.4233 (  8567 PWs)   bands (ev):

    -9.7479  -9.6493  -9.4390  -9.1217  -9.0321  -8.8970  -4.6018  -4.5997
    -4.5468  -4.5223  -4.4852  -4.4743  -4.4617  -4.4524  -4.4224  -4.3693
    -4.3204  -4.2609  -4.2184  -4.1958  -4.1639  -4.1552  -4.0959  -3.8423
    -3.5682  -3.4616   2.1982   2.4106   2.7226   2.8387   3.7012   3.9550
     4.2069   4.8407   5.0644   5.4150   6.0168   6.2356   6.6612   6.9853
     7.2464   7.3780   7.4287   7.8506

     occupation numbers 
     1.0000   1.0000   1.0000   1.0000   1.0000   1.0000   1.0000   1.0000
     1.0000   1.0000   1.0000   1.0000   1.0000   1.0000   1.0000   1.0000
     1.0000   1.0000   1.0000   1.0000   1.0000   1.0000   1.0000   1.0000
     1.0000   1.0000   1.0000   1.0000   1.0000   1.0000   1.0000   1.0000
     1.0000   1.0000   1.0000   1.0000   1.0000   1.0000   1.0000   1.0000
     1.0000   1.0000   1.0000   1.0000

          k = 1.3829-0.1717-0.3302 (  8553 PWs)   bands (ev):

    -9.7652  -9.6568  -9.4389  -9.1206  -9.0115  -8.8901  -4.6081  -4.5959
    -4.5461  -4.5243  -4.4937  -4.4783  -4.4666  -4.4595  -4.4232  -4.3825
    -4.3272  -4.2509  -4.2216  -4.1983  -4.1722  -4.1599  -4.0410  -3.7663
    -3.5876  -3.4863   2.0825   2.4102   2.5989   2.8736   3.6365   3.9457
     4.2985   4.8276   4.9219   5.5192   6.1404   6.2630   6.6087   7.1509
     7.2944   7.4102   7.5009   7.8784

     occupation numbers 
     1.0000   1.0000   1.0000   1.0000   1.0000   1.0000   1.0000   1.0000
     1.0000   1.0000   1.0000   1.0000   1.0000   1.0000   1.0000   1.0000
     1.0000   1.0000   1.0000   1.0000   1.0000   1.0000   1.0000   1.0000
     1.0000   1.0000   1.0000   1.0000   1.0000   1.0000   1.0000   1.0000
     1.0000   1.0000   1.0000   1.0000   1.0000   1.0000   1.0000   1.0000
     1.0000   1.0000   1.0000   1.0000

          k = 1.3829-0.1717-0.2372 (  8543 PWs)   bands (ev):

    -9.8101  -9.6449  -9.4287  -9.1264  -8.9834  -8.8840  -4.6144  -4.5917
    -4.5480  -4.5305  -4.5109  -4.4844  -4.4673  -4.4582  -4.4219  -4.3932
    -4.3293  -4.2489  -4.2226  -4.2026  -4.1752  -4.1638  -3.9680  -3.6935
    -3.6108  -3.5138   1.9320   2.3354   2.4536   2.9395   3.5800   4.0007
     4.4364   4.7488   4.8485   5.6552   6.1315   6.2662   6.7515   7.1835
     7.3464   7.5020   7.5846   7.9186

     occupation numbers 
     1.0000   1.0000   1.0000   1.0000   1.0000   1.0000   1.0000   1.0000
     1.0000   1.0000   1.0000   1.0000   1.0000   1.0000   1.0000   1.0000
     1.0000   1.0000   1.0000   1.0000   1.0000   1.0000   1.0000   1.0000
     1.0000   1.0000   1.0000   1.0000   1.0000   1.0000   1.0000   1.0000
     1.0000   1.0000   1.0000   1.0000   1.0000   1.0000   1.0000   1.0000
     1.0000   1.0000   1.0000   1.0000

          k = 1.3829-0.1717-0.1441 (  8545 PWs)   bands (ev):

    -9.8546  -9.6333  -9.4120  -9.1346  -8.9537  -8.8835  -4.6191  -4.5867
    -4.5604  -4.5364  -4.5200  -4.4886  -4.4687  -4.4532  -4.4200  -4.3984
    -4.3312  -4.2492  -4.2228  -4.2071  -4.1754  -4.1651  -3.8942  -3.6568
    -3.6176  -3.5370   1.7986   2.1972   2.3473   3.0102   3.5145   4.1323
     4.6009   4.6653   4.8123   5.7252   6.1240   6.2001   6.9455   7.1825
     7.3870   7.5697   7.6684   7.9697

     occupation numbers 
     1.0000   1.0000   1.0000   1.0000   1.0000   1.0000   1.0000   1.0000
     1.0000   1.0000   1.0000   1.0000   1.0000   1.0000   1.0000   1.0000
     1.0000   1.0000   1.0000   1.0000   1.0000   1.0000   1.0000   1.0000
     1.0000   1.0000   1.0000   1.0000   1.0000   1.0000   1.0000   1.0000
     1.0000   1.0000   1.0000   1.0000   1.0000   1.0000   1.0000   1.0000
     1.0000   1.0000   1.0000   1.0000

          k = 1.3829-0.1717-0.0510 (  8542 PWs)   bands (ev):

    -9.8898  -9.6199  -9.3973  -9.1412  -8.9272  -8.8917  -4.6221  -4.5816
    -4.5727  -4.5462  -4.5167  -4.4911  -4.4689  -4.4503  -4.4181  -4.3985
    -4.3347  -4.2480  -4.2234  -4.2104  -4.1756  -4.1644  -3.8429  -3.6616
    -3.6192  -3.5309   1.7126   2.0688   2.2686   3.0722   3.4649   4.2958
     4.5585   4.7922   4.8267   5.6920   6.0811   6.1942   6.9892   7.2608
     7.4057   7.5783   7.7148   8.0265

     occupation numbers 
     1.0000   1.0000   1.0000   1.0000   1.0000   1.0000   1.0000   1.0000
     1.0000   1.0000   1.0000   1.0000   1.0000   1.0000   1.0000   1.0000
     1.0000   1.0000   1.0000   1.0000   1.0000   1.0000   1.0000   1.0000
     1.0000   1.0000   1.0000   1.0000   1.0000   1.0000   1.0000   1.0000
     1.0000   1.0000   1.0000   1.0000   1.0000   1.0000   1.0000   1.0000
     1.0000   1.0000   1.0000   1.0000

          k = 1.2100-0.1288 0.0315 (  8546 PWs)   bands (ev):

    -9.7066  -9.4878  -9.3155  -9.2082  -8.9065  -8.9026  -4.5874  -4.5800
    -4.5505  -4.5318  -4.5155  -4.4830  -4.4634  -4.4164  -4.4084  -4.3558
    -4.3298  -4.2278  -4.1973  -4.1902  -4.1709  -4.1501  -3.7897  -3.7335
    -3.4854  -3.4016   1.5642   1.8055   2.0199   2.5377   3.3246   4.2018
     4.4941   4.7668   4.8119   5.3476   6.0191   6.3090   6.7380   7.2231
     7.4425   7.5083   7.7781   8.0262

     occupation numbers 
     1.0000   1.0000   1.0000   1.0000   1.0000   1.0000   1.0000   1.0000
     1.0000   1.0000   1.0000   1.0000   1.0000   1.0000   1.0000   1.0000
     1.0000   1.0000   1.0000   1.0000   1.0000   1.0000   1.0000   1.0000
     1.0000   1.0000   1.0000   1.0000   1.0000   1.0000   1.0000   1.0000
     1.0000   1.0000   1.0000   1.0000   1.0000   1.0000   1.0000   1.0000
     1.0000   1.0000   1.0000   1.0000

          k = 1.2100-0.1288 0.1246 (  8555 PWs)   bands (ev):

    -9.7084  -9.4764  -9.3199  -9.2053  -8.9160  -8.9015  -4.5864  -4.5787
    -4.5544  -4.5256  -4.5168  -4.4710  -4.4645  -4.4169  -4.4102  -4.3564
    -4.3277  -4.2245  -4.2000  -4.1885  -4.1714  -4.1479  -3.8142  -3.7460
    -3.4777  -3.4041   1.5540   1.8246   2.0363   2.5705   3.3331   4.1235
     4.5518   4.7417   5.0020   5.2668   6.0300   6.3154   6.7110   7.1154
     7.3719   7.5002   7.7753   7.9948

     occupation numbers 
     1.0000   1.0000   1.0000   1.0000   1.0000   1.0000   1.0000   1.0000
     1.0000   1.0000   1.0000   1.0000   1.0000   1.0000   1.0000   1.0000
     1.0000   1.0000   1.0000   1.0000   1.0000   1.0000   1.0000   1.0000
     1.0000   1.0000   1.0000   1.0000   1.0000   1.0000   1.0000   1.0000
     1.0000   1.0000   1.0000   1.0000   1.0000   1.0000   1.0000   1.0000
     1.0000   1.0000   1.0000   1.0000

          k = 1.2100-0.1288 0.2176 (  8542 PWs)   bands (ev):

    -9.6996  -9.4635  -9.3291  -9.1988  -8.9338  -8.9041  -4.5879  -4.5693
    -4.5528  -4.5254  -4.5112  -4.4756  -4.4464  -4.4178  -4.4135  -4.3555
    -4.3218  -4.2197  -4.2044  -4.1863  -4.1710  -4.1442  -3.8489  -3.7700
    -3.4876  -3.4139   1.5857   1.8978   2.0903   2.5972   3.3763   4.0141
     4.5742   4.7020   5.1115   5.2762   6.0975   6.3141   6.7025   6.9424
     7.2334   7.4421   7.7481   7.9104

     occupation numbers 
     1.0000   1.0000   1.0000   1.0000   1.0000   1.0000   1.0000   1.0000
     1.0000   1.0000   1.0000   1.0000   1.0000   1.0000   1.0000   1.0000
     1.0000   1.0000   1.0000   1.0000   1.0000   1.0000   1.0000   1.0000
     1.0000   1.0000   1.0000   1.0000   1.0000   1.0000   1.0000   1.0000
     1.0000   1.0000   1.0000   1.0000   1.0000   1.0000   1.0000   1.0000
     1.0000   1.0000   1.0000   1.0000

          k = 1.2100-0.1288 0.3107 (  8546 PWs)   bands (ev):

    -9.6810  -9.4562  -9.3378  -9.1906  -8.9534  -8.9121  -4.5861  -4.5663
    -4.5406  -4.5284  -4.5049  -4.4782  -4.4250  -4.4200  -4.4169  -4.3549
    -4.3106  -4.2152  -4.2110  -4.1837  -4.1691  -4.1383  -3.8909  -3.8024
    -3.5070  -3.4286   1.6510   2.0076   2.1724   2.6044   3.4505   3.9008
     4.5134   4.7317   5.0560   5.4028   6.1668   6.3131   6.6813   6.7927
     7.0782   7.3574   7.6916   7.8029

     occupation numbers 
     1.0000   1.0000   1.0000   1.0000   1.0000   1.0000   1.0000   1.0000
     1.0000   1.0000   1.0000   1.0000   1.0000   1.0000   1.0000   1.0000
     1.0000   1.0000   1.0000   1.0000   1.0000   1.0000   1.0000   1.0000
     1.0000   1.0000   1.0000   1.0000   1.0000   1.0000   1.0000   1.0000
     1.0000   1.0000   1.0000   1.0000   1.0000   1.0000   1.0000   1.0000
     1.0000   1.0000   1.0000   1.0000

          k = 1.2100-0.1288 0.4038 (  8543 PWs)   bands (ev):

    -9.6542  -9.4643  -9.3380  -9.1835  -8.9703  -8.9230  -4.5823  -4.5650
    -4.5323  -4.5293  -4.5023  -4.4710  -4.4241  -4.4197  -4.4070  -4.3545
    -4.2940  -4.2260  -4.2064  -4.1819  -4.1646  -4.1308  -3.9316  -3.8385
    -3.5237  -3.4479   1.7407   2.1206   2.2678   2.5818   3.5447   3.7919
     4.4321   4.8147   4.9615   5.4951   6.1248   6.2598   6.6496   6.8234
     6.9828   7.2556   7.6101   7.7061

     occupation numbers 
     1.0000   1.0000   1.0000   1.0000   1.0000   1.0000   1.0000   1.0000
     1.0000   1.0000   1.0000   1.0000   1.0000   1.0000   1.0000   1.0000
     1.0000   1.0000   1.0000   1.0000   1.0000   1.0000   1.0000   1.0000
     1.0000   1.0000   1.0000   1.0000   1.0000   1.0000   1.0000   1.0000
     1.0000   1.0000   1.0000   1.0000   1.0000   1.0000   1.0000   1.0000
     1.0000   1.0000   1.0000   1.0000

          k = 1.2100-0.1288 0.4968 (  8551 PWs)   bands (ev):

    -9.6219  -9.4895  -9.3312  -9.1795  -8.9807  -8.9323  -4.5779  -4.5641
    -4.5340  -4.5294  -4.4950  -4.4608  -4.4301  -4.4226  -4.3970  -4.3526
    -4.2743  -4.2431  -4.2010  -4.1815  -4.1576  -4.1260  -3.9600  -3.8632
    -3.5340  -3.4682   1.8441   2.2000   2.3478   2.5330   3.6318   3.7123
     4.3416   4.8368   4.9848   5.4995   5.9776   6.1739   6.7605   6.8740
     6.9870   7.1634   7.5265   7.6364

     occupation numbers 
     1.0000   1.0000   1.0000   1.0000   1.0000   1.0000   1.0000   1.0000
     1.0000   1.0000   1.0000   1.0000   1.0000   1.0000   1.0000   1.0000
     1.0000   1.0000   1.0000   1.0000   1.0000   1.0000   1.0000   1.0000
     1.0000   1.0000   1.0000   1.0000   1.0000   1.0000   1.0000   1.0000
     1.0000   1.0000   1.0000   1.0000   1.0000   1.0000   1.0000   1.0000
     1.0000   1.0000   1.0000   1.0000

          k = 1.2100-0.1288-0.5268 (  8554 PWs)   bands (ev):

    -9.5883  -9.5240  -9.3266  -9.1783  -8.9840  -8.9348  -4.5744  -4.5642
    -4.5401  -4.5259  -4.4880  -4.4546  -4.4393  -4.4254  -4.3962  -4.3489
    -4.2663  -4.2533  -4.1996  -4.1819  -4.1509  -4.1295  -3.9657  -3.8582
    -3.5429  -3.4821   1.9459   2.2119   2.3737   2.4867   3.6150   3.7549
     4.2415   4.7578   5.1478   5.4145   5.9149   6.1228   6.7927   6.9455
     7.0515   7.1643   7.4580   7.6072

     occupation numbers 
     1.0000   1.0000   1.0000   1.0000   1.0000   1.0000   1.0000   1.0000
     1.0000   1.0000   1.0000   1.0000   1.0000   1.0000   1.0000   1.0000
     1.0000   1.0000   1.0000   1.0000   1.0000   1.0000   1.0000   1.0000
     1.0000   1.0000   1.0000   1.0000   1.0000   1.0000   1.0000   1.0000
     1.0000   1.0000   1.0000   1.0000   1.0000   1.0000   1.0000   1.0000
     1.0000   1.0000   1.0000   1.0000

          k = 1.2100-0.1288-0.4338 (  8550 PWs)   bands (ev):

    -9.5742  -9.5450  -9.3280  -9.1793  -8.9806  -8.9286  -4.5744  -4.5647
    -4.5433  -4.5210  -4.4855  -4.4607  -4.4488  -4.4255  -4.4015  -4.3451
    -4.2862  -4.2402  -4.2028  -4.1822  -4.1490  -4.1396  -3.9407  -3.8255
    -3.5539  -3.4835   2.0215   2.1344   2.3442   2.4635   3.5756   3.8186
     4.1642   4.6985   5.1506   5.4289   6.0198   6.0972   6.6890   7.0350
     7.1374   7.2475   7.4475   7.6194

     occupation numbers 
     1.0000   1.0000   1.0000   1.0000   1.0000   1.0000   1.0000   1.0000
     1.0000   1.0000   1.0000   1.0000   1.0000   1.0000   1.0000   1.0000
     1.0000   1.0000   1.0000   1.0000   1.0000   1.0000   1.0000   1.0000
     1.0000   1.0000   1.0000   1.0000   1.0000   1.0000   1.0000   1.0000
     1.0000   1.0000   1.0000   1.0000   1.0000   1.0000   1.0000   1.0000
     1.0000   1.0000   1.0000   1.0000

          k = 1.2100-0.1288-0.3407 (  8566 PWs)   bands (ev):

    -9.6080  -9.5248  -9.3309  -9.1841  -8.9694  -8.9172  -4.5791  -4.5633
    -4.5427  -4.5166  -4.4929  -4.4749  -4.4572  -4.4222  -4.4075  -4.3431
    -4.3042  -4.2319  -4.2056  -4.1834  -4.1530  -4.1481  -3.8909  -3.7862
    -3.5590  -3.4743   2.0001   2.0433   2.2753   2.4571   3.5329   3.8638
     4.1574   4.6843   4.9893   5.5540   6.0877   6.1992   6.6199   7.0456
     7.2257   7.3234   7.5514   7.6606

     occupation numbers 
     1.0000   1.0000   1.0000   1.0000   1.0000   1.0000   1.0000   1.0000
     1.0000   1.0000   1.0000   1.0000   1.0000   1.0000   1.0000   1.0000
     1.0000   1.0000   1.0000   1.0000   1.0000   1.0000   1.0000   1.0000
     1.0000   1.0000   1.0000   1.0000   1.0000   1.0000   1.0000   1.0000
     1.0000   1.0000   1.0000   1.0000   1.0000   1.0000   1.0000   1.0000
     1.0000   1.0000   1.0000   1.0000

          k = 1.2100-0.1288-0.2477 (  8559 PWs)   bands (ev):

    -9.6431  -9.5094  -9.3295  -9.1921  -8.9521  -8.9058  -4.5851  -4.5609
    -4.5399  -4.5237  -4.5029  -4.4871  -4.4620  -4.4183  -4.4107  -4.3439
    -4.3173  -4.2298  -4.2033  -4.1858  -4.1611  -4.1505  -3.8324  -3.7612
    -3.5495  -3.4570   1.8545   1.9974   2.1867   2.4660   3.4699   3.9348
     4.2335   4.7055   4.8257   5.6021   6.1329   6.2365   6.6873   7.0745
     7.2917   7.3768   7.6797   7.7456

     occupation numbers 
     1.0000   1.0000   1.0000   1.0000   1.0000   1.0000   1.0000   1.0000
     1.0000   1.0000   1.0000   1.0000   1.0000   1.0000   1.0000   1.0000
     1.0000   1.0000   1.0000   1.0000   1.0000   1.0000   1.0000   1.0000
     1.0000   1.0000   1.0000   1.0000   1.0000   1.0000   1.0000   1.0000
     1.0000   1.0000   1.0000   1.0000   1.0000   1.0000   1.0000   1.0000
     1.0000   1.0000   1.0000   1.0000

          k = 1.2100-0.1288-0.1546 (  8546 PWs)   bands (ev):

    -9.6727  -9.5014  -9.3234  -9.2007  -8.9333  -8.8984  -4.5898  -4.5572
    -4.5497  -4.5289  -4.5118  -4.4915  -4.4630  -4.4163  -4.4105  -4.3476
    -4.3253  -4.2302  -4.1987  -4.1889  -4.1666  -4.1513  -3.7846  -3.7527
    -3.5289  -3.4336   1.7215   1.9161   2.1032   2.4838   3.4012   4.0526
     4.3624   4.6770   4.7502   5.5526   6.1524   6.2175   6.7612   7.1845
     7.3497   7.4205   7.7339   7.8864

     occupation numbers 
     1.0000   1.0000   1.0000   1.0000   1.0000   1.0000   1.0000   1.0000
     1.0000   1.0000   1.0000   1.0000   1.0000   1.0000   1.0000   1.0000
     1.0000   1.0000   1.0000   1.0000   1.0000   1.0000   1.0000   1.0000
     1.0000   1.0000   1.0000   1.0000   1.0000   1.0000   1.0000   1.0000
     1.0000   1.0000   1.0000   1.0000   1.0000   1.0000   1.0000   1.0000
     1.0000   1.0000   1.0000   1.0000

          k = 1.2100-0.1288-0.0615 (  8546 PWs)   bands (ev):

    -9.6944  -9.4957  -9.3173  -9.2066  -8.9170  -8.8971  -4.5910  -4.5677
    -4.5521  -4.5285  -4.5179  -4.4898  -4.4627  -4.4162  -4.4088  -4.3524
    -4.3290  -4.2298  -4.1961  -4.1910  -4.1695  -4.1512  -3.7753  -3.7386
    -3.5055  -3.4120   1.6210   1.8414   2.0438   2.5076   3.3491   4.1723
     4.4722   4.6389   4.7750   5.4538   6.0680   6.2788   6.7645   7.2560
     7.4256   7.4620   7.7640   7.9891

     occupation numbers 
     1.0000   1.0000   1.0000   1.0000   1.0000   1.0000   1.0000   1.0000
     1.0000   1.0000   1.0000   1.0000   1.0000   1.0000   1.0000   1.0000
     1.0000   1.0000   1.0000   1.0000   1.0000   1.0000   1.0000   1.0000
     1.0000   1.0000   1.0000   1.0000   1.0000   1.0000   1.0000   1.0000
     1.0000   1.0000   1.0000   1.0000   1.0000   1.0000   1.0000   1.0000
     1.0000   1.0000   1.0000   1.0000

          k = 1.0372-0.0859 0.0210 (  8553 PWs)   bands (ev):

    -9.6586  -9.3939  -9.2982  -9.2396  -8.9087  -8.8991  -4.5843  -4.5775
    -4.5487  -4.5249  -4.5201  -4.4781  -4.4489  -4.4086  -4.3842  -4.3650
    -4.2720  -4.2029  -4.2020  -4.1784  -4.1626  -4.1407  -3.8739  -3.7199
    -3.4045  -3.3746   1.4247   1.5934   1.8253   2.6434   3.2684   4.1482
     4.5828   4.6822   4.8574   5.3214   5.9403   6.4761   6.6308   7.1030
     7.3919   7.4975   7.7024   8.0027

     occupation numbers 
     1.0000   1.0000   1.0000   1.0000   1.0000   1.0000   1.0000   1.0000
     1.0000   1.0000   1.0000   1.0000   1.0000   1.0000   1.0000   1.0000
     1.0000   1.0000   1.0000   1.0000   1.0000   1.0000   1.0000   1.0000
     1.0000   1.0000   1.0000   1.0000   1.0000   1.0000   1.0000   1.0000
     1.0000   1.0000   1.0000   1.0000   1.0000   1.0000   1.0000   1.0000
     1.0000   1.0000   1.0000   1.0000

          k = 1.0372-0.0859 0.1141 (  8550 PWs)   bands (ev):

    -9.6538  -9.3970  -9.2931  -9.2407  -8.9119  -8.9019  -4.5861  -4.5689
    -4.5497  -4.5264  -4.5215  -4.4779  -4.4419  -4.4095  -4.3887  -4.3619
    -4.2720  -4.2021  -4.2006  -4.1808  -4.1616  -4.1397  -3.8717  -3.7240
    -3.4144  -3.3895   1.4183   1.6500   1.8605   2.6224   3.3081   4.0417
     4.4956   4.7748   4.9114   5.3273   5.9755   6.4755   6.6419   6.9703
     7.4389   7.4814   7.6722   7.9713

     occupation numbers 
     1.0000   1.0000   1.0000   1.0000   1.0000   1.0000   1.0000   1.0000
     1.0000   1.0000   1.0000   1.0000   1.0000   1.0000   1.0000   1.0000
     1.0000   1.0000   1.0000   1.0000   1.0000   1.0000   1.0000   1.0000
     1.0000   1.0000   1.0000   1.0000   1.0000   1.0000   1.0000   1.0000
     1.0000   1.0000   1.0000   1.0000   1.0000   1.0000   1.0000   1.0000
     1.0000   1.0000   1.0000   1.0000

          k = 1.0372-0.0859 0.2071 (  8548 PWs)   bands (ev):

    -9.6398  -9.4053  -9.2823  -9.2408  -8.9212  -8.9098  -4.5847  -4.5545
    -4.5497  -4.5308  -4.5186  -4.4813  -4.4311  -4.4086  -4.3942  -4.3578
    -4.2704  -4.2003  -4.1973  -4.1869  -4.1589  -4.1380  -3.8663  -3.7344
    -3.4458  -3.4262   1.4518   1.7560   1.9406   2.5916   3.3854   3.8921
     4.3634   4.8434   4.9824   5.3684   6.0594   6.4442   6.6656   6.8098
     7.3418   7.4909   7.6156   7.8870

     occupation numbers 
     1.0000   1.0000   1.0000   1.0000   1.0000   1.0000   1.0000   1.0000
     1.0000   1.0000   1.0000   1.0000   1.0000   1.0000   1.0000   1.0000
     1.0000   1.0000   1.0000   1.0000   1.0000   1.0000   1.0000   1.0000
     1.0000   1.0000   1.0000   1.0000   1.0000   1.0000   1.0000   1.0000
     1.0000   1.0000   1.0000   1.0000   1.0000   1.0000   1.0000   1.0000
     1.0000   1.0000   1.0000   1.0000

          k = 1.0372-0.0859 0.3002 (  8543 PWs)   bands (ev):

    -9.6177  -9.4207  -9.2679  -9.2381  -8.9349  -8.9211  -4.5800  -4.5559
    -4.5378  -4.5253  -4.5188  -4.4808  -4.4266  -4.4011  -4.3991  -4.3555
    -4.2666  -4.1985  -4.1971  -4.1911  -4.1546  -4.1363  -3.8576  -3.7500
    -3.4928  -3.4724   1.5183   1.8923   2.0504   2.5390   3.4785   3.7527
     4.2618   4.8868   5.0301   5.3994   6.1244   6.3637   6.6864   6.7023
     7.2389   7.4510   7.5497   7.7709

     occupation numbers 
     1.0000   1.0000   1.0000   1.0000   1.0000   1.0000   1.0000   1.0000
     1.0000   1.0000   1.0000   1.0000   1.0000   1.0000   1.0000   1.0000
     1.0000   1.0000   1.0000   1.0000   1.0000   1.0000   1.0000   1.0000
     1.0000   1.0000   1.0000   1.0000   1.0000   1.0000   1.0000   1.0000
     1.0000   1.0000   1.0000   1.0000   1.0000   1.0000   1.0000   1.0000
     1.0000   1.0000   1.0000   1.0000

          k = 1.0372-0.0859 0.3933 (  8540 PWs)   bands (ev):

    -9.5894  -9.4438  -9.2528  -9.2325  -8.9499  -8.9331  -4.5733  -4.5592
    -4.5369  -4.5263  -4.5009  -4.4736  -4.4287  -4.4072  -4.3868  -4.3559
    -4.2597  -4.2115  -4.1927  -4.1865  -4.1493  -4.1355  -3.8461  -3.7695
    -3.5437  -3.5151   1.6070   2.0232   2.1685   2.4627   3.5375   3.6506
     4.2655   4.9244   5.0291   5.3822   6.0854   6.2311   6.6916   6.7706
     7.1733   7.3712   7.4817   7.6580

     occupation numbers 
     1.0000   1.0000   1.0000   1.0000   1.0000   1.0000   1.0000   1.0000
     1.0000   1.0000   1.0000   1.0000   1.0000   1.0000   1.0000   1.0000
     1.0000   1.0000   1.0000   1.0000   1.0000   1.0000   1.0000   1.0000
     1.0000   1.0000   1.0000   1.0000   1.0000   1.0000   1.0000   1.0000
     1.0000   1.0000   1.0000   1.0000   1.0000   1.0000   1.0000   1.0000
     1.0000   1.0000   1.0000   1.0000

          k = 1.0372-0.0859 0.4863 (  8537 PWs)   bands (ev):

    -9.5586  -9.4716  -9.2413  -9.2263  -8.9619  -8.9426  -4.5663  -4.5626
    -4.5372  -4.5308  -4.4824  -4.4637  -4.4326  -4.4138  -4.3770  -4.3574
    -4.2500  -4.2268  -4.1889  -4.1820  -4.1442  -4.1360  -3.8321  -3.7909
    -3.5809  -3.5462   1.6994   2.0947   2.2730   2.3838   3.5283   3.6240
     4.3593   4.9246   5.0042   5.3386   6.0048   6.0983   6.7717   6.8699
     7.1297   7.2686   7.4271   7.5854

     occupation numbers 
     1.0000   1.0000   1.0000   1.0000   1.0000   1.0000   1.0000   1.0000
     1.0000   1.0000   1.0000   1.0000   1.0000   1.0000   1.0000   1.0000
     1.0000   1.0000   1.0000   1.0000   1.0000   1.0000   1.0000   1.0000
     1.0000   1.0000   1.0000   1.0000   1.0000   1.0000   1.0000   1.0000
     1.0000   1.0000   1.0000   1.0000   1.0000   1.0000   1.0000   1.0000
     1.0000   1.0000   1.0000   1.0000

          k = 1.0372-0.0859-0.5374 (  8539 PWs)   bands (ev):

    -9.5397  -9.4896  -9.2380  -9.2227  -8.9666  -8.9461  -4.5665  -4.5597
    -4.5402  -4.5311  -4.4728  -4.4612  -4.4349  -4.4169  -4.3756  -4.3550
    -4.2438  -4.2361  -4.1881  -4.1792  -4.1417  -4.1367  -3.8174  -3.8097
    -3.5909  -3.5603   1.7660   2.0569   2.3314   2.3605   3.5135   3.6531
     4.4240   4.7418   5.1565   5.3156   5.9621   6.0203   6.8263   6.9381
     7.0895   7.2087   7.4068   7.5690

     occupation numbers 
     1.0000   1.0000   1.0000   1.0000   1.0000   1.0000   1.0000   1.0000
     1.0000   1.0000   1.0000   1.0000   1.0000   1.0000   1.0000   1.0000
     1.0000   1.0000   1.0000   1.0000   1.0000   1.0000   1.0000   1.0000
     1.0000   1.0000   1.0000   1.0000   1.0000   1.0000   1.0000   1.0000
     1.0000   1.0000   1.0000   1.0000   1.0000   1.0000   1.0000   1.0000
     1.0000   1.0000   1.0000   1.0000

          k = 1.0372-0.0859-0.4443 (  8549 PWs)   bands (ev):

    -9.5591  -9.4707  -9.2446  -9.2235  -8.9621  -8.9425  -4.5705  -4.5544
    -4.5430  -4.5289  -4.4769  -4.4682  -4.4360  -4.4126  -4.3817  -4.3499
    -4.2548  -4.2241  -4.1910  -4.1799  -4.1435  -4.1361  -3.8325  -3.7925
    -3.5705  -3.5548   1.7778   1.9437   2.2696   2.4506   3.5192   3.6980
     4.4119   4.5804   5.2394   5.4053   5.9885   6.0246   6.8067   6.8602
     7.1236   7.2618   7.4194   7.6061

     occupation numbers 
     1.0000   1.0000   1.0000   1.0000   1.0000   1.0000   1.0000   1.0000
     1.0000   1.0000   1.0000   1.0000   1.0000   1.0000   1.0000   1.0000
     1.0000   1.0000   1.0000   1.0000   1.0000   1.0000   1.0000   1.0000
     1.0000   1.0000   1.0000   1.0000   1.0000   1.0000   1.0000   1.0000
     1.0000   1.0000   1.0000   1.0000   1.0000   1.0000   1.0000   1.0000
     1.0000   1.0000   1.0000   1.0000

          k = 1.0372-0.0859-0.3512 (  8561 PWs)   bands (ev):

    -9.5899  -9.4424  -9.2582  -9.2280  -8.9502  -8.9329  -4.5753  -4.5521
    -4.5429  -4.5258  -4.4962  -4.4738  -4.4371  -4.4060  -4.3897  -4.3479
    -4.2623  -4.2113  -4.1953  -4.1844  -4.1471  -4.1368  -3.8481  -3.7691
    -3.5312  -3.5261   1.7392   1.8079   2.1646   2.5492   3.4871   3.7624
     4.3816   4.5343   5.1527   5.5417   6.0520   6.1460   6.7526   6.7697
     7.1756   7.3376   7.4765   7.6841

     occupation numbers 
     1.0000   1.0000   1.0000   1.0000   1.0000   1.0000   1.0000   1.0000
     1.0000   1.0000   1.0000   1.0000   1.0000   1.0000   1.0000   1.0000
     1.0000   1.0000   1.0000   1.0000   1.0000   1.0000   1.0000   1.0000
     1.0000   1.0000   1.0000   1.0000   1.0000   1.0000   1.0000   1.0000
     1.0000   1.0000   1.0000   1.0000   1.0000   1.0000   1.0000   1.0000
     1.0000   1.0000   1.0000   1.0000

          k = 1.0372-0.0859-0.2582 (  8551 PWs)   bands (ev):

    -9.6181  -9.4187  -9.2742  -9.2333  -8.9353  -8.9208  -4.5805  -4.5524
    -4.5396  -4.5324  -4.5060  -4.4826  -4.4394  -4.4051  -4.3913  -4.3505
    -4.2663  -4.2025  -4.1956  -4.1907  -4.1519  -4.1383  -3.8600  -3.7475
    -3.4926  -3.4725   1.6741   1.6798   2.0350   2.6286   3.3990   3.8671
     4.4181   4.5563   5.0394   5.5386   6.0977   6.2829   6.6974   6.8315
     7.2221   7.3699   7.5707   7.7886

     occupation numbers 
     1.0000   1.0000   1.0000   1.0000   1.0000   1.0000   1.0000   1.0000
     1.0000   1.0000   1.0000   1.0000   1.0000   1.0000   1.0000   1.0000
     1.0000   1.0000   1.0000   1.0000   1.0000   1.0000   1.0000   1.0000
     1.0000   1.0000   1.0000   1.0000   1.0000   1.0000   1.0000   1.0000
     1.0000   1.0000   1.0000   1.0000   1.0000   1.0000   1.0000   1.0000
     1.0000   1.0000   1.0000   1.0000

          k = 1.0372-0.0859-0.1651 (  8550 PWs)   bands (ev):

    -9.6401  -9.4030  -9.2881  -9.2370  -8.9216  -8.9095  -4.5847  -4.5560
    -4.5482  -4.5339  -4.5050  -4.4881  -4.4443  -4.4073  -4.3868  -4.3564
    -4.2689  -4.2029  -4.1965  -4.1870  -4.1572  -4.1398  -3.8681  -3.7315
    -3.4509  -3.4217   1.5589   1.6230   1.9180   2.6643   3.3137   4.0066
     4.4982   4.5941   4.9348   5.4598   6.0457   6.3764   6.6718   7.0285
     7.2366   7.4135   7.6484   7.8958

     occupation numbers 
     1.0000   1.0000   1.0000   1.0000   1.0000   1.0000   1.0000   1.0000
     1.0000   1.0000   1.0000   1.0000   1.0000   1.0000   1.0000   1.0000
     1.0000   1.0000   1.0000   1.0000   1.0000   1.0000   1.0000   1.0000
     1.0000   1.0000   1.0000   1.0000   1.0000   1.0000   1.0000   1.0000
     1.0000   1.0000   1.0000   1.0000   1.0000   1.0000   1.0000   1.0000
     1.0000   1.0000   1.0000   1.0000

          k = 1.0372-0.0859-0.0720 (  8546 PWs)   bands (ev):

    -9.6540  -9.3954  -9.2965  -9.2386  -8.9121  -8.9017  -4.5858  -4.5701
    -4.5495  -4.5282  -4.5124  -4.4832  -4.4488  -4.4081  -4.3833  -4.3629
    -4.2709  -4.2034  -4.2005  -4.1804  -4.1613  -4.1407  -3.8727  -3.7223
    -3.4181  -3.3862   1.4728   1.5884   1.8439   2.6613   3.2693   4.1319
     4.5814   4.6121   4.8684   5.3710   5.9711   6.4402   6.6463   7.1933
     7.2399   7.4752   7.6941   7.9748

     occupation numbers 
     1.0000   1.0000   1.0000   1.0000   1.0000   1.0000   1.0000   1.0000
     1.0000   1.0000   1.0000   1.0000   1.0000   1.0000   1.0000   1.0000
     1.0000   1.0000   1.0000   1.0000   1.0000   1.0000   1.0000   1.0000
     1.0000   1.0000   1.0000   1.0000   1.0000   1.0000   1.0000   1.0000
     1.0000   1.0000   1.0000   1.0000   1.0000   1.0000   1.0000   1.0000
     1.0000   1.0000   1.0000   1.0000

          k = 0.8643-0.0429 0.0105 (  8551 PWs)   bands (ev):

    -9.7981  -9.3795  -9.3545  -9.1709  -8.9111  -8.9039  -4.5981  -4.5831
    -4.5470  -4.5305  -4.5137  -4.4704  -4.4336  -4.4274  -4.3902  -4.3657
    -4.3047  -4.2193  -4.1935  -4.1817  -4.1755  -4.1068  -3.8898  -3.7613
    -3.4551  -3.4165   1.4194   1.5560   1.8451   3.1038   3.2137   4.2997
     4.5270   4.9207   5.0056   5.5334   5.7523   6.5392   6.7234   7.0265
     7.1640   7.5048   7.5905   8.0215

     occupation numbers 
     1.0000   1.0000   1.0000   1.0000   1.0000   1.0000   1.0000   1.0000
     1.0000   1.0000   1.0000   1.0000   1.0000   1.0000   1.0000   1.0000
     1.0000   1.0000   1.0000   1.0000   1.0000   1.0000   1.0000   1.0000
     1.0000   1.0000   1.0000   1.0000   1.0000   1.0000   1.0000   1.0000
     1.0000   1.0000   1.0000   1.0000   1.0000   1.0000   1.0000   1.0000
     1.0000   1.0000   1.0000   1.0000

          k = 0.8643-0.0429 0.1036 (  8555 PWs)   bands (ev):

    -9.7904  -9.3906  -9.3478  -9.1695  -8.9209  -8.8997  -4.5990  -4.5761
    -4.5488  -4.5281  -4.5152  -4.4736  -4.4342  -4.4238  -4.3949  -4.3606
    -4.3036  -4.2191  -4.1939  -4.1840  -4.1736  -4.1087  -3.8823  -3.7601
    -3.4781  -3.4223   1.4406   1.5868   1.8888   3.1345   3.1924   4.2021
     4.4618   4.8895   5.1027   5.5277   5.8070   6.4990   6.7637   6.8972
     7.2909   7.4515   7.5838   7.9937

     occupation numbers 
     1.0000   1.0000   1.0000   1.0000   1.0000   1.0000   1.0000   1.0000
     1.0000   1.0000   1.0000   1.0000   1.0000   1.0000   1.0000   1.0000
     1.0000   1.0000   1.0000   1.0000   1.0000   1.0000   1.0000   1.0000
     1.0000   1.0000   1.0000   1.0000   1.0000   1.0000   1.0000   1.0000
     1.0000   1.0000   1.0000   1.0000   1.0000   1.0000   1.0000   1.0000
     1.0000   1.0000   1.0000   1.0000

          k = 0.8643-0.0429 0.1966 (  8549 PWs)   bands (ev):

    -9.7708  -9.4105  -9.3375  -9.1648  -8.9376  -8.8999  -4.5981  -4.5615
    -4.5515  -4.5224  -4.5182  -4.4803  -4.4343  -4.4160  -4.4010  -4.3539
    -4.2997  -4.2185  -4.1945  -4.1874  -4.1707  -4.1115  -3.8709  -3.7642
    -3.5217  -3.4465   1.5010   1.6558   2.0036   3.0832   3.2774   4.0403
     4.3110   4.9282   5.1861   5.5066   5.9013   6.4307   6.7632   6.8144
     7.3350   7.3705   7.5746   7.9201

     occupation numbers 
     1.0000   1.0000   1.0000   1.0000   1.0000   1.0000   1.0000   1.0000
     1.0000   1.0000   1.0000   1.0000   1.0000   1.0000   1.0000   1.0000
     1.0000   1.0000   1.0000   1.0000   1.0000   1.0000   1.0000   1.0000
     1.0000   1.0000   1.0000   1.0000   1.0000   1.0000   1.0000   1.0000
     1.0000   1.0000   1.0000   1.0000   1.0000   1.0000   1.0000   1.0000
     1.0000   1.0000   1.0000   1.0000

          k = 0.8643-0.0429 0.2897 (  8542 PWs)   bands (ev):

    -9.7411  -9.4394  -9.3234  -9.1581  -8.9564  -8.9056  -4.5944  -4.5570
    -4.5412  -4.5199  -4.5184  -4.4831  -4.4354  -4.4133  -4.4005  -4.3498
    -4.2926  -4.2169  -4.1976  -4.1902  -4.1666  -4.1154  -3.8559  -3.7755
    -3.5686  -3.4876   1.5912   1.7550   2.1640   2.9602   3.4473   3.8734
     4.1637   4.9937   5.2059   5.4533   5.9754   6.3092   6.7049   6.8392
     7.2718   7.3560   7.5649   7.8217

     occupation numbers 
     1.0000   1.0000   1.0000   1.0000   1.0000   1.0000   1.0000   1.0000
     1.0000   1.0000   1.0000   1.0000   1.0000   1.0000   1.0000   1.0000
     1.0000   1.0000   1.0000   1.0000   1.0000   1.0000   1.0000   1.0000
     1.0000   1.0000   1.0000   1.0000   1.0000   1.0000   1.0000   1.0000
     1.0000   1.0000   1.0000   1.0000   1.0000   1.0000   1.0000   1.0000
     1.0000   1.0000   1.0000   1.0000

          k = 0.8643-0.0429 0.3828 (  8541 PWs)   bands (ev):

    -9.7049  -9.4748  -9.3075  -9.1517  -8.9734  -8.9147  -4.5884  -4.5613
    -4.5322  -4.5211  -4.5072  -4.4787  -4.4380  -4.4205  -4.3905  -4.3502
    -4.2818  -4.2179  -4.2021  -4.1907  -4.1606  -4.1208  -3.8389  -3.7951
    -3.6034  -3.5361   1.6954   1.8666   2.3295   2.8106   3.5971   3.7827
     4.0845   5.0413   5.1082   5.4190   6.0132   6.1242   6.7236   6.8812
     7.2372   7.2956   7.5632   7.7275

     occupation numbers 
     1.0000   1.0000   1.0000   1.0000   1.0000   1.0000   1.0000   1.0000
     1.0000   1.0000   1.0000   1.0000   1.0000   1.0000   1.0000   1.0000
     1.0000   1.0000   1.0000   1.0000   1.0000   1.0000   1.0000   1.0000
     1.0000   1.0000   1.0000   1.0000   1.0000   1.0000   1.0000   1.0000
     1.0000   1.0000   1.0000   1.0000   1.0000   1.0000   1.0000   1.0000
     1.0000   1.0000   1.0000   1.0000

          k = 0.8643-0.0429 0.4758 (  8527 PWs)   bands (ev):

    -9.6701  -9.5089  -9.2939  -9.1480  -8.9844  -8.9236  -4.5811  -4.5677
    -4.5304  -4.5237  -4.4904  -4.4711  -4.4413  -4.4281  -4.3807  -4.3543
    -4.2678  -4.2286  -4.1997  -4.1916  -4.1524  -4.1276  -3.8303  -3.8124
    -3.6190  -3.5768   1.7873   1.9558   2.4627   2.6645   3.6006   3.8076
     4.1799   4.8262   5.1456   5.4245   5.9328   6.0367   6.7832   6.9368
     7.1538   7.2641   7.5630   7.6641

     occupation numbers 
     1.0000   1.0000   1.0000   1.0000   1.0000   1.0000   1.0000   1.0000
     1.0000   1.0000   1.0000   1.0000   1.0000   1.0000   1.0000   1.0000
     1.0000   1.0000   1.0000   1.0000   1.0000   1.0000   1.0000   1.0000
     1.0000   1.0000   1.0000   1.0000   1.0000   1.0000   1.0000   1.0000
     1.0000   1.0000   1.0000   1.0000   1.0000   1.0000   1.0000   1.0000
     1.0000   1.0000   1.0000   1.0000

          k = 0.8643-0.0429-0.5479 (  8538 PWs)   bands (ev):

    -9.6559  -9.5226  -9.2881  -9.1471  -8.9880  -8.9279  -4.5753  -4.5730
    -4.5298  -4.5251  -4.4841  -4.4671  -4.4419  -4.4312  -4.3750  -4.3574
    -4.2574  -4.2385  -4.1971  -4.1922  -4.1473  -4.1310  -3.8499  -3.8039
    -3.6278  -3.5838   1.8273   1.9747   2.5460   2.5740   3.6046   3.8182
     4.3041   4.6738   5.1670   5.4406   5.8389   6.0477   6.8149   6.9763
     7.0827   7.2390   7.5637   7.6481

     occupation numbers 
     1.0000   1.0000   1.0000   1.0000   1.0000   1.0000   1.0000   1.0000
     1.0000   1.0000   1.0000   1.0000   1.0000   1.0000   1.0000   1.0000
     1.0000   1.0000   1.0000   1.0000   1.0000   1.0000   1.0000   1.0000
     1.0000   1.0000   1.0000   1.0000   1.0000   1.0000   1.0000   1.0000
     1.0000   1.0000   1.0000   1.0000   1.0000   1.0000   1.0000   1.0000
     1.0000   1.0000   1.0000   1.0000

          k = 0.8643-0.0429-0.4548 (  8536 PWs)   bands (ev):

    -9.6766  -9.5011  -9.2935  -9.1479  -8.9847  -8.9249  -4.5828  -4.5652
    -4.5303  -4.5246  -4.4930  -4.4711  -4.4381  -4.4267  -4.3791  -4.3536
    -4.2675  -4.2291  -4.1995  -4.1901  -4.1540  -4.1227  -3.8685  -3.7961
    -3.6260  -3.5563   1.7910   1.9093   2.4445   2.7017   3.6162   3.8711
     4.1422   4.8372   5.1662   5.4385   5.8840   6.0704   6.7506   6.9674
     7.1081   7.2230   7.5672   7.6786

     occupation numbers 
     1.0000   1.0000   1.0000   1.0000   1.0000   1.0000   1.0000   1.0000
     1.0000   1.0000   1.0000   1.0000   1.0000   1.0000   1.0000   1.0000
     1.0000   1.0000   1.0000   1.0000   1.0000   1.0000   1.0000   1.0000
     1.0000   1.0000   1.0000   1.0000   1.0000   1.0000   1.0000   1.0000
     1.0000   1.0000   1.0000   1.0000   1.0000   1.0000   1.0000   1.0000
     1.0000   1.0000   1.0000   1.0000

          k = 0.8643-0.0429-0.3617 (  8531 PWs)   bands (ev):

    -9.7127  -9.4642  -9.3078  -9.1512  -8.9740  -8.9167  -4.5894  -4.5594
    -4.5319  -4.5236  -4.5079  -4.4786  -4.4340  -4.4186  -4.3880  -4.3498
    -4.2809  -4.2205  -4.1993  -4.1895  -4.1621  -4.1136  -3.8816  -3.7899
    -3.6006  -3.5150   1.7014   1.8016   2.3091   2.8568   3.5609   3.9444
     4.0630   4.9270   5.2268   5.4520   5.9434   6.1762   6.6675   6.9033
     7.1544   7.2526   7.5772   7.7440

     occupation numbers 
     1.0000   1.0000   1.0000   1.0000   1.0000   1.0000   1.0000   1.0000
     1.0000   1.0000   1.0000   1.0000   1.0000   1.0000   1.0000   1.0000
     1.0000   1.0000   1.0000   1.0000   1.0000   1.0000   1.0000   1.0000
     1.0000   1.0000   1.0000   1.0000   1.0000   1.0000   1.0000   1.0000
     1.0000   1.0000   1.0000   1.0000   1.0000   1.0000   1.0000   1.0000
     1.0000   1.0000   1.0000   1.0000

          k = 0.8643-0.0429-0.2687 (  8545 PWs)   bands (ev):

    -9.7479  -9.4281  -9.3255  -9.1572  -8.9572  -8.9078  -4.5947  -4.5571
    -4.5423  -4.5234  -4.5131  -4.4839  -4.4317  -4.4128  -4.3959  -4.3511
    -4.2914  -4.2194  -4.1935  -4.1902  -4.1678  -4.1081  -3.8897  -3.7826
    -3.5572  -3.4724   1.5960   1.6960   2.1437   3.0095   3.3986   4.0526
     4.1615   4.9226   5.2156   5.5273   5.9343   6.3431   6.6642   6.8244
     7.1974   7.2882   7.5967   7.8332

     occupation numbers 
     1.0000   1.0000   1.0000   1.0000   1.0000   1.0000   1.0000   1.0000
     1.0000   1.0000   1.0000   1.0000   1.0000   1.0000   1.0000   1.0000
     1.0000   1.0000   1.0000   1.0000   1.0000   1.0000   1.0000   1.0000
     1.0000   1.0000   1.0000   1.0000   1.0000   1.0000   1.0000   1.0000
     1.0000   1.0000   1.0000   1.0000   1.0000   1.0000   1.0000   1.0000
     1.0000   1.0000   1.0000   1.0000

          k = 0.8643-0.0429-0.1756 (  8547 PWs)   bands (ev):

    -9.7757  -9.3992  -9.3420  -9.1639  -8.9380  -8.9019  -4.5979  -4.5643
    -4.5509  -4.5224  -4.5147  -4.4817  -4.4312  -4.4168  -4.3949  -4.3572
    -4.2989  -4.2197  -4.1923  -4.1865  -4.1718  -4.1059  -3.8935  -3.7741
    -3.5081  -3.4387   1.5028   1.6145   1.9882   3.1290   3.2393   4.1841
     4.3159   4.9162   5.1381   5.5555   5.8635   6.4733   6.7470   6.8022
     7.2004   7.3501   7.6160   7.9263

     occupation numbers 
     1.0000   1.0000   1.0000   1.0000   1.0000   1.0000   1.0000   1.0000
     1.0000   1.0000   1.0000   1.0000   1.0000   1.0000   1.0000   1.0000
     1.0000   1.0000   1.0000   1.0000   1.0000   1.0000   1.0000   1.0000
     1.0000   1.0000   1.0000   1.0000   1.0000   1.0000   1.0000   1.0000
     1.0000   1.0000   1.0000   1.0000   1.0000   1.0000   1.0000   1.0000
     1.0000   1.0000   1.0000   1.0000

          k = 0.8643-0.0429-0.0826 (  8552 PWs)   bands (ev):

    -9.7930  -9.3813  -9.3535  -9.1689  -8.9207  -8.9012  -4.5985  -4.5777
    -4.5492  -4.5262  -4.5145  -4.4745  -4.4321  -4.4242  -4.3905  -4.3641
    -4.3032  -4.2195  -4.1930  -4.1825  -4.1748  -4.1058  -3.8935  -3.7664
    -3.4681  -3.4207   1.4408   1.5660   1.8808   3.1359   3.1977   4.2865
     4.4595   4.9347   5.0313   5.5444   5.7786   6.5389   6.7135   6.9877
     7.1339   7.4475   7.6157   7.9962

     occupation numbers 
     1.0000   1.0000   1.0000   1.0000   1.0000   1.0000   1.0000   1.0000
     1.0000   1.0000   1.0000   1.0000   1.0000   1.0000   1.0000   1.0000
     1.0000   1.0000   1.0000   1.0000   1.0000   1.0000   1.0000   1.0000
     1.0000   1.0000   1.0000   1.0000   1.0000   1.0000   1.0000   1.0000
     1.0000   1.0000   1.0000   1.0000   1.0000   1.0000   1.0000   1.0000
     1.0000   1.0000   1.0000   1.0000

          k = 0.6914 0.0000-0.0000 (  8512 PWs)   bands (ev):

   -10.0426  -9.4230  -9.4000  -9.1561  -8.9163  -8.9110  -4.6288  -4.5798
    -4.5709  -4.5443  -4.5122  -4.4872  -4.4674  -4.4480  -4.3745  -4.3681
    -4.3387  -4.2335  -4.2175  -4.2008  -4.1858  -4.0543  -3.9005  -3.8503
    -3.6097  -3.5096   1.4548   1.8140   2.1080   3.0826   3.8913   4.5099
     4.7487   5.0291   5.2083   5.8023   5.8160   6.4854   6.6671   7.0351
     7.0724   7.5132   7.5139   8.0731

     occupation numbers 
     1.0000   1.0000   1.0000   1.0000   1.0000   1.0000   1.0000   1.0000
     1.0000   1.0000   1.0000   1.0000   1.0000   1.0000   1.0000   1.0000
     1.0000   1.0000   1.0000   1.0000   1.0000   1.0000   1.0000   1.0000
     1.0000   1.0000   1.0000   1.0000   1.0000   1.0000   1.0000   1.0000
     1.0000   1.0000   1.0000   1.0000   1.0000   1.0000   1.0000   1.0000
     1.0000   1.0000   1.0000   1.0000

          k = 0.6914 0.0000 0.0931 (  8521 PWs)   bands (ev):

   -10.0340  -9.4350  -9.3949  -9.1528  -8.9357  -8.8982  -4.6280  -4.5778
    -4.5722  -4.5404  -4.5108  -4.4883  -4.4669  -4.4497  -4.3822  -4.3595
    -4.3379  -4.2336  -4.2183  -4.2004  -4.1854  -4.0572  -3.8988  -3.8554
    -3.6226  -3.5077   1.4806   1.8305   2.1544   3.1121   3.8653   4.4099
     4.7306   5.0248   5.2759   5.7586   5.8370   6.4566   6.6975   6.9430
     7.1573   7.4165   7.5888   8.0409

     occupation numbers 
     1.0000   1.0000   1.0000   1.0000   1.0000   1.0000   1.0000   1.0000
     1.0000   1.0000   1.0000   1.0000   1.0000   1.0000   1.0000   1.0000
     1.0000   1.0000   1.0000   1.0000   1.0000   1.0000   1.0000   1.0000
     1.0000   1.0000   1.0000   1.0000   1.0000   1.0000   1.0000   1.0000
     1.0000   1.0000   1.0000   1.0000   1.0000   1.0000   1.0000   1.0000
     1.0000   1.0000   1.0000   1.0000

          k = 0.6914 0.0000 0.1861 (  8533 PWs)   bands (ev):

   -10.0091  -9.4646  -9.3857  -9.1436  -8.9612  -8.8911  -4.6258  -4.5796
    -4.5659  -4.5344  -4.5049  -4.4909  -4.4654  -4.4538  -4.3906  -4.3501
    -4.3350  -4.2350  -4.2191  -4.1996  -4.1843  -4.0665  -3.8958  -3.8681
    -3.6489  -3.5104   1.5557   1.8774   2.2865   3.1918   3.7965   4.2007
     4.6555   5.0466   5.3832   5.6304   5.8941   6.3765   6.7598   6.8583
     7.2127   7.3415   7.6387   7.9560

     occupation numbers 
     1.0000   1.0000   1.0000   1.0000   1.0000   1.0000   1.0000   1.0000
     1.0000   1.0000   1.0000   1.0000   1.0000   1.0000   1.0000   1.0000
     1.0000   1.0000   1.0000   1.0000   1.0000   1.0000   1.0000   1.0000
     1.0000   1.0000   1.0000   1.0000   1.0000   1.0000   1.0000   1.0000
     1.0000   1.0000   1.0000   1.0000   1.0000   1.0000   1.0000   1.0000
     1.0000   1.0000   1.0000   1.0000

          k = 0.6914 0.0000 0.2792 (  8527 PWs)   bands (ev):

    -9.9703  -9.5077  -9.3750  -9.1307  -8.9863  -8.8919  -4.6219  -4.5836
    -4.5539  -4.5318  -4.4945  -4.4929  -4.4642  -4.4572  -4.3970  -4.3452
    -4.3286  -4.2393  -4.2172  -4.1992  -4.1823  -4.0839  -3.8996  -3.8782
    -3.6700  -3.5253   1.6718   1.9462   2.4832   3.2776   3.7327   3.9809
     4.5370   5.1019   5.2969   5.5954   5.9491   6.2381   6.7970   6.8472
     7.1861   7.3448   7.6727   7.8503

     occupation numbers 
     1.0000   1.0000   1.0000   1.0000   1.0000   1.0000   1.0000   1.0000
     1.0000   1.0000   1.0000   1.0000   1.0000   1.0000   1.0000   1.0000
     1.0000   1.0000   1.0000   1.0000   1.0000   1.0000   1.0000   1.0000
     1.0000   1.0000   1.0000   1.0000   1.0000   1.0000   1.0000   1.0000
     1.0000   1.0000   1.0000   1.0000   1.0000   1.0000   1.0000   1.0000
     1.0000   1.0000   1.0000   1.0000

          k = 0.6914 0.0000 0.3722 (  8527 PWs)   bands (ev):

    -9.9224  -9.5594  -9.3640  -9.1184  -9.0058  -8.8985  -4.6163  -4.5883
    -4.5423  -4.5317  -4.4937  -4.4835  -4.4658  -4.4544  -4.4011  -4.3447
    -4.3194  -4.2475  -4.2123  -4.1995  -4.1788  -4.1088  -3.9083  -3.8836
    -3.6755  -3.5512   1.8121   2.0197   2.7060   3.2624   3.7557   3.8502
     4.3912   4.9989   5.2012   5.6447   5.9798   6.0767   6.8134   6.8913
     7.1492   7.3452   7.6982   7.7680

     occupation numbers 
     1.0000   1.0000   1.0000   1.0000   1.0000   1.0000   1.0000   1.0000
     1.0000   1.0000   1.0000   1.0000   1.0000   1.0000   1.0000   1.0000
     1.0000   1.0000   1.0000   1.0000   1.0000   1.0000   1.0000   1.0000
     1.0000   1.0000   1.0000   1.0000   1.0000   1.0000   1.0000   1.0000
     1.0000   1.0000   1.0000   1.0000   1.0000   1.0000   1.0000   1.0000
     1.0000   1.0000   1.0000   1.0000

          k = 0.6914 0.0000 0.4653 (  8519 PWs)   bands (ev):

    -9.8760  -9.6086  -9.3554  -9.1113  -9.0155  -8.9066  -4.6093  -4.5943
    -4.5359  -4.5308  -4.4916  -4.4795  -4.4668  -4.4480  -4.4024  -4.3470
    -4.3077  -4.2594  -4.2066  -4.2006  -4.1720  -4.1355  -3.9099  -3.8925
    -3.6653  -3.5811   1.9484   2.0671   2.8959   3.1521   3.7409   3.9721
     4.2627   4.6890   5.2926   5.6228   5.9317   6.0318   6.8613   6.9238
     7.0917   7.3325   7.7159   7.7313

     occupation numbers 
     1.0000   1.0000   1.0000   1.0000   1.0000   1.0000   1.0000   1.0000
     1.0000   1.0000   1.0000   1.0000   1.0000   1.0000   1.0000   1.0000
     1.0000   1.0000   1.0000   1.0000   1.0000   1.0000   1.0000   1.0000
     1.0000   1.0000   1.0000   1.0000   1.0000   1.0000   1.0000   1.0000
     1.0000   1.0000   1.0000   1.0000   1.0000   1.0000   1.0000   1.0000
     1.0000   1.0000   1.0000   1.0000

          k = 0.6914 0.0000-0.5584 (  8526 PWs)   bands (ev):

    -9.8539  -9.6317  -9.3520  -9.1095  -9.0175  -8.9103  -4.6021  -4.6011
    -4.5348  -4.5294  -4.4899  -4.4798  -4.4664  -4.4450  -4.4023  -4.3485
    -4.2994  -4.2680  -4.2031  -4.2022  -4.1626  -4.1529  -3.9050  -3.9013
    -3.6547  -3.5983   2.0288   2.0620   3.0086   3.0505   3.7875   3.9742
     4.3698   4.4240   5.3525   5.5706   5.9083   6.0355   6.8961   6.9494
     7.0351   7.3290   7.7227   7.7231

     occupation numbers 
     1.0000   1.0000   1.0000   1.0000   1.0000   1.0000   1.0000   1.0000
     1.0000   1.0000   1.0000   1.0000   1.0000   1.0000   1.0000   1.0000
     1.0000   1.0000   1.0000   1.0000   1.0000   1.0000   1.0000   1.0000
     1.0000   1.0000   1.0000   1.0000   1.0000   1.0000   1.0000   1.0000
     1.0000   1.0000   1.0000   1.0000   1.0000   1.0000   1.0000   1.0000
     1.0000   1.0000   1.0000   1.0000

          k = 0.0000 0.2576-0.0631 (  8554 PWs)   bands (ev):

   -10.6065  -9.8836  -9.6441  -9.2084  -8.9174  -8.9013  -4.7255  -4.7184
    -4.7086  -4.6463  -4.5059  -4.4854  -4.4798  -4.4632  -4.4379  -4.3752
    -4.2989  -4.2882  -4.2680  -4.2576  -4.1948  -4.1909  -4.1398  -4.1115
    -4.0281  -3.4950   1.2385   2.1820   3.2808   4.3838   4.9668   5.2044
     5.4629   6.0888   6.0984   6.2889   6.7334   6.9555   7.1089   7.4459
     7.5574   7.5841   7.6289   8.0698

     occupation numbers 
     1.0000   1.0000   1.0000   1.0000   1.0000   1.0000   1.0000   1.0000
     1.0000   1.0000   1.0000   1.0000   1.0000   1.0000   1.0000   1.0000
     1.0000   1.0000   1.0000   1.0000   1.0000   1.0000   1.0000   1.0000
     1.0000   1.0000   1.0000   1.0000   1.0000   1.0000   1.0000   1.0000
     1.0000   1.0000   1.0000   1.0000   1.0000   1.0000   1.0000   1.0000
     1.0000   1.0000   1.0000   1.0000

          k = 0.0000 0.2576 0.0300 (  8528 PWs)   bands (ev):

   -10.6148  -9.8349  -9.6495  -9.2341  -8.9616  -8.8723  -4.7257  -4.7182
    -4.7099  -4.6460  -4.5170  -4.4991  -4.4810  -4.4612  -4.4319  -4.3953
    -4.3012  -4.2907  -4.2663  -4.2463  -4.1956  -4.1880  -4.1400  -4.1220
    -3.9605  -3.5358   1.3611   2.2307   3.2470   4.3829   4.7404   5.2485
     5.3643   6.0588   6.1704   6.2305   6.6640   7.0651   7.1599   7.4518
     7.5415   7.5926   7.7231   8.0695

     occupation numbers 
     1.0000   1.0000   1.0000   1.0000   1.0000   1.0000   1.0000   1.0000
     1.0000   1.0000   1.0000   1.0000   1.0000   1.0000   1.0000   1.0000
     1.0000   1.0000   1.0000   1.0000   1.0000   1.0000   1.0000   1.0000
     1.0000   1.0000   1.0000   1.0000   1.0000   1.0000   1.0000   1.0000
     1.0000   1.0000   1.0000   1.0000   1.0000   1.0000   1.0000   1.0000
     1.0000   1.0000   1.0000   1.0000

          k = 0.0000 0.2576 0.1231 (  8544 PWs)   bands (ev):

   -10.5993  -9.7833  -9.6776  -9.2684  -9.0046  -8.8485  -4.7218  -4.7181
    -4.7117  -4.6459  -4.5589  -4.5123  -4.4717  -4.4542  -4.4405  -4.3977
    -4.3088  -4.2983  -4.2667  -4.2390  -4.1961  -4.1898  -4.1399  -4.1249
    -3.8651  -3.5780   1.5581   2.3539   3.1602   4.4347   4.4645   5.2942
     5.3235   6.0399   6.0934   6.1493   6.5915   7.1078   7.1623   7.4675
     7.5405   7.6090   7.7349   8.0831

     occupation numbers 
     1.0000   1.0000   1.0000   1.0000   1.0000   1.0000   1.0000   1.0000
     1.0000   1.0000   1.0000   1.0000   1.0000   1.0000   1.0000   1.0000
     1.0000   1.0000   1.0000   1.0000   1.0000   1.0000   1.0000   1.0000
     1.0000   1.0000   1.0000   1.0000   1.0000   1.0000   1.0000   1.0000
     1.0000   1.0000   1.0000   1.0000   1.0000   1.0000   1.0000   1.0000
     1.0000   1.0000   1.0000   1.0000

          k = 0.0000 0.2576 0.2161 (  8536 PWs)   bands (ev):

   -10.5616  -9.7481  -9.7177  -9.3054  -9.0352  -8.8329  -4.7179  -4.7142
    -4.7139  -4.6459  -4.6000  -4.5350  -4.4587  -4.4487  -4.4429  -4.3961
    -4.3209  -4.3102  -4.2698  -4.2356  -4.1961  -4.1926  -4.1395  -4.1196
    -3.7661  -3.6167   1.8080   2.5579   3.0059   4.1473   4.5540   5.2678
     5.4249   5.8885   5.9953   6.0905   6.5270   7.0935   7.1222   7.4770
     7.5456   7.6339   7.6772   8.1091

     occupation numbers 
     1.0000   1.0000   1.0000   1.0000   1.0000   1.0000   1.0000   1.0000
     1.0000   1.0000   1.0000   1.0000   1.0000   1.0000   1.0000   1.0000
     1.0000   1.0000   1.0000   1.0000   1.0000   1.0000   1.0000   1.0000
     1.0000   1.0000   1.0000   1.0000   1.0000   1.0000   1.0000   1.0000
     1.0000   1.0000   1.0000   1.0000   1.0000   1.0000   1.0000   1.0000
     1.0000   1.0000   1.0000   1.0000

          k = 0.0000 0.2576 0.3092 (  8535 PWs)   bands (ev):

   -10.5057  -9.8078  -9.7037  -9.3257  -9.0517  -8.8250  -4.7175  -4.7160
    -4.7037  -4.6466  -4.6296  -4.5620  -4.4544  -4.4445  -4.4282  -4.3933
    -4.3355  -4.3250  -4.2750  -4.2355  -4.1958  -4.1924  -4.1390  -4.1112
    -3.7121  -3.6176   2.0862   2.7828   2.8481   3.8182   4.7203   5.2854
     5.5436   5.6251   5.8824   6.1096   6.4520   7.0432   7.0513   7.4555
     7.5510   7.6109   7.6611   8.1231

     occupation numbers 
     1.0000   1.0000   1.0000   1.0000   1.0000   1.0000   1.0000   1.0000
     1.0000   1.0000   1.0000   1.0000   1.0000   1.0000   1.0000   1.0000
     1.0000   1.0000   1.0000   1.0000   1.0000   1.0000   1.0000   1.0000
     1.0000   1.0000   1.0000   1.0000   1.0000   1.0000   1.0000   1.0000
     1.0000   1.0000   1.0000   1.0000   1.0000   1.0000   1.0000   1.0000
     1.0000   1.0000   1.0000   1.0000

          k = 0.0000 0.2576 0.4023 (  8520 PWs)   bands (ev):

   -10.4391  -9.8952  -9.7051  -9.3128  -9.0579  -8.8226  -4.7178  -4.7165
    -4.6915  -4.6570  -4.6346  -4.5873  -4.4587  -4.4335  -4.4124  -4.3877
    -4.3485  -4.3400  -4.2806  -4.2375  -4.1951  -4.1907  -4.1386  -4.1033
    -3.7424  -3.5512   2.3699   2.5126   3.2057   3.4961   4.9175   5.2843
     5.4140   5.6443   5.7799   6.1644   6.3559   6.9603   6.9954   7.3879
     7.5557   7.5689   7.6832   8.1170

     occupation numbers 
     1.0000   1.0000   1.0000   1.0000   1.0000   1.0000   1.0000   1.0000
     1.0000   1.0000   1.0000   1.0000   1.0000   1.0000   1.0000   1.0000
     1.0000   1.0000   1.0000   1.0000   1.0000   1.0000   1.0000   1.0000
     1.0000   1.0000   1.0000   1.0000   1.0000   1.0000   1.0000   1.0000
     1.0000   1.0000   1.0000   1.0000   1.0000   1.0000   1.0000   1.0000
     1.0000   1.0000   1.0000   1.0000

          k = 0.0000 0.2576-0.6214 (  8519 PWs)   bands (ev):

   -10.3770  -9.9822  -9.7235  -9.2736  -9.0579  -8.8227  -4.7192  -4.7151
    -4.6799  -4.6672  -4.6229  -4.6065  -4.4615  -4.4313  -4.4024  -4.3777
    -4.3534  -4.3489  -4.2861  -4.2406  -4.1944  -4.1898  -4.1382  -4.0970
    -3.7927  -3.4879   2.2107   2.6406   3.1646   3.6533   5.0030   5.2158
     5.4345   5.5779   5.8438   6.2446   6.2609   6.8599   6.9773   7.2957
     7.5323   7.5599   7.6957   8.0989

     occupation numbers 
     1.0000   1.0000   1.0000   1.0000   1.0000   1.0000   1.0000   1.0000
     1.0000   1.0000   1.0000   1.0000   1.0000   1.0000   1.0000   1.0000
     1.0000   1.0000   1.0000   1.0000   1.0000   1.0000   1.0000   1.0000
     1.0000   1.0000   1.0000   1.0000   1.0000   1.0000   1.0000   1.0000
     1.0000   1.0000   1.0000   1.0000   1.0000   1.0000   1.0000   1.0000
     1.0000   1.0000   1.0000   1.0000

          k = 0.0000 0.2576-0.5284 (  8526 PWs)   bands (ev):

   -10.3504 -10.0360  -9.7405  -9.2278  -9.0528  -8.8235  -4.7199  -4.7134
    -4.6840  -4.6579  -4.6172  -4.6011  -4.4623  -4.4398  -4.4079  -4.3634
    -4.3450  -4.3446  -4.2913  -4.2451  -4.1937  -4.1908  -4.1381  -4.0926
    -3.8495  -3.4438   1.9090   2.8196   2.9424   4.1126   4.8526   5.2911
     5.4593   5.5709   5.9560   6.2057   6.3399   6.7677   6.9829   7.2109
     7.4889   7.5637   7.6961   8.0803

     occupation numbers 
     1.0000   1.0000   1.0000   1.0000   1.0000   1.0000   1.0000   1.0000
     1.0000   1.0000   1.0000   1.0000   1.0000   1.0000   1.0000   1.0000
     1.0000   1.0000   1.0000   1.0000   1.0000   1.0000   1.0000   1.0000
     1.0000   1.0000   1.0000   1.0000   1.0000   1.0000   1.0000   1.0000
     1.0000   1.0000   1.0000   1.0000   1.0000   1.0000   1.0000   1.0000
     1.0000   1.0000   1.0000   1.0000

          k = 0.0000 0.2576-0.4353 (  8540 PWs)   bands (ev):

   -10.3853 -10.0318  -9.7424  -9.1925  -9.0394  -8.8253  -4.7201  -4.7115
    -4.6942  -4.6475  -4.6081  -4.5737  -4.4607  -4.4537  -4.4227  -4.3463
    -4.3334  -4.3286  -4.2963  -4.2509  -4.1935  -4.1932  -4.1381  -4.0899
    -3.9102  -3.4208   1.6338   2.6222   3.0767   4.5812   4.7205   5.2699
     5.3533   5.7868   6.0496   6.2038   6.4117   6.7246   6.9677   7.1877
     7.4498   7.5673   7.6834   8.0680

     occupation numbers 
     1.0000   1.0000   1.0000   1.0000   1.0000   1.0000   1.0000   1.0000
     1.0000   1.0000   1.0000   1.0000   1.0000   1.0000   1.0000   1.0000
     1.0000   1.0000   1.0000   1.0000   1.0000   1.0000   1.0000   1.0000
     1.0000   1.0000   1.0000   1.0000   1.0000   1.0000   1.0000   1.0000
     1.0000   1.0000   1.0000   1.0000   1.0000   1.0000   1.0000   1.0000
     1.0000   1.0000   1.0000   1.0000

          k = 0.0000 0.2576-0.3422 (  8539 PWs)   bands (ev):

   -10.4535  -9.9985  -9.7236  -9.1772  -9.0136  -8.8314  -4.7198  -4.7098
    -4.7047  -4.6461  -4.5783  -4.5423  -4.4674  -4.4574  -4.4383  -4.3310
    -4.3206  -4.3126  -4.2988  -4.2580  -4.1969  -4.1931  -4.1384  -4.0892
    -3.9708  -3.4176   1.4116   2.4279   3.1900   4.6125   5.0060   5.2597
     5.2703   5.8946   6.1136   6.3111   6.4047   6.7837   6.9121   7.2503
     7.4325   7.5707   7.6587   8.0629

     occupation numbers 
     1.0000   1.0000   1.0000   1.0000   1.0000   1.0000   1.0000   1.0000
     1.0000   1.0000   1.0000   1.0000   1.0000   1.0000   1.0000   1.0000
     1.0000   1.0000   1.0000   1.0000   1.0000   1.0000   1.0000   1.0000
     1.0000   1.0000   1.0000   1.0000   1.0000   1.0000   1.0000   1.0000
     1.0000   1.0000   1.0000   1.0000   1.0000   1.0000   1.0000   1.0000
     1.0000   1.0000   1.0000   1.0000

          k = 0.0000 0.2576-0.2492 (  8533 PWs)   bands (ev):

   -10.5215  -9.9627  -9.6909  -9.1787  -8.9786  -8.8465  -4.7193  -4.7142
    -4.7086  -4.6465  -4.5442  -4.5078  -4.4782  -4.4542  -4.4512  -4.3297
    -4.3095  -4.2996  -4.2905  -4.2652  -4.1987  -4.1934  -4.1388  -4.0920
    -4.0221  -3.4316   1.2637   2.2854   3.2522   4.5144   5.1556   5.2159
     5.4594   5.8494   6.1385   6.3614   6.5402   6.8501   6.8998   7.3588
     7.4386   7.5742   7.6253   8.0634

     occupation numbers 
     1.0000   1.0000   1.0000   1.0000   1.0000   1.0000   1.0000   1.0000
     1.0000   1.0000   1.0000   1.0000   1.0000   1.0000   1.0000   1.0000
     1.0000   1.0000   1.0000   1.0000   1.0000   1.0000   1.0000   1.0000
     1.0000   1.0000   1.0000   1.0000   1.0000   1.0000   1.0000   1.0000
     1.0000   1.0000   1.0000   1.0000   1.0000   1.0000   1.0000   1.0000
     1.0000   1.0000   1.0000   1.0000

          k = 0.0000 0.2576-0.1561 (  8557 PWs)   bands (ev):

   -10.5746  -9.9258  -9.6601  -9.1902  -8.9410  -8.8739  -4.7215  -4.7188
    -4.7081  -4.6465  -4.5189  -4.4844  -4.4768  -4.4598  -4.4520  -4.3469
    -4.3019  -4.2912  -4.2737  -4.2688  -4.1964  -4.1940  -4.1393  -4.1000
    -4.0476  -3.4589   1.2044   2.2018   3.2799   4.4324   5.1086   5.1934
     5.5614   5.9197   6.1230   6.3262   6.7681   6.7983   7.0168   7.4421
     7.4971   7.5768   7.5902   8.0674

     occupation numbers 
     1.0000   1.0000   1.0000   1.0000   1.0000   1.0000   1.0000   1.0000
     1.0000   1.0000   1.0000   1.0000   1.0000   1.0000   1.0000   1.0000
     1.0000   1.0000   1.0000   1.0000   1.0000   1.0000   1.0000   1.0000
     1.0000   1.0000   1.0000   1.0000   1.0000   1.0000   1.0000   1.0000
     1.0000   1.0000   1.0000   1.0000   1.0000   1.0000   1.0000   1.0000
     1.0000   1.0000   1.0000   1.0000

          k =-0.1729 0.3005-0.0736 (  8550 PWs)   bands (ev):

   -10.5186  -9.9193  -9.6203  -9.1749  -8.9196  -8.9020  -4.7399  -4.7108
    -4.6787  -4.6282  -4.5150  -4.4985  -4.4905  -4.4443  -4.4287  -4.3897
    -4.3250  -4.3123  -4.2696  -4.2258  -4.2062  -4.1476  -4.1428  -4.0641
    -3.9931  -3.4457   1.2810   2.1650   3.2536   4.3863   4.8426   5.0010
     5.3344   5.9264   6.0202   6.2925   6.5434   6.7767   7.1611   7.3442
     7.4420   7.5304   7.7299   8.0591

     occupation numbers 
     1.0000   1.0000   1.0000   1.0000   1.0000   1.0000   1.0000   1.0000
     1.0000   1.0000   1.0000   1.0000   1.0000   1.0000   1.0000   1.0000
     1.0000   1.0000   1.0000   1.0000   1.0000   1.0000   1.0000   1.0000
     1.0000   1.0000   1.0000   1.0000   1.0000   1.0000   1.0000   1.0000
     1.0000   1.0000   1.0000   1.0000   1.0000   1.0000   1.0000   1.0000
     1.0000   1.0000   1.0000   1.0000

          k =-0.1729 0.3005 0.0195 (  8534 PWs)   bands (ev):

   -10.5300  -9.8717  -9.6251  -9.1948  -8.9657  -8.8729  -4.7399  -4.7120
    -4.6787  -4.6278  -4.5234  -4.5083  -4.4829  -4.4505  -4.4282  -4.3998
    -4.3217  -4.3156  -4.2589  -4.2311  -4.2068  -4.1568  -4.1417  -4.0780
    -3.9278  -3.4796   1.4019   2.2035   3.2195   4.3994   4.6965   4.9502
     5.2542   5.9582   6.0895   6.3151   6.4323   6.7927   7.2276   7.3497
     7.4303   7.5352   7.7685   8.0642

     occupation numbers 
     1.0000   1.0000   1.0000   1.0000   1.0000   1.0000   1.0000   1.0000
     1.0000   1.0000   1.0000   1.0000   1.0000   1.0000   1.0000   1.0000
     1.0000   1.0000   1.0000   1.0000   1.0000   1.0000   1.0000   1.0000
     1.0000   1.0000   1.0000   1.0000   1.0000   1.0000   1.0000   1.0000
     1.0000   1.0000   1.0000   1.0000   1.0000   1.0000   1.0000   1.0000
     1.0000   1.0000   1.0000   1.0000

          k =-0.1729 0.3005 0.1126 (  8539 PWs)   bands (ev):

   -10.5185  -9.8187  -9.6507  -9.2256  -9.0111  -8.8492  -4.7374  -4.7133
    -4.6777  -4.6280  -4.5528  -4.5183  -4.4747  -4.4559  -4.4326  -4.3983
    -4.3239  -4.3203  -4.2501  -4.2397  -4.2051  -4.1650  -4.1414  -4.0942
    -3.8349  -3.5167   1.6032   2.3132   3.1503   4.4098   4.5084   4.8968
     5.2817   5.9215   6.0528   6.2033   6.3523   6.8469   7.2727   7.3336
     7.4203   7.5542   7.7471   8.0847

     occupation numbers 
     1.0000   1.0000   1.0000   1.0000   1.0000   1.0000   1.0000   1.0000
     1.0000   1.0000   1.0000   1.0000   1.0000   1.0000   1.0000   1.0000
     1.0000   1.0000   1.0000   1.0000   1.0000   1.0000   1.0000   1.0000
     1.0000   1.0000   1.0000   1.0000   1.0000   1.0000   1.0000   1.0000
     1.0000   1.0000   1.0000   1.0000   1.0000   1.0000   1.0000   1.0000
     1.0000   1.0000   1.0000   1.0000

          k =-0.1729 0.3005 0.2056 (  8524 PWs)   bands (ev):

   -10.4857  -9.7717  -9.6924  -9.2666  -9.0418  -8.8339  -4.7327  -4.7143
    -4.6755  -4.6297  -4.5857  -4.5368  -4.4678  -4.4552  -4.4292  -4.3952
    -4.3354  -4.3240  -4.2513  -4.2417  -4.2023  -4.1725  -4.1428  -4.1027
    -3.7375  -3.5540   1.8638   2.4988   3.0253   4.1694   4.5560   4.8766
     5.3643   5.8369   5.9162   6.0267   6.3332   6.8854   7.1944   7.3777
     7.4422   7.5688   7.6812   8.1130

     occupation numbers 
     1.0000   1.0000   1.0000   1.0000   1.0000   1.0000   1.0000   1.0000
     1.0000   1.0000   1.0000   1.0000   1.0000   1.0000   1.0000   1.0000
     1.0000   1.0000   1.0000   1.0000   1.0000   1.0000   1.0000   1.0000
     1.0000   1.0000   1.0000   1.0000   1.0000   1.0000   1.0000   1.0000
     1.0000   1.0000   1.0000   1.0000   1.0000   1.0000   1.0000   1.0000
     1.0000   1.0000   1.0000   1.0000

          k =-0.1729 0.3005 0.2987 (  8532 PWs)   bands (ev):

   -10.4352  -9.7807  -9.7115  -9.3001  -9.0565  -8.8260  -4.7269  -4.7145
    -4.6717  -4.6357  -4.6084  -4.5596  -4.4667  -4.4479  -4.4191  -4.3899
    -4.3495  -4.3320  -4.2603  -4.2377  -4.1994  -4.1809  -4.1444  -4.1015
    -3.6646  -3.5754   2.1555   2.7452   2.8510   3.8685   4.6652   4.9031
     5.4476   5.6292   5.8188   5.9244   6.2969   6.8820   7.1189   7.3839
     7.4672   7.5463   7.6462   8.1362

     occupation numbers 
     1.0000   1.0000   1.0000   1.0000   1.0000   1.0000   1.0000   1.0000
     1.0000   1.0000   1.0000   1.0000   1.0000   1.0000   1.0000   1.0000
     1.0000   1.0000   1.0000   1.0000   1.0000   1.0000   1.0000   1.0000
     1.0000   1.0000   1.0000   1.0000   1.0000   1.0000   1.0000   1.0000
     1.0000   1.0000   1.0000   1.0000   1.0000   1.0000   1.0000   1.0000
     1.0000   1.0000   1.0000   1.0000

          k =-0.1729 0.3005 0.3917 (  8528 PWs)   bands (ev):

   -10.3738  -9.8543  -9.7082  -9.3021  -9.0609  -8.8234  -4.7215  -4.7137
    -4.6663  -4.6479  -4.6133  -4.5808  -4.4687  -4.4392  -4.4076  -4.3808
    -4.3635  -4.3426  -4.2682  -4.2361  -4.1969  -4.1875  -4.1446  -4.0951
    -3.6753  -3.5305   2.4491   2.5693   3.1027   3.5720   4.7969   4.9412
     5.3432   5.5716   5.7212   5.9255   6.2519   6.8232   7.0838   7.3849
     7.4394   7.4894   7.6732   8.1467

     occupation numbers 
     1.0000   1.0000   1.0000   1.0000   1.0000   1.0000   1.0000   1.0000
     1.0000   1.0000   1.0000   1.0000   1.0000   1.0000   1.0000   1.0000
     1.0000   1.0000   1.0000   1.0000   1.0000   1.0000   1.0000   1.0000
     1.0000   1.0000   1.0000   1.0000   1.0000   1.0000   1.0000   1.0000
     1.0000   1.0000   1.0000   1.0000   1.0000   1.0000   1.0000   1.0000
     1.0000   1.0000   1.0000   1.0000

          k =-0.1729 0.3005-0.6319 (  8517 PWs)   bands (ev):

   -10.3139  -9.9384  -9.7210  -9.2699  -9.0605  -8.8232  -4.7191  -4.7119
    -4.6599  -4.6564  -4.6068  -4.5958  -4.4707  -4.4344  -4.4044  -4.3695
    -4.3681  -4.3513  -4.2746  -4.2362  -4.1965  -4.1901  -4.1440  -4.0865
    -3.7233  -3.4712   2.2789   2.7221   3.1780   3.5990   4.8758   4.9624
     5.2228   5.5219   5.7344   5.9401   6.2665   6.7359   7.0873   7.3463
     7.3809   7.4817   7.6963   8.1428

     occupation numbers 
     1.0000   1.0000   1.0000   1.0000   1.0000   1.0000   1.0000   1.0000
     1.0000   1.0000   1.0000   1.0000   1.0000   1.0000   1.0000   1.0000
     1.0000   1.0000   1.0000   1.0000   1.0000   1.0000   1.0000   1.0000
     1.0000   1.0000   1.0000   1.0000   1.0000   1.0000   1.0000   1.0000
     1.0000   1.0000   1.0000   1.0000   1.0000   1.0000   1.0000   1.0000
     1.0000   1.0000   1.0000   1.0000

          k =-0.1729 0.3005-0.5389 (  8521 PWs)   bands (ev):

   -10.2802 -10.0049  -9.7333  -9.2222  -9.0570  -8.8239  -4.7203  -4.7103
    -4.6642  -4.6471  -4.6035  -4.5897  -4.4717  -4.4381  -4.4130  -4.3650
    -4.3561  -4.3492  -4.2799  -4.2360  -4.1990  -4.1888  -4.1431  -4.0765
    -3.7809  -3.4269   1.9812   2.8597   3.0091   4.0179   4.7538   5.1043
     5.1637   5.4772   5.7815   5.9376   6.3847   6.6581   7.1130   7.2449
     7.3658   7.4941   7.6985   8.1288

     occupation numbers 
     1.0000   1.0000   1.0000   1.0000   1.0000   1.0000   1.0000   1.0000
     1.0000   1.0000   1.0000   1.0000   1.0000   1.0000   1.0000   1.0000
     1.0000   1.0000   1.0000   1.0000   1.0000   1.0000   1.0000   1.0000
     1.0000   1.0000   1.0000   1.0000   1.0000   1.0000   1.0000   1.0000
     1.0000   1.0000   1.0000   1.0000   1.0000   1.0000   1.0000   1.0000
     1.0000   1.0000   1.0000   1.0000

          k =-0.1729 0.3005-0.4458 (  8526 PWs)   bands (ev):

   -10.3027 -10.0246  -9.7288  -9.1795  -9.0466  -8.8257  -4.7239  -4.7098
    -4.6688  -4.6370  -4.5948  -4.5677  -4.4715  -4.4490  -4.4243  -4.3582
    -4.3457  -4.3382  -4.2846  -4.2335  -4.2027  -4.1862  -4.1424  -4.0656
    -3.8443  -3.4007   1.7047   2.6423   3.1428   4.4273   4.6844   5.0891
     5.1875   5.5088   5.8367   5.9425   6.5107   6.6505   7.1363   7.1759
     7.3370   7.5213   7.6791   8.1107

     occupation numbers 
     1.0000   1.0000   1.0000   1.0000   1.0000   1.0000   1.0000   1.0000
     1.0000   1.0000   1.0000   1.0000   1.0000   1.0000   1.0000   1.0000
     1.0000   1.0000   1.0000   1.0000   1.0000   1.0000   1.0000   1.0000
     1.0000   1.0000   1.0000   1.0000   1.0000   1.0000   1.0000   1.0000
     1.0000   1.0000   1.0000   1.0000   1.0000   1.0000   1.0000   1.0000
     1.0000   1.0000   1.0000   1.0000

          k =-0.1729 0.3005-0.3527 (  8529 PWs)   bands (ev):

   -10.3648 -10.0108  -9.7035  -9.1569  -9.0216  -8.8320  -4.7285  -4.7097
    -4.6727  -4.6325  -4.5707  -4.5423  -4.4715  -4.4596  -4.4343  -4.3521
    -4.3354  -4.3293  -4.2880  -4.2277  -4.2064  -4.1817  -4.1420  -4.0560
    -3.9093  -3.3920   1.4770   2.4386   3.2321   4.5020   4.9454   5.0304
     5.1825   5.6099   5.8861   5.9687   6.5068   6.8011   7.1025   7.1988
     7.3116   7.5556   7.6485   8.0927

     occupation numbers 
     1.0000   1.0000   1.0000   1.0000   1.0000   1.0000   1.0000   1.0000
     1.0000   1.0000   1.0000   1.0000   1.0000   1.0000   1.0000   1.0000
     1.0000   1.0000   1.0000   1.0000   1.0000   1.0000   1.0000   1.0000
     1.0000   1.0000   1.0000   1.0000   1.0000   1.0000   1.0000   1.0000
     1.0000   1.0000   1.0000   1.0000   1.0000   1.0000   1.0000   1.0000
     1.0000   1.0000   1.0000   1.0000

          k =-0.1729 0.3005-0.2597 (  8542 PWs)   bands (ev):

   -10.4312  -9.9876  -9.6676  -9.1541  -8.9842  -8.8472  -4.7334  -4.7098
    -4.6758  -4.6306  -4.5430  -4.5182  -4.4760  -4.4599  -4.4399  -4.3546
    -4.3290  -4.3215  -4.2871  -4.2225  -4.2075  -4.1717  -4.1420  -4.0517
    -3.9680  -3.3986   1.3210   2.2866   3.2662   4.4509   4.9572   5.0921
     5.3899   5.6256   5.9373   6.0466   6.5134   6.8948   7.1161   7.2073
     7.3468   7.5659   7.6409   8.0766

     occupation numbers 
     1.0000   1.0000   1.0000   1.0000   1.0000   1.0000   1.0000   1.0000
     1.0000   1.0000   1.0000   1.0000   1.0000   1.0000   1.0000   1.0000
     1.0000   1.0000   1.0000   1.0000   1.0000   1.0000   1.0000   1.0000
     1.0000   1.0000   1.0000   1.0000   1.0000   1.0000   1.0000   1.0000
     1.0000   1.0000   1.0000   1.0000   1.0000   1.0000   1.0000   1.0000
     1.0000   1.0000   1.0000   1.0000

          k =-0.1729 0.3005-0.1666 (  8551 PWs)   bands (ev):

   -10.4847  -9.9579  -9.6361  -9.1617  -8.9439  -8.8748  -4.7376  -4.7100
    -4.6778  -4.6292  -4.5231  -4.5034  -4.4841  -4.4454  -4.4413  -4.3688
    -4.3275  -4.3143  -4.2802  -4.2230  -4.2059  -4.1544  -4.1421  -4.0567
    -4.0035  -3.4176   1.2532   2.1939   3.2686   4.4064   4.9133   5.0466
     5.4876   5.7216   5.9803   6.1823   6.5477   6.8476   7.1341   7.2760
     7.4157   7.5428   7.6753   8.0646

     occupation numbers 
     1.0000   1.0000   1.0000   1.0000   1.0000   1.0000   1.0000   1.0000
     1.0000   1.0000   1.0000   1.0000   1.0000   1.0000   1.0000   1.0000
     1.0000   1.0000   1.0000   1.0000   1.0000   1.0000   1.0000   1.0000
     1.0000   1.0000   1.0000   1.0000   1.0000   1.0000   1.0000   1.0000
     1.0000   1.0000   1.0000   1.0000   1.0000   1.0000   1.0000   1.0000
     1.0000   1.0000   1.0000   1.0000

          k =-0.3457 0.3435-0.0841 (  8540 PWs)   bands (ev):

   -10.3394  -9.8895  -9.5582  -9.1370  -8.9211  -8.9037  -4.7226  -4.7005
    -4.6169  -4.5883  -4.5471  -4.5233  -4.4674  -4.4426  -4.4191  -4.3879
    -4.3455  -4.3218  -4.2682  -4.2348  -4.1883  -4.1527  -4.0316  -3.9826
    -3.8752  -3.4341   1.4044   2.1701   3.1411   4.1990   4.4334   4.7126
     4.9988   5.4191   5.5984   5.9931   6.5597   6.6606   7.0323   7.3032
     7.3654   7.4960   7.7892   8.0580

     occupation numbers 
     1.0000   1.0000   1.0000   1.0000   1.0000   1.0000   1.0000   1.0000
     1.0000   1.0000   1.0000   1.0000   1.0000   1.0000   1.0000   1.0000
     1.0000   1.0000   1.0000   1.0000   1.0000   1.0000   1.0000   1.0000
     1.0000   1.0000   1.0000   1.0000   1.0000   1.0000   1.0000   1.0000
     1.0000   1.0000   1.0000   1.0000   1.0000   1.0000   1.0000   1.0000
     1.0000   1.0000   1.0000   1.0000

          k =-0.3457 0.3435 0.0090 (  8537 PWs)   bands (ev):

   -10.3529  -9.8466  -9.5629  -9.1459  -8.9680  -8.8769  -4.7224  -4.7007
    -4.6166  -4.5900  -4.5456  -4.5250  -4.4654  -4.4401  -4.4229  -4.3920
    -4.3477  -4.3223  -4.2611  -4.2334  -4.1921  -4.1516  -4.0802  -3.9691
    -3.8286  -3.4552   1.5101   2.1892   3.0971   4.1937   4.4274   4.6490
     4.9841   5.4689   5.5760   6.0499   6.5499   6.7282   6.8729   7.2426
     7.3253   7.5522   7.7964   8.0609

     occupation numbers 
     1.0000   1.0000   1.0000   1.0000   1.0000   1.0000   1.0000   1.0000
     1.0000   1.0000   1.0000   1.0000   1.0000   1.0000   1.0000   1.0000
     1.0000   1.0000   1.0000   1.0000   1.0000   1.0000   1.0000   1.0000
     1.0000   1.0000   1.0000   1.0000   1.0000   1.0000   1.0000   1.0000
     1.0000   1.0000   1.0000   1.0000   1.0000   1.0000   1.0000   1.0000
     1.0000   1.0000   1.0000   1.0000

          k =-0.3457 0.3435 0.1021 (  8536 PWs)   bands (ev):

   -10.3455  -9.7969  -9.5857  -9.1610  -9.0190  -8.8563  -4.7198  -4.7000
    -4.6161  -4.5945  -4.5461  -4.5293  -4.4631  -4.4385  -4.4310  -4.3926
    -4.3531  -4.3214  -4.2541  -4.2303  -4.1990  -4.1511  -4.1179  -3.9950
    -3.7452  -3.4798   1.6969   2.2802   3.0438   4.1823   4.4080   4.5221
     5.0379   5.4528   5.5948   6.0097   6.4255   6.6981   6.8814   7.1415
     7.3155   7.5892   7.7439   8.0706

     occupation numbers 
     1.0000   1.0000   1.0000   1.0000   1.0000   1.0000   1.0000   1.0000
     1.0000   1.0000   1.0000   1.0000   1.0000   1.0000   1.0000   1.0000
     1.0000   1.0000   1.0000   1.0000   1.0000   1.0000   1.0000   1.0000
     1.0000   1.0000   1.0000   1.0000   1.0000   1.0000   1.0000   1.0000
     1.0000   1.0000   1.0000   1.0000   1.0000   1.0000   1.0000   1.0000
     1.0000   1.0000   1.0000   1.0000

          k =-0.3457 0.3435 0.1951 (  8513 PWs)   bands (ev):

   -10.3186  -9.7495  -9.6220  -9.1909  -9.0544  -8.8439  -4.7152  -4.6980
    -4.6156  -4.6016  -4.5502  -4.5361  -4.4614  -4.4427  -4.4283  -4.3924
    -4.3601  -4.3208  -4.2479  -4.2293  -4.2064  -4.1545  -4.1386  -4.0280
    -3.6583  -3.5073   1.9443   2.4444   2.9646   4.1121   4.2964   4.5066
     5.1354   5.3634   5.6617   5.8965   6.2044   6.6839   6.8012   7.2034
     7.3093   7.5832   7.6551   8.0873

     occupation numbers 
     1.0000   1.0000   1.0000   1.0000   1.0000   1.0000   1.0000   1.0000
     1.0000   1.0000   1.0000   1.0000   1.0000   1.0000   1.0000   1.0000
     1.0000   1.0000   1.0000   1.0000   1.0000   1.0000   1.0000   1.0000
     1.0000   1.0000   1.0000   1.0000   1.0000   1.0000   1.0000   1.0000
     1.0000   1.0000   1.0000   1.0000   1.0000   1.0000   1.0000   1.0000
     1.0000   1.0000   1.0000   1.0000

          k =-0.3457 0.3435 0.2882 (  8525 PWs)   bands (ev):

   -10.2756  -9.7312  -9.6535  -9.2278  -9.0679  -8.8383  -4.7094  -4.6948
    -4.6152  -4.6109  -4.5555  -4.5453  -4.4618  -4.4429  -4.4208  -4.3922
    -4.3674  -4.3216  -4.2446  -4.2341  -4.2064  -4.1635  -4.1466  -4.0518
    -3.5830  -3.5353   2.2233   2.6739   2.8442   3.9006   4.2768   4.5299
     5.2027   5.2954   5.7080   5.7494   6.0232   6.6105   6.7443   7.2541
     7.3553   7.5304   7.5900   8.1093

     occupation numbers 
     1.0000   1.0000   1.0000   1.0000   1.0000   1.0000   1.0000   1.0000
     1.0000   1.0000   1.0000   1.0000   1.0000   1.0000   1.0000   1.0000
     1.0000   1.0000   1.0000   1.0000   1.0000   1.0000   1.0000   1.0000
     1.0000   1.0000   1.0000   1.0000   1.0000   1.0000   1.0000   1.0000
     1.0000   1.0000   1.0000   1.0000   1.0000   1.0000   1.0000   1.0000
     1.0000   1.0000   1.0000   1.0000

          k =-0.3457 0.3435 0.3812 (  8519 PWs)   bands (ev):

   -10.2222  -9.7757  -9.6567  -9.2438  -9.0697  -8.8370  -4.7037  -4.6915
    -4.6206  -4.6138  -4.5586  -4.5547  -4.4640  -4.4389  -4.4129  -4.3952
    -4.3717  -4.3236  -4.2494  -4.2337  -4.2013  -4.1747  -4.1519  -4.0573
    -3.5816  -3.5083   2.5015   2.6315   2.9916   3.6505   4.3035   4.5502
     5.1224   5.3410   5.6114   5.6477   6.0331   6.4789   6.7880   7.1958
     7.3784   7.5292   7.5705   8.1306

     occupation numbers 
     1.0000   1.0000   1.0000   1.0000   1.0000   1.0000   1.0000   1.0000
     1.0000   1.0000   1.0000   1.0000   1.0000   1.0000   1.0000   1.0000
     1.0000   1.0000   1.0000   1.0000   1.0000   1.0000   1.0000   1.0000
     1.0000   1.0000   1.0000   1.0000   1.0000   1.0000   1.0000   1.0000
     1.0000   1.0000   1.0000   1.0000   1.0000   1.0000   1.0000   1.0000
     1.0000   1.0000   1.0000   1.0000

          k =-0.3457 0.3435-0.6424 (  8515 PWs)   bands (ev):

   -10.1685  -9.8466  -9.6632  -9.2251  -9.0685  -8.8372  -4.7002  -4.6898
    -4.6266  -4.6109  -4.5627  -4.5568  -4.4662  -4.4355  -4.4069  -4.4040
    -4.3686  -4.3257  -4.2554  -4.2298  -4.1961  -4.1861  -4.1537  -4.0451
    -3.6228  -3.4611   2.3858   2.7584   3.2000   3.5163   4.3453   4.5670
     5.0059   5.3672   5.5044   5.5643   6.1912   6.3930   6.8531   7.1179
     7.3116   7.5357   7.6320   8.1448

     occupation numbers 
     1.0000   1.0000   1.0000   1.0000   1.0000   1.0000   1.0000   1.0000
     1.0000   1.0000   1.0000   1.0000   1.0000   1.0000   1.0000   1.0000
     1.0000   1.0000   1.0000   1.0000   1.0000   1.0000   1.0000   1.0000
     1.0000   1.0000   1.0000   1.0000   1.0000   1.0000   1.0000   1.0000
     1.0000   1.0000   1.0000   1.0000   1.0000   1.0000   1.0000   1.0000
     1.0000   1.0000   1.0000   1.0000

          k =-0.3457 0.3435-0.5494 (  8524 PWs)   bands (ev):

   -10.1323  -9.9155  -9.6699  -9.1832  -9.0668  -8.8372  -4.7009  -4.6905
    -4.6270  -4.6054  -4.5659  -4.5516  -4.4676  -4.4363  -4.4199  -4.3971
    -4.3615  -4.3263  -4.2612  -4.2235  -4.1991  -4.1854  -4.1531  -4.0207
    -3.6723  -3.4286   2.1162   2.9106   3.0732   3.7702   4.3988   4.5792
     4.9145   5.2952   5.4838   5.5453   6.3132   6.4575   6.9240   7.0333
     7.2630   7.5316   7.6908   8.1471

     occupation numbers 
     1.0000   1.0000   1.0000   1.0000   1.0000   1.0000   1.0000   1.0000
     1.0000   1.0000   1.0000   1.0000   1.0000   1.0000   1.0000   1.0000
     1.0000   1.0000   1.0000   1.0000   1.0000   1.0000   1.0000   1.0000
     1.0000   1.0000   1.0000   1.0000   1.0000   1.0000   1.0000   1.0000
     1.0000   1.0000   1.0000   1.0000   1.0000   1.0000   1.0000   1.0000
     1.0000   1.0000   1.0000   1.0000

          k =-0.3457 0.3435-0.4563 (  8522 PWs)   bands (ev):

   -10.1412  -9.9539  -9.6612  -9.1405  -9.0594  -8.8378  -4.7051  -4.6930
    -4.6235  -4.5997  -4.5635  -4.5434  -4.4679  -4.4406  -4.4322  -4.3883
    -4.3548  -4.3247  -4.2675  -4.2197  -4.1993  -4.1748  -4.1518  -3.9906
    -3.7285  -3.4102   1.8540   2.7276   3.1498   4.0204   4.5011   4.5628
     4.8924   5.2130   5.4755   5.5989   6.3579   6.6542   6.9411   7.0094
     7.2635   7.5303   7.7159   8.1363

     occupation numbers 
     1.0000   1.0000   1.0000   1.0000   1.0000   1.0000   1.0000   1.0000
     1.0000   1.0000   1.0000   1.0000   1.0000   1.0000   1.0000   1.0000
     1.0000   1.0000   1.0000   1.0000   1.0000   1.0000   1.0000   1.0000
     1.0000   1.0000   1.0000   1.0000   1.0000   1.0000   1.0000   1.0000
     1.0000   1.0000   1.0000   1.0000   1.0000   1.0000   1.0000   1.0000
     1.0000   1.0000   1.0000   1.0000

          k =-0.3457 0.3435-0.3633 (  8527 PWs)   bands (ev):

   -10.1935  -9.9567  -9.6344  -9.1212  -9.0310  -8.8420  -4.7107  -4.6958
    -4.6197  -4.5954  -4.5572  -4.5349  -4.4678  -4.4445  -4.4382  -4.3808
    -4.3507  -4.3217  -4.2732  -4.2238  -4.1927  -4.1565  -4.1441  -3.9636
    -3.7885  -3.4037   1.6299   2.5098   3.2095   4.1436   4.5177   4.6701
     4.8804   5.2322   5.5070   5.6511   6.4250   6.7258   6.9633   7.1164
     7.2918   7.5314   7.7090   8.1153

     occupation numbers 
     1.0000   1.0000   1.0000   1.0000   1.0000   1.0000   1.0000   1.0000
     1.0000   1.0000   1.0000   1.0000   1.0000   1.0000   1.0000   1.0000
     1.0000   1.0000   1.0000   1.0000   1.0000   1.0000   1.0000   1.0000
     1.0000   1.0000   1.0000   1.0000   1.0000   1.0000   1.0000   1.0000
     1.0000   1.0000   1.0000   1.0000   1.0000   1.0000   1.0000   1.0000
     1.0000   1.0000   1.0000   1.0000

          k =-0.3457 0.3435-0.2702 (  8542 PWs)   bands (ev):

   -10.2546  -9.9444  -9.6003  -9.1224  -8.9877  -8.8545  -4.7162  -4.6981
    -4.6178  -4.5917  -4.5515  -4.5283  -4.4682  -4.4457  -4.4347  -4.3776
    -4.3484  -4.3194  -4.2759  -4.2293  -4.1887  -4.1535  -4.1030  -3.9536
    -3.8427  -3.4068   1.4693   2.3359   3.2114   4.1885   4.4791   4.7599
     4.9003   5.3125   5.6135   5.6853   6.4751   6.6966   7.0540   7.2619
     7.3141   7.5231   7.6984   8.0899

     occupation numbers 
     1.0000   1.0000   1.0000   1.0000   1.0000   1.0000   1.0000   1.0000
     1.0000   1.0000   1.0000   1.0000   1.0000   1.0000   1.0000   1.0000
     1.0000   1.0000   1.0000   1.0000   1.0000   1.0000   1.0000   1.0000
     1.0000   1.0000   1.0000   1.0000   1.0000   1.0000   1.0000   1.0000
     1.0000   1.0000   1.0000   1.0000   1.0000   1.0000   1.0000   1.0000
     1.0000   1.0000   1.0000   1.0000

          k =-0.3457 0.3435-0.1771 (  8558 PWs)   bands (ev):

   -10.3057  -9.9223  -9.5719  -9.1293  -8.9450  -8.8788  -4.7204  -4.6996
    -4.6171  -4.5890  -4.5488  -4.5244  -4.4684  -4.4447  -4.4253  -4.3809
    -4.3464  -4.3199  -4.2739  -4.2333  -4.1873  -4.1532  -4.0447  -3.9786
    -3.8727  -3.4175   1.3908   2.2204   3.1817   4.2003   4.4517   4.7342
     4.9855   5.3732   5.6185   5.8445   6.5115   6.6695   7.1138   7.3056
     7.3584   7.4947   7.7348   8.0679

     occupation numbers 
     1.0000   1.0000   1.0000   1.0000   1.0000   1.0000   1.0000   1.0000
     1.0000   1.0000   1.0000   1.0000   1.0000   1.0000   1.0000   1.0000
     1.0000   1.0000   1.0000   1.0000   1.0000   1.0000   1.0000   1.0000
     1.0000   1.0000   1.0000   1.0000   1.0000   1.0000   1.0000   1.0000
     1.0000   1.0000   1.0000   1.0000   1.0000   1.0000   1.0000   1.0000
     1.0000   1.0000   1.0000   1.0000

          k = 1.5557-0.1288 0.0315 (  8536 PWs)   bands (ev):

   -10.0983  -9.8032  -9.4733  -9.1199  -8.9171  -8.9053  -4.6708  -4.6610
    -4.5712  -4.5548  -4.5395  -4.5289  -4.4577  -4.4548  -4.4413  -4.3991
    -4.3317  -4.2794  -4.2610  -4.2384  -4.1790  -4.1644  -3.9285  -3.8314
    -3.7045  -3.4802   1.5925   2.1219   2.8447   3.6159   3.9595   4.4316
     4.6523   4.9287   5.3487   5.8260   6.1893   6.3077   7.1922   7.3071
     7.3547   7.5299   7.7919   8.0584

     occupation numbers 
     1.0000   1.0000   1.0000   1.0000   1.0000   1.0000   1.0000   1.0000
     1.0000   1.0000   1.0000   1.0000   1.0000   1.0000   1.0000   1.0000
     1.0000   1.0000   1.0000   1.0000   1.0000   1.0000   1.0000   1.0000
     1.0000   1.0000   1.0000   1.0000   1.0000   1.0000   1.0000   1.0000
     1.0000   1.0000   1.0000   1.0000   1.0000   1.0000   1.0000   1.0000
     1.0000   1.0000   1.0000   1.0000

          k = 1.5557-0.1288 0.1246 (  8529 PWs)   bands (ev):

   -10.1120  -9.7678  -9.4782  -9.1197  -8.9586  -8.8834  -4.6714  -4.6593
    -4.5735  -4.5504  -4.5409  -4.5240  -4.4586  -4.4501  -4.4403  -4.3993
    -4.3372  -4.2793  -4.2561  -4.2379  -4.1821  -4.1622  -3.9813  -3.8183
    -3.6855  -3.4806   1.6715   2.1223   2.7944   3.6111   4.0246   4.4034
     4.6500   4.9837   5.3897   5.7815   6.1526   6.4022   7.0913   7.1856
     7.2566   7.5837   7.7879   8.0545

     occupation numbers 
     1.0000   1.0000   1.0000   1.0000   1.0000   1.0000   1.0000   1.0000
     1.0000   1.0000   1.0000   1.0000   1.0000   1.0000   1.0000   1.0000
     1.0000   1.0000   1.0000   1.0000   1.0000   1.0000   1.0000   1.0000
     1.0000   1.0000   1.0000   1.0000   1.0000   1.0000   1.0000   1.0000
     1.0000   1.0000   1.0000   1.0000   1.0000   1.0000   1.0000   1.0000
     1.0000   1.0000   1.0000   1.0000

          k = 1.5557-0.1288 0.2176 (  8543 PWs)   bands (ev):

   -10.1078  -9.7254  -9.4976  -9.1157  -9.0117  -8.8688  -4.6703  -4.6560
    -4.5755  -4.5481  -4.5374  -4.5172  -4.4592  -4.4455  -4.4397  -4.4005
    -4.3428  -4.2799  -4.2506  -4.2345  -4.1873  -4.1589  -4.0427  -3.8562
    -3.6268  -3.4812   1.8238   2.1945   2.7541   3.6158   4.0654   4.3384
     4.6462   5.0247   5.4230   5.7165   6.1183   6.5212   6.8474   7.0264
     7.2371   7.5887   7.7358   8.0452

     occupation numbers 
     1.0000   1.0000   1.0000   1.0000   1.0000   1.0000   1.0000   1.0000
     1.0000   1.0000   1.0000   1.0000   1.0000   1.0000   1.0000   1.0000
     1.0000   1.0000   1.0000   1.0000   1.0000   1.0000   1.0000   1.0000
     1.0000   1.0000   1.0000   1.0000   1.0000   1.0000   1.0000   1.0000
     1.0000   1.0000   1.0000   1.0000   1.0000   1.0000   1.0000   1.0000
     1.0000   1.0000   1.0000   1.0000

          k = 1.5557-0.1288 0.3107 (  8546 PWs)   bands (ev):

   -10.0870  -9.6834  -9.5273  -9.1113  -9.0665  -8.8620  -4.6675  -4.6514
    -4.5780  -4.5496  -4.5291  -4.5098  -4.4583  -4.4421  -4.4401  -4.4001
    -4.3472  -4.2824  -4.2447  -4.2293  -4.1939  -4.1550  -4.0961  -3.9133
    -3.5666  -3.4827   2.0285   2.3364   2.7178   3.6276   4.0124   4.2961
     4.6568   4.9879   5.5184   5.6595   6.0567   6.4955   6.6228   6.9712
     7.2473   7.5198   7.6545   8.0421

     occupation numbers 
     1.0000   1.0000   1.0000   1.0000   1.0000   1.0000   1.0000   1.0000
     1.0000   1.0000   1.0000   1.0000   1.0000   1.0000   1.0000   1.0000
     1.0000   1.0000   1.0000   1.0000   1.0000   1.0000   1.0000   1.0000
     1.0000   1.0000   1.0000   1.0000   1.0000   1.0000   1.0000   1.0000
     1.0000   1.0000   1.0000   1.0000   1.0000   1.0000   1.0000   1.0000
     1.0000   1.0000   1.0000   1.0000

          k = 1.5557-0.1288 0.4038 (  8535 PWs)   bands (ev):

   -10.0524  -9.6595  -9.5549  -9.1307  -9.0895  -8.8608  -4.6634  -4.6468
    -4.5811  -4.5527  -4.5205  -4.5033  -4.4554  -4.4436  -4.4382  -4.3985
    -4.3490  -4.2888  -4.2391  -4.2239  -4.1996  -4.1517  -4.1337  -3.9667
    -3.5262  -3.4799   2.2565   2.5391   2.6716   3.6098   3.8965   4.2672
     4.6888   4.9050   5.6147   5.6861   5.9186   6.2329   6.5596   7.0873
     7.2591   7.3822   7.5914   8.0422

     occupation numbers 
     1.0000   1.0000   1.0000   1.0000   1.0000   1.0000   1.0000   1.0000
     1.0000   1.0000   1.0000   1.0000   1.0000   1.0000   1.0000   1.0000
     1.0000   1.0000   1.0000   1.0000   1.0000   1.0000   1.0000   1.0000
     1.0000   1.0000   1.0000   1.0000   1.0000   1.0000   1.0000   1.0000
     1.0000   1.0000   1.0000   1.0000   1.0000   1.0000   1.0000   1.0000
     1.0000   1.0000   1.0000   1.0000

          k = 1.5557-0.1288 0.4968 (  8540 PWs)   bands (ev):

   -10.0090  -9.6794  -9.5627  -9.1577  -9.0847  -8.8623  -4.6589  -4.6438
    -4.5841  -4.5555  -4.5145  -4.4989  -4.4527  -4.4443  -4.4369  -4.4009
    -4.3452  -4.2993  -4.2362  -4.2208  -4.1988  -4.1604  -4.1470  -3.9965
    -3.5217  -3.4621   2.4816   2.5854   2.7861   3.4791   3.8533   4.2110
     4.7205   4.8518   5.5536   5.7440   5.9203   5.9669   6.5859   7.1506
     7.2693   7.3004   7.5504   8.0434

     occupation numbers 
     1.0000   1.0000   1.0000   1.0000   1.0000   1.0000   1.0000   1.0000
     1.0000   1.0000   1.0000   1.0000   1.0000   1.0000   1.0000   1.0000
     1.0000   1.0000   1.0000   1.0000   1.0000   1.0000   1.0000   1.0000
     1.0000   1.0000   1.0000   1.0000   1.0000   1.0000   1.0000   1.0000
     1.0000   1.0000   1.0000   1.0000   1.0000   1.0000   1.0000   1.0000
     1.0000   1.0000   1.0000   1.0000

          k = 1.5557-0.1288-0.5268 (  8546 PWs)   bands (ev):

    -9.9645  -9.7306  -9.5648  -9.1548  -9.0809  -8.8633  -4.6552  -4.6439
    -4.5863  -4.5560  -4.5123  -4.4970  -4.4544  -4.4405  -4.4387  -4.4100
    -4.3342  -4.3088  -4.2385  -4.2172  -4.1916  -4.1739  -4.1529  -3.9870
    -3.5380  -3.4460   2.4467   2.6865   3.0215   3.2681   3.8776   4.1519
     4.7194   4.8606   5.4056   5.6697   5.8381   6.1360   6.6658   7.0097
     7.2609   7.4307   7.5226   8.0481

     occupation numbers 
     1.0000   1.0000   1.0000   1.0000   1.0000   1.0000   1.0000   1.0000
     1.0000   1.0000   1.0000   1.0000   1.0000   1.0000   1.0000   1.0000
     1.0000   1.0000   1.0000   1.0000   1.0000   1.0000   1.0000   1.0000
     1.0000   1.0000   1.0000   1.0000   1.0000   1.0000   1.0000   1.0000
     1.0000   1.0000   1.0000   1.0000   1.0000   1.0000   1.0000   1.0000
     1.0000   1.0000   1.0000   1.0000

          k = 1.5557-0.1288-0.4338 (  8548 PWs)   bands (ev):

    -9.9305  -9.7905  -9.5671  -9.1237  -9.0822  -8.8622  -4.6538  -4.6474
    -4.5863  -4.5539  -4.5141  -4.4984  -4.4574  -4.4471  -4.4350  -4.4201
    -4.3240  -4.3083  -4.2451  -4.2135  -4.1896  -4.1703  -4.1577  -3.9453
    -3.5651  -3.4409   2.2551   2.8335   3.0259   3.2365   3.9249   4.1064
     4.7312   4.8866   5.2651   5.5166   5.9766   6.3156   6.7632   6.8971
     7.2732   7.4931   7.5548   8.0568

     occupation numbers 
     1.0000   1.0000   1.0000   1.0000   1.0000   1.0000   1.0000   1.0000
     1.0000   1.0000   1.0000   1.0000   1.0000   1.0000   1.0000   1.0000
     1.0000   1.0000   1.0000   1.0000   1.0000   1.0000   1.0000   1.0000
     1.0000   1.0000   1.0000   1.0000   1.0000   1.0000   1.0000   1.0000
     1.0000   1.0000   1.0000   1.0000   1.0000   1.0000   1.0000   1.0000
     1.0000   1.0000   1.0000   1.0000

          k = 1.5557-0.1288-0.3407 (  8542 PWs)   bands (ev):

    -9.9268  -9.8377  -9.5579  -9.0893  -9.0771  -8.8599  -4.6553  -4.6525
    -4.5832  -4.5511  -4.5197  -4.5050  -4.4607  -4.4536  -4.4374  -4.4200
    -4.3235  -4.2961  -4.2532  -4.2171  -4.1900  -4.1604  -4.1372  -3.8896
    -3.6013  -3.4455   2.0395   2.7359   2.9780   3.3823   3.9736   4.0873
     4.7213   4.9637   5.1491   5.4683   6.1518   6.4347   6.7289   7.0057
     7.3221   7.4590   7.6443   8.0652

     occupation numbers 
     1.0000   1.0000   1.0000   1.0000   1.0000   1.0000   1.0000   1.0000
     1.0000   1.0000   1.0000   1.0000   1.0000   1.0000   1.0000   1.0000
     1.0000   1.0000   1.0000   1.0000   1.0000   1.0000   1.0000   1.0000
     1.0000   1.0000   1.0000   1.0000   1.0000   1.0000   1.0000   1.0000
     1.0000   1.0000   1.0000   1.0000   1.0000   1.0000   1.0000   1.0000
     1.0000   1.0000   1.0000   1.0000

          k = 1.5557-0.1288-0.2477 (  8538 PWs)   bands (ev):

    -9.9681  -9.8494  -9.5346  -9.0985  -9.0277  -8.8601  -4.6599  -4.6564
    -4.5781  -4.5504  -4.5268  -4.5161  -4.4626  -4.4561  -4.4411  -4.4136
    -4.3241  -4.2865  -4.2602  -4.2247  -4.1861  -4.1618  -4.0838  -3.8379
    -3.6432  -3.4561   1.8381   2.5166   2.9912   3.4938   3.9532   4.1710
     4.6759   5.0424   5.0814   5.5503   6.2339   6.4609   6.7877   7.1893
     7.3646   7.4583   7.6945   8.0672

     occupation numbers 
     1.0000   1.0000   1.0000   1.0000   1.0000   1.0000   1.0000   1.0000
     1.0000   1.0000   1.0000   1.0000   1.0000   1.0000   1.0000   1.0000
     1.0000   1.0000   1.0000   1.0000   1.0000   1.0000   1.0000   1.0000
     1.0000   1.0000   1.0000   1.0000   1.0000   1.0000   1.0000   1.0000
     1.0000   1.0000   1.0000   1.0000   1.0000   1.0000   1.0000   1.0000
     1.0000   1.0000   1.0000   1.0000

          k = 1.5557-0.1288-0.1546 (  8550 PWs)   bands (ev):

   -10.0218  -9.8438  -9.5063  -9.1083  -8.9808  -8.8670  -4.6648  -4.6592
    -4.5728  -4.5534  -4.5315  -4.5268  -4.4617  -4.4568  -4.4425  -4.4068
    -4.3250  -4.2814  -4.2644  -4.2314  -4.1820  -4.1633  -4.0159  -3.8122
    -3.6795  -3.4681   1.6830   2.3276   2.9586   3.5727   3.9164   4.2995
     4.6415   4.9631   5.1837   5.6951   6.2228   6.3892   7.0016   7.3071
     7.3532   7.5361   7.7135   8.0616

     occupation numbers 
     1.0000   1.0000   1.0000   1.0000   1.0000   1.0000   1.0000   1.0000
     1.0000   1.0000   1.0000   1.0000   1.0000   1.0000   1.0000   1.0000
     1.0000   1.0000   1.0000   1.0000   1.0000   1.0000   1.0000   1.0000
     1.0000   1.0000   1.0000   1.0000   1.0000   1.0000   1.0000   1.0000
     1.0000   1.0000   1.0000   1.0000   1.0000   1.0000   1.0000   1.0000
     1.0000   1.0000   1.0000   1.0000

          k = 1.5557-0.1288-0.0615 (  8546 PWs)   bands (ev):

   -10.0674  -9.8286  -9.4836  -9.1159  -8.9403  -8.8843  -4.6685  -4.6609
    -4.5699  -4.5566  -4.5355  -4.5311  -4.4589  -4.4571  -4.4423  -4.4016
    -4.3274  -4.2796  -4.2643  -4.2362  -4.1792  -4.1646  -3.9464  -3.8286
    -3.6964  -3.4768   1.5969   2.1922   2.9030   3.6121   3.9147   4.3991
     4.6397   4.9181   5.2768   5.8045   6.2016   6.3164   7.1756   7.3235
     7.3730   7.5512   7.7517   8.0566

     occupation numbers 
     1.0000   1.0000   1.0000   1.0000   1.0000   1.0000   1.0000   1.0000
     1.0000   1.0000   1.0000   1.0000   1.0000   1.0000   1.0000   1.0000
     1.0000   1.0000   1.0000   1.0000   1.0000   1.0000   1.0000   1.0000
     1.0000   1.0000   1.0000   1.0000   1.0000   1.0000   1.0000   1.0000
     1.0000   1.0000   1.0000   1.0000   1.0000   1.0000   1.0000   1.0000
     1.0000   1.0000   1.0000   1.0000

          k = 1.3829-0.0859 0.0210 (  8543 PWs)   bands (ev):

    -9.8492  -9.6751  -9.3858  -9.1446  -8.9090  -8.9053  -4.6170  -4.5910
    -4.5739  -4.5506  -4.5094  -4.4919  -4.4658  -4.4510  -4.4268  -4.4156
    -4.3353  -4.2514  -4.2215  -4.2137  -4.1753  -4.1674  -3.8323  -3.6491
    -3.6093  -3.5143   1.7784   1.9479   2.3921   2.9204   3.4918   4.3251
     4.5241   4.7162   4.9751   5.5707   6.0419   6.2250   6.9676   7.3373
     7.3961   7.6036   7.8056   8.0508

     occupation numbers 
     1.0000   1.0000   1.0000   1.0000   1.0000   1.0000   1.0000   1.0000
     1.0000   1.0000   1.0000   1.0000   1.0000   1.0000   1.0000   1.0000
     1.0000   1.0000   1.0000   1.0000   1.0000   1.0000   1.0000   1.0000
     1.0000   1.0000   1.0000   1.0000   1.0000   1.0000   1.0000   1.0000
     1.0000   1.0000   1.0000   1.0000   1.0000   1.0000   1.0000   1.0000
     1.0000   1.0000   1.0000   1.0000

          k = 1.3829-0.0859 0.1141 (  8545 PWs)   bands (ev):

    -9.8589  -9.6510  -9.3906  -9.1427  -8.9355  -8.8915  -4.6173  -4.5928
    -4.5716  -4.5428  -4.5098  -4.4863  -4.4661  -4.4536  -4.4268  -4.4111
    -4.3376  -4.2484  -4.2224  -4.2130  -4.1775  -4.1648  -3.8716  -3.6749
    -3.5947  -3.4908   1.8210   1.9494   2.3595   2.9677   3.5040   4.2960
     4.4815   4.8028   5.0900   5.5081   5.9926   6.2752   6.9338   7.2356
     7.3317   7.5764   7.7995   8.0334

     occupation numbers 
     1.0000   1.0000   1.0000   1.0000   1.0000   1.0000   1.0000   1.0000
     1.0000   1.0000   1.0000   1.0000   1.0000   1.0000   1.0000   1.0000
     1.0000   1.0000   1.0000   1.0000   1.0000   1.0000   1.0000   1.0000
     1.0000   1.0000   1.0000   1.0000   1.0000   1.0000   1.0000   1.0000
     1.0000   1.0000   1.0000   1.0000   1.0000   1.0000   1.0000   1.0000
     1.0000   1.0000   1.0000   1.0000

          k = 1.3829-0.0859 0.2071 (  8544 PWs)   bands (ev):

    -9.8550  -9.6206  -9.4059  -9.1372  -8.9702  -8.8852  -4.6170  -4.5933
    -4.5659  -4.5278  -4.5113  -4.4767  -4.4671  -4.4569  -4.4288  -4.4022
    -4.3393  -4.2434  -4.2247  -4.2106  -4.1809  -4.1604  -3.9346  -3.7357
    -3.5618  -3.4660   1.9103   2.0238   2.3511   2.9996   3.5540   4.2274
     4.4248   4.8570   5.2098   5.4468   5.9669   6.3540   6.8596   7.0898
     7.1809   7.5292   7.7495   7.9907

     occupation numbers 
     1.0000   1.0000   1.0000   1.0000   1.0000   1.0000   1.0000   1.0000
     1.0000   1.0000   1.0000   1.0000   1.0000   1.0000   1.0000   1.0000
     1.0000   1.0000   1.0000   1.0000   1.0000   1.0000   1.0000   1.0000
     1.0000   1.0000   1.0000   1.0000   1.0000   1.0000   1.0000   1.0000
     1.0000   1.0000   1.0000   1.0000   1.0000   1.0000   1.0000   1.0000
     1.0000   1.0000   1.0000   1.0000

          k = 1.3829-0.0859 0.3002 (  8552 PWs)   bands (ev):

    -9.8384  -9.5901  -9.4275  -9.1308  -9.0070  -8.8857  -4.6154  -4.5929
    -4.5584  -4.5186  -4.5043  -4.4733  -4.4633  -4.4572  -4.4312  -4.3889
    -4.3396  -4.2376  -4.2299  -4.2061  -4.1842  -4.1532  -4.0020  -3.8083
    -3.5378  -3.4432   2.0245   2.1594   2.3689   3.0063   3.6353   4.1444
     4.3574   4.8584   5.2663   5.4537   5.9587   6.4269   6.6754   6.9912
     7.0715   7.4458   7.6536   7.9466

     occupation numbers 
     1.0000   1.0000   1.0000   1.0000   1.0000   1.0000   1.0000   1.0000
     1.0000   1.0000   1.0000   1.0000   1.0000   1.0000   1.0000   1.0000
     1.0000   1.0000   1.0000   1.0000   1.0000   1.0000   1.0000   1.0000
     1.0000   1.0000   1.0000   1.0000   1.0000   1.0000   1.0000   1.0000
     1.0000   1.0000   1.0000   1.0000   1.0000   1.0000   1.0000   1.0000
     1.0000   1.0000   1.0000   1.0000

          k = 1.3829-0.0859 0.3933 (  8558 PWs)   bands (ev):

    -9.8112  -9.5726  -9.4457  -9.1292  -9.0359  -8.8905  -4.6123  -4.5918
    -4.5531  -4.5195  -4.4896  -4.4775  -4.4572  -4.4492  -4.4326  -4.3734
    -4.3356  -4.2452  -4.2275  -4.1997  -4.1863  -4.1431  -4.0613  -3.8801
    -3.5231  -3.4273   2.1483   2.3120   2.4193   2.9797   3.7263   4.0544
     4.2932   4.8173   5.2424   5.5708   5.9308   6.2728   6.6314   6.9353
     7.0818   7.3197   7.5548   7.9042

     occupation numbers 
     1.0000   1.0000   1.0000   1.0000   1.0000   1.0000   1.0000   1.0000
     1.0000   1.0000   1.0000   1.0000   1.0000   1.0000   1.0000   1.0000
     1.0000   1.0000   1.0000   1.0000   1.0000   1.0000   1.0000   1.0000
     1.0000   1.0000   1.0000   1.0000   1.0000   1.0000   1.0000   1.0000
     1.0000   1.0000   1.0000   1.0000   1.0000   1.0000   1.0000   1.0000
     1.0000   1.0000   1.0000   1.0000

          k = 1.3829-0.0859 0.4863 (  8554 PWs)   bands (ev):

    -9.7774  -9.5832  -9.4503  -9.1349  -9.0476  -8.8960  -4.6085  -4.5914
    -4.5510  -4.5217  -4.4833  -4.4760  -4.4543  -4.4426  -4.4312  -4.3636
    -4.3202  -4.2659  -4.2219  -4.1942  -4.1824  -4.1400  -4.0972  -3.9315
    -3.5161  -3.4213   2.2572   2.4208   2.5140   2.9149   3.7942   3.9658
     4.2422   4.7767   5.2676   5.6017   5.9158   6.0394   6.6840   7.0104
     7.0591   7.2254   7.4788   7.8671

     occupation numbers 
     1.0000   1.0000   1.0000   1.0000   1.0000   1.0000   1.0000   1.0000
     1.0000   1.0000   1.0000   1.0000   1.0000   1.0000   1.0000   1.0000
     1.0000   1.0000   1.0000   1.0000   1.0000   1.0000   1.0000   1.0000
     1.0000   1.0000   1.0000   1.0000   1.0000   1.0000   1.0000   1.0000
     1.0000   1.0000   1.0000   1.0000   1.0000   1.0000   1.0000   1.0000
     1.0000   1.0000   1.0000   1.0000

          k = 1.3829-0.0859-0.5374 (  8563 PWs)   bands (ev):

    -9.7428  -9.6169  -9.4493  -9.1371  -9.0469  -8.8982  -4.6048  -4.5930
    -4.5509  -4.5224  -4.4823  -4.4726  -4.4519  -4.4455  -4.4307  -4.3639
    -4.3059  -4.2797  -4.2205  -4.1939  -4.1662  -4.1563  -4.1087  -3.9339
    -3.5168  -3.4249   2.3126   2.5025   2.5894   2.8172   3.8127   3.9003
     4.2093   4.7936   5.3008   5.4659   5.8920   6.0469   6.7585   6.9155
     7.1607   7.2572   7.4163   7.8487

     occupation numbers 
     1.0000   1.0000   1.0000   1.0000   1.0000   1.0000   1.0000   1.0000
     1.0000   1.0000   1.0000   1.0000   1.0000   1.0000   1.0000   1.0000
     1.0000   1.0000   1.0000   1.0000   1.0000   1.0000   1.0000   1.0000
     1.0000   1.0000   1.0000   1.0000   1.0000   1.0000   1.0000   1.0000
     1.0000   1.0000   1.0000   1.0000   1.0000   1.0000   1.0000   1.0000
     1.0000   1.0000   1.0000   1.0000

          k = 1.3829-0.0859-0.4443 (  8565 PWs)   bands (ev):

    -9.7153  -9.6600  -9.4496  -9.1305  -9.0392  -8.8953  -4.6026  -4.5964
    -4.5512  -4.5211  -4.4833  -4.4711  -4.4542  -4.4518  -4.4356  -4.3738
    -4.3207  -4.2603  -4.2235  -4.1952  -4.1711  -4.1520  -4.1024  -3.8853
    -3.5260  -3.4367   2.2812   2.5644   2.5816   2.7318   3.7669   3.8981
     4.2084   4.8442   5.2744   5.3076   6.0012   6.1445   6.6882   6.9549
     7.2892   7.3416   7.3581   7.8587

     occupation numbers 
     1.0000   1.0000   1.0000   1.0000   1.0000   1.0000   1.0000   1.0000
     1.0000   1.0000   1.0000   1.0000   1.0000   1.0000   1.0000   1.0000
     1.0000   1.0000   1.0000   1.0000   1.0000   1.0000   1.0000   1.0000
     1.0000   1.0000   1.0000   1.0000   1.0000   1.0000   1.0000   1.0000
     1.0000   1.0000   1.0000   1.0000   1.0000   1.0000   1.0000   1.0000
     1.0000   1.0000   1.0000   1.0000

          k = 1.3829-0.0859-0.3512 (  8551 PWs)   bands (ev):

    -9.7076  -9.6995  -9.4437  -9.1258  -9.0205  -8.8890  -4.6052  -4.5973
    -4.5512  -4.5211  -4.4925  -4.4736  -4.4595  -4.4558  -4.4388  -4.3905
    -4.3286  -4.2479  -4.2260  -4.1989  -4.1780  -4.1573  -4.0520  -3.8124
    -3.5435  -3.4551   2.1663   2.4514   2.5946   2.7282   3.6953   3.9501
     4.2479   4.8593   5.0771   5.3992   6.1039   6.2958   6.5859   7.0936
     7.2751   7.4324   7.4521   7.8916

     occupation numbers 
     1.0000   1.0000   1.0000   1.0000   1.0000   1.0000   1.0000   1.0000
     1.0000   1.0000   1.0000   1.0000   1.0000   1.0000   1.0000   1.0000
     1.0000   1.0000   1.0000   1.0000   1.0000   1.0000   1.0000   1.0000
     1.0000   1.0000   1.0000   1.0000   1.0000   1.0000   1.0000   1.0000
     1.0000   1.0000   1.0000   1.0000   1.0000   1.0000   1.0000   1.0000
     1.0000   1.0000   1.0000   1.0000

          k = 1.3829-0.0859-0.2582 (  8548 PWs)   bands (ev):

    -9.7520  -9.6973  -9.4277  -9.1292  -8.9909  -8.8835  -4.6101  -4.5954
    -4.5536  -4.5267  -4.5067  -4.4810  -4.4613  -4.4549  -4.4383  -4.4045
    -4.3307  -4.2477  -4.2240  -4.2044  -4.1790  -4.1629  -3.9812  -3.7360
    -3.5676  -3.4791   2.0166   2.2897   2.5661   2.7654   3.6238   4.0439
     4.3296   4.8384   4.9122   5.5422   6.1075   6.3215   6.7167   7.1950
     7.2500   7.5392   7.5760   7.9353

     occupation numbers 
     1.0000   1.0000   1.0000   1.0000   1.0000   1.0000   1.0000   1.0000
     1.0000   1.0000   1.0000   1.0000   1.0000   1.0000   1.0000   1.0000
     1.0000   1.0000   1.0000   1.0000   1.0000   1.0000   1.0000   1.0000
     1.0000   1.0000   1.0000   1.0000   1.0000   1.0000   1.0000   1.0000
     1.0000   1.0000   1.0000   1.0000   1.0000   1.0000   1.0000   1.0000
     1.0000   1.0000   1.0000   1.0000

          k = 1.3829-0.0859-0.1651 (  8546 PWs)   bands (ev):

    -9.7932  -9.6964  -9.4079  -9.1363  -8.9582  -8.8830  -4.6140  -4.5923
    -4.5628  -4.5370  -4.5133  -4.4874  -4.4639  -4.4513  -4.4348  -4.4127
    -4.3316  -4.2507  -4.2219  -4.2093  -4.1773  -4.1661  -3.9065  -3.6738
    -3.5921  -3.5055   1.8833   2.1346   2.5078   2.8142   3.5604   4.1637
     4.4418   4.7408   4.8668   5.6301   6.1110   6.2339   6.9242   7.2082
     7.3332   7.5959   7.7026   7.9828

     occupation numbers 
     1.0000   1.0000   1.0000   1.0000   1.0000   1.0000   1.0000   1.0000
     1.0000   1.0000   1.0000   1.0000   1.0000   1.0000   1.0000   1.0000
     1.0000   1.0000   1.0000   1.0000   1.0000   1.0000   1.0000   1.0000
     1.0000   1.0000   1.0000   1.0000   1.0000   1.0000   1.0000   1.0000
     1.0000   1.0000   1.0000   1.0000   1.0000   1.0000   1.0000   1.0000
     1.0000   1.0000   1.0000   1.0000

          k = 1.3829-0.0859-0.0720 (  8542 PWs)   bands (ev):

    -9.8267  -9.6901  -9.3922  -9.1422  -8.9288  -8.8907  -4.6161  -4.5894
    -4.5727  -4.5469  -4.5121  -4.4914  -4.4652  -4.4502  -4.4299  -4.4161
    -4.3331  -4.2522  -4.2212  -4.2125  -4.1754  -4.1677  -3.8464  -3.6527
    -3.5984  -3.5240   1.7989   2.0139   2.4445   2.8671   3.5134   4.2748
     4.5382   4.6623   4.8944   5.6245   6.1024   6.1920   6.9845   7.3084
     7.3802   7.6160   7.7794   8.0281

     occupation numbers 
     1.0000   1.0000   1.0000   1.0000   1.0000   1.0000   1.0000   1.0000
     1.0000   1.0000   1.0000   1.0000   1.0000   1.0000   1.0000   1.0000
     1.0000   1.0000   1.0000   1.0000   1.0000   1.0000   1.0000   1.0000
     1.0000   1.0000   1.0000   1.0000   1.0000   1.0000   1.0000   1.0000
     1.0000   1.0000   1.0000   1.0000   1.0000   1.0000   1.0000   1.0000
     1.0000   1.0000   1.0000   1.0000

          k = 1.2100-0.0429 0.0105 (  8537 PWs)   bands (ev):

    -9.6837  -9.5117  -9.3099  -9.2151  -8.9064  -8.9019  -4.5855  -4.5760
    -4.5500  -4.5313  -4.5163  -4.4971  -4.4600  -4.4200  -4.4084  -4.3547
    -4.3335  -4.2326  -4.1934  -4.1910  -4.1703  -4.1537  -3.7640  -3.7421
    -3.4896  -3.4001   1.6249   1.8366   2.0353   2.4228   3.3769   4.2724
     4.4727   4.5896   4.7868   5.3921   5.9756   6.3538   6.7250   7.3326
     7.4392   7.4910   7.7909   8.0263

     occupation numbers 
     1.0000   1.0000   1.0000   1.0000   1.0000   1.0000   1.0000   1.0000
     1.0000   1.0000   1.0000   1.0000   1.0000   1.0000   1.0000   1.0000
     1.0000   1.0000   1.0000   1.0000   1.0000   1.0000   1.0000   1.0000
     1.0000   1.0000   1.0000   1.0000   1.0000   1.0000   1.0000   1.0000
     1.0000   1.0000   1.0000   1.0000   1.0000   1.0000   1.0000   1.0000
     1.0000   1.0000   1.0000   1.0000

          k = 1.2100-0.0429 0.1036 (  8541 PWs)   bands (ev):

    -9.6824  -9.5048  -9.3136  -9.2125  -8.9160  -8.8998  -4.5858  -4.5715
    -4.5539  -4.5258  -4.5202  -4.4862  -4.4622  -4.4206  -4.4097  -4.3529
    -4.3327  -4.2309  -4.1960  -4.1890  -4.1701  -4.1525  -3.7830  -3.7480
    -3.4888  -3.4045   1.6305   1.8597   2.0602   2.4359   3.3913   4.1753
     4.4433   4.7071   4.8196   5.3775   6.0008   6.3508   6.7088   7.2318
     7.3981   7.4995   7.7816   7.9899

     occupation numbers 
     1.0000   1.0000   1.0000   1.0000   1.0000   1.0000   1.0000   1.0000
     1.0000   1.0000   1.0000   1.0000   1.0000   1.0000   1.0000   1.0000
     1.0000   1.0000   1.0000   1.0000   1.0000   1.0000   1.0000   1.0000
     1.0000   1.0000   1.0000   1.0000   1.0000   1.0000   1.0000   1.0000
     1.0000   1.0000   1.0000   1.0000   1.0000   1.0000   1.0000   1.0000
     1.0000   1.0000   1.0000   1.0000

          k = 1.2100-0.0429 0.1966 (  8541 PWs)   bands (ev):

    -9.6720  -9.4947  -9.3228  -9.2057  -8.9332  -8.9022  -4.5856  -4.5645
    -4.5506  -4.5276  -4.5158  -4.4734  -4.4618  -4.4221  -4.4124  -4.3489
    -4.3288  -4.2277  -4.2004  -4.1864  -4.1687  -4.1499  -3.8194  -3.7655
    -3.4988  -3.4164   1.6740   1.9356   2.1217   2.4497   3.4334   4.0353
     4.4356   4.6659   4.9600   5.3903   6.0799   6.3331   6.6925   7.0482
     7.3011   7.4661   7.7511   7.8915

     occupation numbers 
     1.0000   1.0000   1.0000   1.0000   1.0000   1.0000   1.0000   1.0000
     1.0000   1.0000   1.0000   1.0000   1.0000   1.0000   1.0000   1.0000
     1.0000   1.0000   1.0000   1.0000   1.0000   1.0000   1.0000   1.0000
     1.0000   1.0000   1.0000   1.0000   1.0000   1.0000   1.0000   1.0000
     1.0000   1.0000   1.0000   1.0000   1.0000   1.0000   1.0000   1.0000
     1.0000   1.0000   1.0000   1.0000

          k = 1.2100-0.0429 0.2897 (  8551 PWs)   bands (ev):

    -9.6530  -9.4870  -9.3328  -9.1970  -8.9525  -8.9104  -4.5826  -4.5649
    -4.5383  -4.5284  -4.5109  -4.4713  -4.4459  -4.4238  -4.4153  -4.3470
    -4.3187  -4.2237  -4.2068  -4.1835  -4.1660  -4.1450  -3.8684  -3.7939
    -3.5141  -3.4314   1.7422   2.0529   2.2069   2.4518   3.4930   3.9093
     4.4175   4.6169   5.0686   5.4143   6.1539   6.3160   6.6577   6.8733
     7.1829   7.3989   7.6975   7.7632

     occupation numbers 
     1.0000   1.0000   1.0000   1.0000   1.0000   1.0000   1.0000   1.0000
     1.0000   1.0000   1.0000   1.0000   1.0000   1.0000   1.0000   1.0000
     1.0000   1.0000   1.0000   1.0000   1.0000   1.0000   1.0000   1.0000
     1.0000   1.0000   1.0000   1.0000   1.0000   1.0000   1.0000   1.0000
     1.0000   1.0000   1.0000   1.0000   1.0000   1.0000   1.0000   1.0000
     1.0000   1.0000   1.0000   1.0000

          k = 1.2100-0.0429 0.3828 (  8552 PWs)   bands (ev):

    -9.6270  -9.4901  -9.3372  -9.1893  -8.9695  -8.9218  -4.5781  -4.5649
    -4.5374  -4.5246  -4.5034  -4.4657  -4.4335  -4.4233  -4.4151  -4.3478
    -4.3019  -4.2264  -4.2084  -4.1812  -4.1616  -4.1380  -3.9176  -3.8325
    -3.5243  -3.4480   1.8235   2.1845   2.2946   2.4326   3.5531   3.8082
     4.3774   4.6489   5.0738   5.4678   6.1376   6.2359   6.6400   6.8499
     7.0876   7.3075   7.5896   7.6753

     occupation numbers 
     1.0000   1.0000   1.0000   1.0000   1.0000   1.0000   1.0000   1.0000
     1.0000   1.0000   1.0000   1.0000   1.0000   1.0000   1.0000   1.0000
     1.0000   1.0000   1.0000   1.0000   1.0000   1.0000   1.0000   1.0000
     1.0000   1.0000   1.0000   1.0000   1.0000   1.0000   1.0000   1.0000
     1.0000   1.0000   1.0000   1.0000   1.0000   1.0000   1.0000   1.0000
     1.0000   1.0000   1.0000   1.0000

          k = 1.2100-0.0429 0.4758 (  8563 PWs)   bands (ev):

    -9.5963  -9.5082  -9.3346  -9.1850  -8.9801  -8.9321  -4.5737  -4.5644
    -4.5361  -4.5304  -4.4932  -4.4567  -4.4333  -4.4245  -4.4068  -4.3491
    -4.2809  -4.2405  -4.2033  -4.1804  -4.1558  -4.1313  -3.9535  -3.8682
    -3.5268  -3.4638   1.9056   2.2888   2.3511   2.4042   3.6004   3.7362
     4.3299   4.7619   5.0001   5.5237   6.0034   6.1337   6.7589   6.8846
     7.0200   7.2344   7.4692   7.6267

     occupation numbers 
     1.0000   1.0000   1.0000   1.0000   1.0000   1.0000   1.0000   1.0000
     1.0000   1.0000   1.0000   1.0000   1.0000   1.0000   1.0000   1.0000
     1.0000   1.0000   1.0000   1.0000   1.0000   1.0000   1.0000   1.0000
     1.0000   1.0000   1.0000   1.0000   1.0000   1.0000   1.0000   1.0000
     1.0000   1.0000   1.0000   1.0000   1.0000   1.0000   1.0000   1.0000
     1.0000   1.0000   1.0000   1.0000

          k = 1.2100-0.0429-0.5479 (  8560 PWs)   bands (ev):

    -9.5654  -9.5366  -9.3318  -9.1838  -8.9833  -8.9360  -4.5714  -4.5639
    -4.5380  -4.5313  -4.4884  -4.4515  -4.4367  -4.4263  -4.4033  -4.3487
    -4.2667  -4.2533  -4.2008  -4.1804  -4.1514  -4.1303  -3.9654  -3.8782
    -3.5283  -3.4726   1.9671   2.3094   2.3465   2.4110   3.6117   3.7250
     4.2868   4.7921   5.0113   5.5177   5.9217   6.1015   6.8442   6.9199
     6.9735   7.2543   7.3842   7.6077

     occupation numbers 
     1.0000   1.0000   1.0000   1.0000   1.0000   1.0000   1.0000   1.0000
     1.0000   1.0000   1.0000   1.0000   1.0000   1.0000   1.0000   1.0000
     1.0000   1.0000   1.0000   1.0000   1.0000   1.0000   1.0000   1.0000
     1.0000   1.0000   1.0000   1.0000   1.0000   1.0000   1.0000   1.0000
     1.0000   1.0000   1.0000   1.0000   1.0000   1.0000   1.0000   1.0000
     1.0000   1.0000   1.0000   1.0000

          k = 1.2100-0.0429-0.4548 (  8554 PWs)   bands (ev):

    -9.5730  -9.5348  -9.3331  -9.1849  -8.9800  -8.9307  -4.5728  -4.5633
    -4.5422  -4.5250  -4.4904  -4.4567  -4.4401  -4.4262  -4.4075  -4.3462
    -4.2857  -4.2394  -4.2039  -4.1807  -4.1526  -4.1359  -3.9481  -3.8537
    -3.5339  -3.4689   1.9762   2.2583   2.3220   2.4055   3.5889   3.7755
     4.2530   4.6901   5.1103   5.4667   6.0166   6.1159   6.7095   6.9705
     7.0693   7.2886   7.4154   7.6232

     occupation numbers 
     1.0000   1.0000   1.0000   1.0000   1.0000   1.0000   1.0000   1.0000
     1.0000   1.0000   1.0000   1.0000   1.0000   1.0000   1.0000   1.0000
     1.0000   1.0000   1.0000   1.0000   1.0000   1.0000   1.0000   1.0000
     1.0000   1.0000   1.0000   1.0000   1.0000   1.0000   1.0000   1.0000
     1.0000   1.0000   1.0000   1.0000   1.0000   1.0000   1.0000   1.0000
     1.0000   1.0000   1.0000   1.0000

          k = 1.2100-0.0429-0.3617 (  8563 PWs)   bands (ev):

    -9.6058  -9.5166  -9.3344  -9.1894  -8.9692  -8.9196  -4.5773  -4.5628
    -4.5425  -4.5180  -4.5022  -4.4664  -4.4477  -4.4243  -4.4130  -4.3436
    -4.3061  -4.2294  -4.2072  -4.1818  -4.1574  -4.1439  -3.9045  -3.8129
    -3.5369  -3.4569   1.9248   2.1652   2.2602   2.4073   3.5524   3.8513
     4.2411   4.6282   5.0806   5.4755   6.1436   6.2036   6.6095   6.9554
     7.1755   7.3346   7.5551   7.6635

     occupation numbers 
     1.0000   1.0000   1.0000   1.0000   1.0000   1.0000   1.0000   1.0000
     1.0000   1.0000   1.0000   1.0000   1.0000   1.0000   1.0000   1.0000
     1.0000   1.0000   1.0000   1.0000   1.0000   1.0000   1.0000   1.0000
     1.0000   1.0000   1.0000   1.0000   1.0000   1.0000   1.0000   1.0000
     1.0000   1.0000   1.0000   1.0000   1.0000   1.0000   1.0000   1.0000
     1.0000   1.0000   1.0000   1.0000

          k = 1.2100-0.0429-0.2687 (  8556 PWs)   bands (ev):

    -9.6356  -9.5098  -9.3300  -9.1975  -8.9521  -8.9081  -4.5826  -4.5617
    -4.5401  -4.5222  -4.5135  -4.4751  -4.4583  -4.4227  -4.4135  -4.3433
    -4.3214  -4.2287  -4.2040  -4.1843  -4.1626  -4.1497  -3.8483  -3.7784
    -3.5297  -3.4412   1.8383   2.0451   2.1805   2.4155   3.4967   3.9561
     4.2656   4.6408   4.9411   5.5125   6.1658   6.2620   6.6581   6.9898
     7.2629   7.3992   7.6950   7.7382

     occupation numbers 
     1.0000   1.0000   1.0000   1.0000   1.0000   1.0000   1.0000   1.0000
     1.0000   1.0000   1.0000   1.0000   1.0000   1.0000   1.0000   1.0000
     1.0000   1.0000   1.0000   1.0000   1.0000   1.0000   1.0000   1.0000
     1.0000   1.0000   1.0000   1.0000   1.0000   1.0000   1.0000   1.0000
     1.0000   1.0000   1.0000   1.0000   1.0000   1.0000   1.0000   1.0000
     1.0000   1.0000   1.0000   1.0000

          k = 1.2100-0.0429-0.1756 (  8538 PWs)   bands (ev):

    -9.6594  -9.5110  -9.3210  -9.2064  -8.9330  -8.9001  -4.5867  -4.5588
    -4.5489  -4.5291  -4.5161  -4.4858  -4.4623  -4.4214  -4.4112  -4.3470
    -4.3296  -4.2312  -4.1983  -4.1875  -4.1668  -4.1527  -3.7947  -3.7607
    -3.5141  -3.4235   1.7424   1.9392   2.1029   2.4175   3.4364   4.0928
     4.3313   4.6823   4.7858   5.4961   6.1043   6.2868   6.7223   7.1436
     7.3481   7.4446   7.7463   7.8827

     occupation numbers 
     1.0000   1.0000   1.0000   1.0000   1.0000   1.0000   1.0000   1.0000
     1.0000   1.0000   1.0000   1.0000   1.0000   1.0000   1.0000   1.0000
     1.0000   1.0000   1.0000   1.0000   1.0000   1.0000   1.0000   1.0000
     1.0000   1.0000   1.0000   1.0000   1.0000   1.0000   1.0000   1.0000
     1.0000   1.0000   1.0000   1.0000   1.0000   1.0000   1.0000   1.0000
     1.0000   1.0000   1.0000   1.0000

          k = 1.2100-0.0429-0.0826 (  8533 PWs)   bands (ev):

    -9.6758  -9.5132  -9.3128  -9.2129  -8.9163  -8.8981  -4.5878  -4.5664
    -4.5530  -4.5257  -4.5211  -4.4950  -4.4608  -4.4203  -4.4091  -4.3523
    -4.3326  -4.2327  -4.1939  -4.1906  -4.1693  -4.1538  -3.7575  -3.7565
    -3.4991  -3.4074   1.6643   1.8659   2.0506   2.4172   3.3929   4.2266
     4.4360   4.5944   4.7640   5.4414   6.0172   6.3307   6.7341   7.3016
     7.4157   7.4667   7.7780   7.9883

     occupation numbers 
     1.0000   1.0000   1.0000   1.0000   1.0000   1.0000   1.0000   1.0000
     1.0000   1.0000   1.0000   1.0000   1.0000   1.0000   1.0000   1.0000
     1.0000   1.0000   1.0000   1.0000   1.0000   1.0000   1.0000   1.0000
     1.0000   1.0000   1.0000   1.0000   1.0000   1.0000   1.0000   1.0000
     1.0000   1.0000   1.0000   1.0000   1.0000   1.0000   1.0000   1.0000
     1.0000   1.0000   1.0000   1.0000

          k = 1.0372 0.0000 0.0000 (  8548 PWs)   bands (ev):

    -9.6589  -9.3911  -9.3036  -9.2367  -8.9089  -8.8988  -4.5844  -4.5769
    -4.5482  -4.5250  -4.5165  -4.4799  -4.4550  -4.4096  -4.3827  -4.3619
    -4.2719  -4.2037  -4.2019  -4.1777  -4.1619  -4.1413  -3.8746  -3.7189
    -3.4055  -3.3738   1.4855   1.5486   1.7837   2.6663   3.2803   4.2032
     4.5469   4.6658   4.8070   5.3594   5.9081   6.4996   6.6240   7.2493
     7.2746   7.4957   7.6902   8.0024

     occupation numbers 
     1.0000   1.0000   1.0000   1.0000   1.0000   1.0000   1.0000   1.0000
     1.0000   1.0000   1.0000   1.0000   1.0000   1.0000   1.0000   1.0000
     1.0000   1.0000   1.0000   1.0000   1.0000   1.0000   1.0000   1.0000
     1.0000   1.0000   1.0000   1.0000   1.0000   1.0000   1.0000   1.0000
     1.0000   1.0000   1.0000   1.0000   1.0000   1.0000   1.0000   1.0000
     1.0000   1.0000   1.0000   1.0000

          k = 1.0372 0.0000 0.0931 (  8545 PWs)   bands (ev):

    -9.6541  -9.3938  -9.2998  -9.2368  -8.9122  -8.9016  -4.5859  -4.5690
    -4.5488  -4.5273  -4.5154  -4.4806  -4.4517  -4.4096  -4.3850  -4.3591
    -4.2716  -4.2034  -4.2005  -4.1800  -4.1606  -4.1407  -3.8729  -3.7224
    -3.4169  -3.3874   1.4926   1.5860   1.8129   2.6648   3.2999   4.1266
     4.5019   4.6872   4.8474   5.3839   5.9460   6.4776   6.6406   7.1056
     7.3560   7.4636   7.6696   7.9731

     occupation numbers 
     1.0000   1.0000   1.0000   1.0000   1.0000   1.0000   1.0000   1.0000
     1.0000   1.0000   1.0000   1.0000   1.0000   1.0000   1.0000   1.0000
     1.0000   1.0000   1.0000   1.0000   1.0000   1.0000   1.0000   1.0000
     1.0000   1.0000   1.0000   1.0000   1.0000   1.0000   1.0000   1.0000
     1.0000   1.0000   1.0000   1.0000   1.0000   1.0000   1.0000   1.0000
     1.0000   1.0000   1.0000   1.0000

          k = 1.0372 0.0000 0.1861 (  8551 PWs)   bands (ev):

    -9.6402  -9.4025  -9.2893  -9.2362  -8.9216  -8.9095  -4.5846  -4.5543
    -4.5479  -4.5327  -4.5137  -4.4820  -4.4431  -4.4088  -4.3901  -4.3538
    -4.2703  -4.2021  -4.1967  -4.1863  -4.1573  -4.1391  -3.8677  -3.7327
    -3.4475  -3.4247   1.5253   1.6776   1.8963   2.6496   3.3600   3.9736
     4.4034   4.7004   4.9388   5.4430   6.0391   6.4280   6.6656   6.9022
     7.3546   7.4255   7.6128   7.8927

     occupation numbers 
     1.0000   1.0000   1.0000   1.0000   1.0000   1.0000   1.0000   1.0000
     1.0000   1.0000   1.0000   1.0000   1.0000   1.0000   1.0000   1.0000
     1.0000   1.0000   1.0000   1.0000   1.0000   1.0000   1.0000   1.0000
     1.0000   1.0000   1.0000   1.0000   1.0000   1.0000   1.0000   1.0000
     1.0000   1.0000   1.0000   1.0000   1.0000   1.0000   1.0000   1.0000
     1.0000   1.0000   1.0000   1.0000

          k = 1.0372 0.0000 0.2792 (  8554 PWs)   bands (ev):

    -9.6181  -9.4188  -9.2742  -9.2333  -8.9352  -8.9208  -4.5802  -4.5519
    -4.5401  -4.5272  -4.5154  -4.4797  -4.4355  -4.4043  -4.3960  -4.3499
    -4.2676  -4.2001  -4.1963  -4.1904  -4.1529  -4.1372  -3.8589  -3.7491
    -3.4892  -3.4757   1.5848   1.7987   2.0185   2.6020   3.4487   3.8276
     4.3116   4.6957   5.0373   5.4883   6.1192   6.3439   6.6926   6.7197
     7.2730   7.4247   7.5276   7.7828

     occupation numbers 
     1.0000   1.0000   1.0000   1.0000   1.0000   1.0000   1.0000   1.0000
     1.0000   1.0000   1.0000   1.0000   1.0000   1.0000   1.0000   1.0000
     1.0000   1.0000   1.0000   1.0000   1.0000   1.0000   1.0000   1.0000
     1.0000   1.0000   1.0000   1.0000   1.0000   1.0000   1.0000   1.0000
     1.0000   1.0000   1.0000   1.0000   1.0000   1.0000   1.0000   1.0000
     1.0000   1.0000   1.0000   1.0000

          k = 1.0372 0.0000 0.3722 (  8548 PWs)   bands (ev):

    -9.5899  -9.4426  -9.2577  -9.2284  -8.9501  -8.9330  -4.5743  -4.5538
    -4.5411  -4.5251  -4.4999  -4.4734  -4.4335  -4.4055  -4.3920  -4.3495
    -4.2622  -4.2099  -4.1946  -4.1850  -4.1483  -4.1357  -3.8468  -3.7699
    -3.5370  -3.5210   1.6602   1.9252   2.1512   2.5198   3.5157   3.7221
     4.2970   4.7050   5.1105   5.4574   6.0868   6.2206   6.6826   6.7559
     7.2035   7.4007   7.4241   7.6764

     occupation numbers 
     1.0000   1.0000   1.0000   1.0000   1.0000   1.0000   1.0000   1.0000
     1.0000   1.0000   1.0000   1.0000   1.0000   1.0000   1.0000   1.0000
     1.0000   1.0000   1.0000   1.0000   1.0000   1.0000   1.0000   1.0000
     1.0000   1.0000   1.0000   1.0000   1.0000   1.0000   1.0000   1.0000
     1.0000   1.0000   1.0000   1.0000   1.0000   1.0000   1.0000   1.0000
     1.0000   1.0000   1.0000   1.0000

          k = 1.0372 0.0000 0.4653 (  8541 PWs)   bands (ev):

    -9.5591  -9.4709  -9.2443  -9.2237  -8.9620  -8.9425  -4.5685  -4.5574
    -4.5405  -4.5297  -4.4806  -4.4659  -4.4340  -4.4129  -4.3821  -4.3524
    -4.2530  -4.2239  -4.1901  -4.1808  -4.1440  -4.1358  -3.8315  -3.7921
    -3.5778  -3.5489   1.7308   2.0268   2.2619   2.4249   3.5219   3.6633
     4.3786   4.7627   5.1059   5.3462   6.0137   6.1088   6.7574   6.8550
     7.1391   7.2936   7.3934   7.6024

     occupation numbers 
     1.0000   1.0000   1.0000   1.0000   1.0000   1.0000   1.0000   1.0000
     1.0000   1.0000   1.0000   1.0000   1.0000   1.0000   1.0000   1.0000
     1.0000   1.0000   1.0000   1.0000   1.0000   1.0000   1.0000   1.0000
     1.0000   1.0000   1.0000   1.0000   1.0000   1.0000   1.0000   1.0000
     1.0000   1.0000   1.0000   1.0000   1.0000   1.0000   1.0000   1.0000
     1.0000   1.0000   1.0000   1.0000

          k = 1.0372 0.0000-0.5584 (  8550 PWs)   bands (ev):

    -9.5399  -9.4893  -9.2390  -9.2218  -8.9667  -8.9461  -4.5644  -4.5609
    -4.5399  -4.5315  -4.4739  -4.4607  -4.4345  -4.4169  -4.3777  -4.3547
    -4.2436  -4.2350  -4.1880  -4.1793  -4.1417  -4.1366  -3.8162  -3.8101
    -3.5936  -3.5585   1.7618   2.0672   2.3367   2.3490   3.5118   3.6452
     4.4342   4.8612   5.0039   5.2991   5.9891   6.0652   6.8024   6.9261
     7.0925   7.2330   7.3860   7.5757

     occupation numbers 
     1.0000   1.0000   1.0000   1.0000   1.0000   1.0000   1.0000   1.0000
     1.0000   1.0000   1.0000   1.0000   1.0000   1.0000   1.0000   1.0000
     1.0000   1.0000   1.0000   1.0000   1.0000   1.0000   1.0000   1.0000
     1.0000   1.0000   1.0000   1.0000   1.0000   1.0000   1.0000   1.0000
     1.0000   1.0000   1.0000   1.0000   1.0000   1.0000   1.0000   1.0000
     1.0000   1.0000   1.0000   1.0000

          k = 0.0000 0.3435-0.0841 (  8561 PWs)   bands (ev):

   -10.5219 -10.0214  -9.6404  -9.1666  -8.9197  -8.9017  -4.7276  -4.7201
    -4.7087  -4.6482  -4.5087  -4.4875  -4.4856  -4.4614  -4.4398  -4.3965
    -4.2991  -4.2975  -4.2883  -4.2754  -4.1928  -4.1865  -4.1388  -4.1086
    -4.0129  -3.3867   1.2401   2.1088   3.3278   4.3129   5.1278   5.2082
     5.4783   5.9580   6.1641   6.3966   6.6946   6.8973   7.0032   7.3009
     7.5597   7.5806   7.6934   8.0287

     occupation numbers 
     1.0000   1.0000   1.0000   1.0000   1.0000   1.0000   1.0000   1.0000
     1.0000   1.0000   1.0000   1.0000   1.0000   1.0000   1.0000   1.0000
     1.0000   1.0000   1.0000   1.0000   1.0000   1.0000   1.0000   1.0000
     1.0000   1.0000   1.0000   1.0000   1.0000   1.0000   1.0000   1.0000
     1.0000   1.0000   1.0000   1.0000   1.0000   1.0000   1.0000   1.0000
     1.0000   1.0000   1.0000   1.0000

          k = 0.0000 0.3435 0.0090 (  8542 PWs)   bands (ev):

   -10.5369  -9.9719  -9.6453  -9.1864  -8.9669  -8.8700  -4.7279  -4.7200
    -4.7098  -4.6478  -4.5186  -4.5014  -4.4834  -4.4592  -4.4443  -4.4121
    -4.3012  -4.2909  -4.2819  -4.2705  -4.1936  -4.1852  -4.1390  -4.1187
    -3.9594  -3.4180   1.3604   2.1476   3.3039   4.3144   4.9671   5.1638
     5.3246   6.0768   6.1536   6.3115   6.6587   6.9932   7.0695   7.3314
     7.5415   7.5913   7.7547   8.0406

     occupation numbers 
     1.0000   1.0000   1.0000   1.0000   1.0000   1.0000   1.0000   1.0000
     1.0000   1.0000   1.0000   1.0000   1.0000   1.0000   1.0000   1.0000
     1.0000   1.0000   1.0000   1.0000   1.0000   1.0000   1.0000   1.0000
     1.0000   1.0000   1.0000   1.0000   1.0000   1.0000   1.0000   1.0000
     1.0000   1.0000   1.0000   1.0000   1.0000   1.0000   1.0000   1.0000
     1.0000   1.0000   1.0000   1.0000

          k = 0.0000 0.3435 0.1021 (  8539 PWs)   bands (ev):

   -10.5293  -9.9144  -9.6708  -9.2217  -9.0125  -8.8437  -4.7246  -4.7200
    -4.7118  -4.6478  -4.5577  -4.5183  -4.4740  -4.4596  -4.4520  -4.4128
    -4.3085  -4.2986  -4.2696  -4.2657  -4.1943  -4.1871  -4.1390  -4.1254
    -3.8720  -3.4541   1.5706   2.2498   3.2467   4.3197   4.7243   5.1646
     5.2325   6.0335   6.1366   6.2162   6.5595   7.0743   7.1010   7.4002
     7.5333   7.6049   7.7628   8.0782

     occupation numbers 
     1.0000   1.0000   1.0000   1.0000   1.0000   1.0000   1.0000   1.0000
     1.0000   1.0000   1.0000   1.0000   1.0000   1.0000   1.0000   1.0000
     1.0000   1.0000   1.0000   1.0000   1.0000   1.0000   1.0000   1.0000
     1.0000   1.0000   1.0000   1.0000   1.0000   1.0000   1.0000   1.0000
     1.0000   1.0000   1.0000   1.0000   1.0000   1.0000   1.0000   1.0000
     1.0000   1.0000   1.0000   1.0000

          k = 0.0000 0.3435 0.1951 (  8534 PWs)   bands (ev):

   -10.5005  -9.8586  -9.7119  -9.2735  -9.0413  -8.8262  -4.7199  -4.7178
    -4.7141  -4.6484  -4.5994  -4.5428  -4.4685  -4.4605  -4.4407  -4.4140
    -4.3203  -4.3105  -4.2681  -4.2571  -4.1947  -4.1912  -4.1388  -4.1253
    -3.7736  -3.4919   1.8521   2.4144   3.1301   4.1894   4.6331   5.0495
     5.3297   5.8406   6.0500   6.1825   6.4695   7.0975   7.1086   7.4759
     7.5319   7.6220   7.7206   8.1275

     occupation numbers 
     1.0000   1.0000   1.0000   1.0000   1.0000   1.0000   1.0000   1.0000
     1.0000   1.0000   1.0000   1.0000   1.0000   1.0000   1.0000   1.0000
     1.0000   1.0000   1.0000   1.0000   1.0000   1.0000   1.0000   1.0000
     1.0000   1.0000   1.0000   1.0000   1.0000   1.0000   1.0000   1.0000
     1.0000   1.0000   1.0000   1.0000   1.0000   1.0000   1.0000   1.0000
     1.0000   1.0000   1.0000   1.0000

          k = 0.0000 0.3435 0.2882 (  8532 PWs)   bands (ev):

   -10.4541  -9.8336  -9.7501  -9.3230  -9.0538  -8.8165  -4.7195  -4.7164
    -4.7084  -4.6506  -4.6292  -4.5703  -4.4745  -4.4453  -4.4267  -4.4145
    -4.3349  -4.3250  -4.2714  -4.2506  -4.1948  -4.1940  -4.1384  -4.1205
    -3.6898  -3.5214   2.1768   2.6214   2.9609   3.8962   4.7265   5.0097
     5.4475   5.5819   5.9145   6.2021   6.3718   7.0629   7.1162   7.5308
     7.5333   7.6411   7.6530   8.1612

     occupation numbers 
     1.0000   1.0000   1.0000   1.0000   1.0000   1.0000   1.0000   1.0000
     1.0000   1.0000   1.0000   1.0000   1.0000   1.0000   1.0000   1.0000
     1.0000   1.0000   1.0000   1.0000   1.0000   1.0000   1.0000   1.0000
     1.0000   1.0000   1.0000   1.0000   1.0000   1.0000   1.0000   1.0000
     1.0000   1.0000   1.0000   1.0000   1.0000   1.0000   1.0000   1.0000
     1.0000   1.0000   1.0000   1.0000

          k = 0.0000 0.3435 0.3812 (  8536 PWs)   bands (ev):

   -10.3966  -9.8815  -9.7570  -9.3400  -9.0572  -8.8125  -4.7189  -4.7180
    -4.6977  -4.6603  -4.6364  -4.5951  -4.4789  -4.4325  -4.4124  -4.4120
    -4.3482  -4.3396  -4.2770  -4.2471  -4.1945  -4.1944  -4.1381  -4.1148
    -3.6665  -3.5073   2.4997   2.6061   3.0058   3.5901   4.8859   5.0098
     5.3505   5.5611   5.7896   6.2428   6.2620   7.0033   7.1187   7.5344
     7.5357   7.5932   7.6587   8.1674

     occupation numbers 
     1.0000   1.0000   1.0000   1.0000   1.0000   1.0000   1.0000   1.0000
     1.0000   1.0000   1.0000   1.0000   1.0000   1.0000   1.0000   1.0000
     1.0000   1.0000   1.0000   1.0000   1.0000   1.0000   1.0000   1.0000
     1.0000   1.0000   1.0000   1.0000   1.0000   1.0000   1.0000   1.0000
     1.0000   1.0000   1.0000   1.0000   1.0000   1.0000   1.0000   1.0000
     1.0000   1.0000   1.0000   1.0000

          k = 0.0000 0.3435-0.6424 (  8531 PWs)   bands (ev):

   -10.3389  -9.9618  -9.7668  -9.3132  -9.0568  -8.8117  -4.7202  -4.7169
    -4.6880  -4.6696  -4.6265  -4.6128  -4.4817  -4.4294  -4.4061  -4.4027
    -4.3536  -4.3478  -4.2837  -4.2462  -4.1939  -4.1938  -4.1378  -4.1097
    -3.7062  -3.4531   2.3114   2.8123   3.0750   3.5615   4.8955   5.1144
     5.2626   5.5493   5.7986   6.1663   6.3023   6.9261   7.1228   7.4623
     7.5388   7.5747   7.6707   8.1481

     occupation numbers 
     1.0000   1.0000   1.0000   1.0000   1.0000   1.0000   1.0000   1.0000
     1.0000   1.0000   1.0000   1.0000   1.0000   1.0000   1.0000   1.0000
     1.0000   1.0000   1.0000   1.0000   1.0000   1.0000   1.0000   1.0000
     1.0000   1.0000   1.0000   1.0000   1.0000   1.0000   1.0000   1.0000
     1.0000   1.0000   1.0000   1.0000   1.0000   1.0000   1.0000   1.0000
     1.0000   1.0000   1.0000   1.0000

          k = 0.0000 0.3435-0.5494 (  8516 PWs)   bands (ev):

   -10.3001 -10.0408  -9.7746  -9.2607  -9.0545  -8.8127  -4.7211  -4.7149
    -4.6891  -4.6648  -4.6198  -4.6067  -4.4823  -4.4383  -4.4078  -4.3955
    -4.3457  -4.3430  -4.2914  -4.2479  -4.1932  -4.1931  -4.1377  -4.1058
    -3.7683  -3.4025   2.0030   2.8135   3.0750   3.9360   4.7569   5.2449
     5.3732   5.4323   5.9162   6.1136   6.3808   6.8408   7.1132   7.3979
     7.5410   7.5429   7.6737   8.1147

     occupation numbers 
     1.0000   1.0000   1.0000   1.0000   1.0000   1.0000   1.0000   1.0000
     1.0000   1.0000   1.0000   1.0000   1.0000   1.0000   1.0000   1.0000
     1.0000   1.0000   1.0000   1.0000   1.0000   1.0000   1.0000   1.0000
     1.0000   1.0000   1.0000   1.0000   1.0000   1.0000   1.0000   1.0000
     1.0000   1.0000   1.0000   1.0000   1.0000   1.0000   1.0000   1.0000
     1.0000   1.0000   1.0000   1.0000

          k = 0.0000 0.3435-0.4563 (  8515 PWs)   bands (ev):

   -10.3082 -10.0883  -9.7628  -9.2059  -9.0475  -8.8159  -4.7215  -4.7128
    -4.6980  -4.6551  -4.6089  -4.5804  -4.4807  -4.4529  -4.4221  -4.3811
    -4.3326  -4.3286  -4.3000  -4.2522  -4.1930  -4.1925  -4.1377  -4.1024
    -3.8394  -3.3676   1.7118   2.5690   3.2362   4.3367   4.6884   5.2768
     5.3174   5.6177   6.0270   6.0983   6.4741   6.7613   7.0644   7.3927
     7.4856   7.5481   7.6656   8.0805

     occupation numbers 
     1.0000   1.0000   1.0000   1.0000   1.0000   1.0000   1.0000   1.0000
     1.0000   1.0000   1.0000   1.0000   1.0000   1.0000   1.0000   1.0000
     1.0000   1.0000   1.0000   1.0000   1.0000   1.0000   1.0000   1.0000
     1.0000   1.0000   1.0000   1.0000   1.0000   1.0000   1.0000   1.0000
     1.0000   1.0000   1.0000   1.0000   1.0000   1.0000   1.0000   1.0000
     1.0000   1.0000   1.0000   1.0000

          k = 0.0000 0.3435-0.3633 (  8524 PWs)   bands (ev):

   -10.3630 -10.0959  -9.7304  -9.1680  -9.0276  -8.8242  -4.7213  -4.7108
    -4.7079  -4.6514  -4.5776  -4.5512  -4.4771  -4.4676  -4.4372  -4.3657
    -4.3199  -4.3127  -4.3092  -4.2593  -4.1931  -4.1921  -4.1378  -4.0996
    -3.9122  -3.3505   1.4688   2.3662   3.3168   4.4506   4.9322   5.2240
     5.3282   5.8227   6.1070   6.1170   6.5447   6.7278   6.9971   7.4193
     7.4439   7.5545   7.6464   8.0540

     occupation numbers 
     1.0000   1.0000   1.0000   1.0000   1.0000   1.0000   1.0000   1.0000
     1.0000   1.0000   1.0000   1.0000   1.0000   1.0000   1.0000   1.0000
     1.0000   1.0000   1.0000   1.0000   1.0000   1.0000   1.0000   1.0000
     1.0000   1.0000   1.0000   1.0000   1.0000   1.0000   1.0000   1.0000
     1.0000   1.0000   1.0000   1.0000   1.0000   1.0000   1.0000   1.0000
     1.0000   1.0000   1.0000   1.0000

          k = 0.0000 0.3435-0.2702 (  8532 PWs)   bands (ev):

   -10.4290 -10.0837  -9.6901  -9.1542  -8.9912  -8.8417  -4.7209  -4.7168
    -4.7092  -4.6500  -4.5411  -4.5180  -4.4791  -4.4725  -4.4498  -4.3562
    -4.3156  -4.3091  -4.2997  -4.2684  -4.1925  -4.1919  -4.1381  -4.0985
    -3.9766  -3.3498   1.2986   2.2194   3.3402   4.3968   5.1589   5.3019
     5.3984   5.8137   6.1523   6.2916   6.5244   6.8001   6.9423   7.3596
     7.5212   7.5621   7.6188   8.0376

     occupation numbers 
     1.0000   1.0000   1.0000   1.0000   1.0000   1.0000   1.0000   1.0000
     1.0000   1.0000   1.0000   1.0000   1.0000   1.0000   1.0000   1.0000
     1.0000   1.0000   1.0000   1.0000   1.0000   1.0000   1.0000   1.0000
     1.0000   1.0000   1.0000   1.0000   1.0000   1.0000   1.0000   1.0000
     1.0000   1.0000   1.0000   1.0000   1.0000   1.0000   1.0000   1.0000
     1.0000   1.0000   1.0000   1.0000

          k = 0.0000 0.3435-0.1771 (  8542 PWs)   bands (ev):

   -10.4848 -10.0589  -9.6567  -9.1561  -8.9480  -8.8716  -4.7237  -4.7204
    -4.7084  -4.6490  -4.5184  -4.4861  -4.4855  -4.4621  -4.4582  -4.3672
    -4.3108  -4.3019  -4.2914  -4.2757  -4.1922  -4.1900  -4.1384  -4.1011
    -4.0165  -3.3629   1.2193   2.1330   3.3386   4.3422   5.1262   5.3550
     5.5883   5.7524   6.1677   6.4661   6.5334   6.9014   6.9082   7.3161
     7.5703   7.5881   7.6086   8.0297

     occupation numbers 
     1.0000   1.0000   1.0000   1.0000   1.0000   1.0000   1.0000   1.0000
     1.0000   1.0000   1.0000   1.0000   1.0000   1.0000   1.0000   1.0000
     1.0000   1.0000   1.0000   1.0000   1.0000   1.0000   1.0000   1.0000
     1.0000   1.0000   1.0000   1.0000   1.0000   1.0000   1.0000   1.0000
     1.0000   1.0000   1.0000   1.0000   1.0000   1.0000   1.0000   1.0000
     1.0000   1.0000   1.0000   1.0000

          k =-0.1729 0.3864-0.0946 (  8543 PWs)   bands (ev):

   -10.4259 -10.0538  -9.6168  -9.1440  -8.9207  -8.9026  -4.7430  -4.7120
    -4.6780  -4.6295  -4.5168  -4.5019  -4.4928  -4.4544  -4.4240  -4.4014
    -4.3360  -4.3217  -4.2850  -4.2266  -4.2052  -4.1448  -4.1428  -4.0666
    -3.9757  -3.3585   1.2848   2.1012   3.3525   4.2636   4.8964   5.1271
     5.3421   5.7958   6.0028   6.0919   6.7345   6.8726   7.1058   7.2611
     7.4632   7.5086   7.7303   8.0235

     occupation numbers 
     1.0000   1.0000   1.0000   1.0000   1.0000   1.0000   1.0000   1.0000
     1.0000   1.0000   1.0000   1.0000   1.0000   1.0000   1.0000   1.0000
     1.0000   1.0000   1.0000   1.0000   1.0000   1.0000   1.0000   1.0000
     1.0000   1.0000   1.0000   1.0000   1.0000   1.0000   1.0000   1.0000
     1.0000   1.0000   1.0000   1.0000   1.0000   1.0000   1.0000   1.0000
     1.0000   1.0000   1.0000   1.0000

          k =-0.1729 0.3864-0.0015 (  8539 PWs)   bands (ev):

   -10.4436 -10.0063  -9.6223  -9.1574  -8.9685  -8.8709  -4.7429  -4.7129
    -4.6780  -4.6291  -4.5239  -4.5124  -4.4851  -4.4534  -4.4375  -4.4056
    -4.3321  -4.3201  -4.2786  -4.2310  -4.2057  -4.1539  -4.1423  -4.0738
    -3.9271  -3.3820   1.3921   2.1320   3.3293   4.2737   4.9082   4.9695
     5.1696   5.9399   6.0027   6.1289   6.5987   6.8832   7.1661   7.2941
     7.4420   7.5220   7.7574   8.0392

     occupation numbers 
     1.0000   1.0000   1.0000   1.0000   1.0000   1.0000   1.0000   1.0000
     1.0000   1.0000   1.0000   1.0000   1.0000   1.0000   1.0000   1.0000
     1.0000   1.0000   1.0000   1.0000   1.0000   1.0000   1.0000   1.0000
     1.0000   1.0000   1.0000   1.0000   1.0000   1.0000   1.0000   1.0000
     1.0000   1.0000   1.0000   1.0000   1.0000   1.0000   1.0000   1.0000
     1.0000   1.0000   1.0000   1.0000

          k =-0.1729 0.3864 0.0915 (  8533 PWs)   bands (ev):

   -10.4400  -9.9488  -9.6469  -9.1854  -9.0167  -8.8450  -4.7406  -4.7142
    -4.6770  -4.6299  -4.5508  -4.5243  -4.4783  -4.4578  -4.4453  -4.4048
    -4.3287  -4.3248  -4.2701  -4.2385  -4.2050  -4.1642  -4.1419  -4.0880
    -3.8428  -3.4115   1.5930   2.2244   3.2872   4.2751   4.7633   4.8740
     5.1251   5.9314   6.0160   6.0723   6.4253   6.9191   7.2462   7.2895
     7.4082   7.5492   7.7489   8.0824

     occupation numbers 
     1.0000   1.0000   1.0000   1.0000   1.0000   1.0000   1.0000   1.0000
     1.0000   1.0000   1.0000   1.0000   1.0000   1.0000   1.0000   1.0000
     1.0000   1.0000   1.0000   1.0000   1.0000   1.0000   1.0000   1.0000
     1.0000   1.0000   1.0000   1.0000   1.0000   1.0000   1.0000   1.0000
     1.0000   1.0000   1.0000   1.0000   1.0000   1.0000   1.0000   1.0000
     1.0000   1.0000   1.0000   1.0000

          k =-0.1729 0.3864 0.1846 (  8529 PWs)   bands (ev):

   -10.4165  -9.8902  -9.6854  -9.2352  -9.0460  -8.8281  -4.7364  -4.7152
    -4.6749  -4.6326  -4.5829  -4.5441  -4.4762  -4.4584  -4.4360  -4.4051
    -4.3349  -4.3301  -4.2615  -4.2470  -4.2033  -4.1729  -4.1424  -4.1001
    -3.7481  -3.4451   1.8716   2.3739   3.1992   4.1655   4.6579   4.7936
     5.1970   5.8280   5.8864   6.0458   6.2985   6.9406   7.1934   7.3684
     7.4110   7.5690   7.7118   8.1302

     occupation numbers 
     1.0000   1.0000   1.0000   1.0000   1.0000   1.0000   1.0000   1.0000
     1.0000   1.0000   1.0000   1.0000   1.0000   1.0000   1.0000   1.0000
     1.0000   1.0000   1.0000   1.0000   1.0000   1.0000   1.0000   1.0000
     1.0000   1.0000   1.0000   1.0000   1.0000   1.0000   1.0000   1.0000
     1.0000   1.0000   1.0000   1.0000   1.0000   1.0000   1.0000   1.0000
     1.0000   1.0000   1.0000   1.0000

          k =-0.1729 0.3864 0.2777 (  8532 PWs)   bands (ev):

   -10.3765  -9.8511  -9.7247  -9.2916  -9.0569  -8.8190  -4.7312  -4.7155
    -4.6716  -4.6396  -4.6057  -4.5672  -4.4791  -4.4511  -4.4219  -4.4024
    -4.3485  -4.3371  -4.2579  -4.2513  -4.2010  -4.1817  -4.1433  -4.1047
    -3.6626  -3.4775   2.2035   2.5608   3.0530   3.9159   4.6696   4.7761
     5.3117   5.5991   5.7926   5.9860   6.2387   6.9218   7.1423   7.3578
     7.4864   7.5934   7.6629   8.1661

     occupation numbers 
     1.0000   1.0000   1.0000   1.0000   1.0000   1.0000   1.0000   1.0000
     1.0000   1.0000   1.0000   1.0000   1.0000   1.0000   1.0000   1.0000
     1.0000   1.0000   1.0000   1.0000   1.0000   1.0000   1.0000   1.0000
     1.0000   1.0000   1.0000   1.0000   1.0000   1.0000   1.0000   1.0000
     1.0000   1.0000   1.0000   1.0000   1.0000   1.0000   1.0000   1.0000
     1.0000   1.0000   1.0000   1.0000

          k =-0.1729 0.3864 0.3707 (  8527 PWs)   bands (ev):

   -10.3264  -9.8678  -9.7419  -9.3228  -9.0588  -8.8152  -4.7262  -4.7150
    -4.6672  -4.6507  -4.6128  -4.5878  -4.4825  -4.4443  -4.4074  -4.3949
    -4.3628  -4.3473  -4.2643  -4.2472  -4.1985  -4.1890  -4.1438  -4.1033
    -3.6200  -3.4845   2.5486   2.6395   2.9787   3.6401   4.6914   4.8443
     5.3796   5.4381   5.6740   5.9504   6.2168   6.8590   7.1242   7.3508
     7.5092   7.5796   7.6619   8.1846

     occupation numbers 
     1.0000   1.0000   1.0000   1.0000   1.0000   1.0000   1.0000   1.0000
     1.0000   1.0000   1.0000   1.0000   1.0000   1.0000   1.0000   1.0000
     1.0000   1.0000   1.0000   1.0000   1.0000   1.0000   1.0000   1.0000
     1.0000   1.0000   1.0000   1.0000   1.0000   1.0000   1.0000   1.0000
     1.0000   1.0000   1.0000   1.0000   1.0000   1.0000   1.0000   1.0000
     1.0000   1.0000   1.0000   1.0000

          k =-0.1729 0.3864-0.6529 (  8521 PWs)   bands (ev):

   -10.2758  -9.9305  -9.7501  -9.3085  -9.0582  -8.8143  -4.7236  -4.7139
    -4.6622  -4.6584  -4.6083  -4.6013  -4.4848  -4.4402  -4.4048  -4.3821
    -4.3698  -4.3557  -4.2712  -4.2439  -4.1969  -4.1923  -4.1435  -4.0987
    -3.6467  -3.4450   2.4024   2.8772   3.0349   3.5477   4.6862   4.9392
     5.2624   5.4451   5.6486   5.9299   6.2508   6.7825   7.1304   7.3477
     7.4683   7.5440   7.6988   8.1844

     occupation numbers 
     1.0000   1.0000   1.0000   1.0000   1.0000   1.0000   1.0000   1.0000
     1.0000   1.0000   1.0000   1.0000   1.0000   1.0000   1.0000   1.0000
     1.0000   1.0000   1.0000   1.0000   1.0000   1.0000   1.0000   1.0000
     1.0000   1.0000   1.0000   1.0000   1.0000   1.0000   1.0000   1.0000
     1.0000   1.0000   1.0000   1.0000   1.0000   1.0000   1.0000   1.0000
     1.0000   1.0000   1.0000   1.0000

          k =-0.1729 0.3864-0.5599 (  8518 PWs)   bands (ev):

   -10.2387 -10.0077  -9.7539  -9.2597  -9.0569  -8.8151  -4.7247  -4.7127
    -4.6645  -4.6525  -4.6055  -4.5936  -4.4855  -4.4410  -4.4163  -4.3780
    -4.3603  -4.3534  -4.2777  -4.2415  -4.1990  -4.1892  -4.1428  -4.0917
    -3.7055  -3.3985   2.1011   2.8308   3.1420   3.8209   4.6397   5.0369
     5.2371   5.3537   5.7347   5.9200   6.3599   6.7180   7.1514   7.3291
     7.3781   7.5558   7.7112   8.1669

     occupation numbers 
     1.0000   1.0000   1.0000   1.0000   1.0000   1.0000   1.0000   1.0000
     1.0000   1.0000   1.0000   1.0000   1.0000   1.0000   1.0000   1.0000
     1.0000   1.0000   1.0000   1.0000   1.0000   1.0000   1.0000   1.0000
     1.0000   1.0000   1.0000   1.0000   1.0000   1.0000   1.0000   1.0000
     1.0000   1.0000   1.0000   1.0000   1.0000   1.0000   1.0000   1.0000
     1.0000   1.0000   1.0000   1.0000

          k =-0.1729 0.3864-0.4668 (  8516 PWs)   bands (ev):

   -10.2333 -10.0749  -9.7380  -9.2013  -9.0524  -8.8182  -4.7283  -4.7123
    -4.6684  -4.6427  -4.5955  -4.5726  -4.4845  -4.4493  -4.4292  -4.3763
    -4.3468  -4.3450  -4.2840  -4.2385  -4.2017  -4.1842  -4.1421  -4.0821
    -3.7765  -3.3636   1.8067   2.5895   3.3066   4.1419   4.6544   5.0526
     5.2929   5.3191   5.8198   5.9247   6.5265   6.6764   7.1705   7.2472
     7.3490   7.5810   7.6950   8.1366

     occupation numbers 
     1.0000   1.0000   1.0000   1.0000   1.0000   1.0000   1.0000   1.0000
     1.0000   1.0000   1.0000   1.0000   1.0000   1.0000   1.0000   1.0000
     1.0000   1.0000   1.0000   1.0000   1.0000   1.0000   1.0000   1.0000
     1.0000   1.0000   1.0000   1.0000   1.0000   1.0000   1.0000   1.0000
     1.0000   1.0000   1.0000   1.0000   1.0000   1.0000   1.0000   1.0000
     1.0000   1.0000   1.0000   1.0000

          k =-0.1729 0.3864-0.3738 (  8526 PWs)   bands (ev):

   -10.2723 -10.1060  -9.7034  -9.1565  -9.0352  -8.8264  -4.7328  -4.7120
    -4.6722  -4.6363  -4.5707  -4.5487  -4.4826  -4.4596  -4.4408  -4.3697
    -4.3391  -4.3375  -4.2890  -4.2336  -4.2041  -4.1778  -4.1417  -4.0712
    -3.8518  -3.3433   1.5551   2.3821   3.3783   4.2846   4.8572   5.0122
     5.2921   5.4496   5.8825   5.9358   6.6477   6.7307   7.1240   7.2193
     7.3470   7.6113   7.6568   8.1002

     occupation numbers 
     1.0000   1.0000   1.0000   1.0000   1.0000   1.0000   1.0000   1.0000
     1.0000   1.0000   1.0000   1.0000   1.0000   1.0000   1.0000   1.0000
     1.0000   1.0000   1.0000   1.0000   1.0000   1.0000   1.0000   1.0000
     1.0000   1.0000   1.0000   1.0000   1.0000   1.0000   1.0000   1.0000
     1.0000   1.0000   1.0000   1.0000   1.0000   1.0000   1.0000   1.0000
     1.0000   1.0000   1.0000   1.0000

          k =-0.1729 0.3864-0.2807 (  8532 PWs)   bands (ev):

   -10.3328 -10.1058  -9.6633  -9.1384  -8.9977  -8.8434  -4.7373  -4.7117
    -4.6751  -4.6329  -4.5417  -4.5251  -4.4836  -4.4605  -4.4496  -4.3662
    -4.3355  -4.3346  -4.2908  -4.2280  -4.2055  -4.1678  -4.1417  -4.0630
    -3.9217  -3.3369   1.3726   2.2278   3.3876   4.2913   4.9205   5.2009
     5.3098   5.5617   5.9028   5.9665   6.6646   6.9112   7.0753   7.1845
     7.3830   7.5887   7.6602   8.0644

     occupation numbers 
     1.0000   1.0000   1.0000   1.0000   1.0000   1.0000   1.0000   1.0000
     1.0000   1.0000   1.0000   1.0000   1.0000   1.0000   1.0000   1.0000
     1.0000   1.0000   1.0000   1.0000   1.0000   1.0000   1.0000   1.0000
     1.0000   1.0000   1.0000   1.0000   1.0000   1.0000   1.0000   1.0000
     1.0000   1.0000   1.0000   1.0000   1.0000   1.0000   1.0000   1.0000
     1.0000   1.0000   1.0000   1.0000

          k =-0.1729 0.3864-0.1876 (  8545 PWs)   bands (ev):

   -10.3876 -10.0875  -9.6316  -9.1375  -8.9516  -8.8724  -4.7410  -4.7116
    -4.6771  -4.6308  -4.5230  -4.5073  -4.4893  -4.4539  -4.4437  -4.3777
    -4.3360  -4.3285  -4.2890  -4.2255  -4.2052  -4.1529  -4.1418  -4.0629
    -3.9701  -3.3427   1.2788   2.1333   3.3723   4.2721   4.8964   5.2162
     5.5200   5.5565   5.9661   6.0063   6.7147   6.9540   7.0915   7.1739
     7.4364   7.5369   7.6940   8.0357

     occupation numbers 
     1.0000   1.0000   1.0000   1.0000   1.0000   1.0000   1.0000   1.0000
     1.0000   1.0000   1.0000   1.0000   1.0000   1.0000   1.0000   1.0000
     1.0000   1.0000   1.0000   1.0000   1.0000   1.0000   1.0000   1.0000
     1.0000   1.0000   1.0000   1.0000   1.0000   1.0000   1.0000   1.0000
     1.0000   1.0000   1.0000   1.0000   1.0000   1.0000   1.0000   1.0000
     1.0000   1.0000   1.0000   1.0000

          k = 1.7286-0.0859 0.0210 (  8542 PWs)   bands (ev):

   -10.2440 -10.0126  -9.5550  -9.1198  -8.9200  -8.9044  -4.7255  -4.7021
    -4.6129  -4.5892  -4.5485  -4.5238  -4.4716  -4.4598  -4.4232  -4.3798
    -4.3503  -4.3344  -4.2765  -4.2331  -4.1874  -4.1538  -4.0222  -3.9936
    -3.8606  -3.3772   1.4176   2.1251   3.3070   4.1648   4.3721   4.6930
     4.8982   5.3766   5.6304   5.8647   6.6114   6.6532   7.2008   7.3293
     7.3705   7.5232   7.7203   8.0344

     occupation numbers 
     1.0000   1.0000   1.0000   1.0000   1.0000   1.0000   1.0000   1.0000
     1.0000   1.0000   1.0000   1.0000   1.0000   1.0000   1.0000   1.0000
     1.0000   1.0000   1.0000   1.0000   1.0000   1.0000   1.0000   1.0000
     1.0000   1.0000   1.0000   1.0000   1.0000   1.0000   1.0000   1.0000
     1.0000   1.0000   1.0000   1.0000   1.0000   1.0000   1.0000   1.0000
     1.0000   1.0000   1.0000   1.0000

          k = 1.7286-0.0859 0.1141 (  8534 PWs)   bands (ev):

   -10.2630  -9.9700  -9.5612  -9.1238  -8.9664  -8.8754  -4.7250  -4.7021
    -4.6125  -4.5913  -4.5471  -4.5259  -4.4694  -4.4574  -4.4277  -4.3839
    -4.3508  -4.3345  -4.2721  -4.2322  -4.1902  -4.1533  -4.0727  -3.9688
    -3.8279  -3.3894   1.5030   2.1456   3.2726   4.1841   4.3731   4.6197
     4.9078   5.3879   5.5697   5.9355   6.6001   6.7142   7.0274   7.2572
     7.3576   7.6029   7.7212   8.0515

     occupation numbers 
     1.0000   1.0000   1.0000   1.0000   1.0000   1.0000   1.0000   1.0000
     1.0000   1.0000   1.0000   1.0000   1.0000   1.0000   1.0000   1.0000
     1.0000   1.0000   1.0000   1.0000   1.0000   1.0000   1.0000   1.0000
     1.0000   1.0000   1.0000   1.0000   1.0000   1.0000   1.0000   1.0000
     1.0000   1.0000   1.0000   1.0000   1.0000   1.0000   1.0000   1.0000
     1.0000   1.0000   1.0000   1.0000

          k = 1.7286-0.0859 0.2071 (  8523 PWs)   bands (ev):

   -10.2631  -9.9169  -9.5842  -9.1333  -9.0205  -8.8530  -4.7223  -4.7012
    -4.6119  -4.5965  -4.5466  -4.5315  -4.4680  -4.4519  -4.4371  -4.3877
    -4.3538  -4.3339  -4.2660  -4.2299  -4.1964  -4.1530  -4.1153  -3.9855
    -3.7542  -3.4064   1.6792   2.2303   3.2309   4.1814   4.3486   4.5402
     4.9170   5.4326   5.4830   5.9261   6.5128   6.7732   6.9075   7.1172
     7.3481   7.6578   7.6831   8.0872

     occupation numbers 
     1.0000   1.0000   1.0000   1.0000   1.0000   1.0000   1.0000   1.0000
     1.0000   1.0000   1.0000   1.0000   1.0000   1.0000   1.0000   1.0000
     1.0000   1.0000   1.0000   1.0000   1.0000   1.0000   1.0000   1.0000
     1.0000   1.0000   1.0000   1.0000   1.0000   1.0000   1.0000   1.0000
     1.0000   1.0000   1.0000   1.0000   1.0000   1.0000   1.0000   1.0000
     1.0000   1.0000   1.0000   1.0000

          k = 1.7286-0.0859 0.3002 (  8527 PWs)   bands (ev):

   -10.2453  -9.8607  -9.6187  -9.1644  -9.0574  -8.8397  -4.7179  -4.6992
    -4.6112  -4.6044  -4.5490  -4.5402  -4.4688  -4.4463  -4.4395  -4.3910
    -4.3589  -4.3339  -4.2593  -4.2285  -4.2047  -4.1551  -4.1416  -4.0174
    -3.6706  -3.4280   1.9312   2.3740   3.1646   4.0847   4.2939   4.5049
     4.9802   5.3816   5.5086   5.8448   6.3221   6.7097   6.8581   7.1184
     7.3251   7.6307   7.6695   8.1201

     occupation numbers 
     1.0000   1.0000   1.0000   1.0000   1.0000   1.0000   1.0000   1.0000
     1.0000   1.0000   1.0000   1.0000   1.0000   1.0000   1.0000   1.0000
     1.0000   1.0000   1.0000   1.0000   1.0000   1.0000   1.0000   1.0000
     1.0000   1.0000   1.0000   1.0000   1.0000   1.0000   1.0000   1.0000
     1.0000   1.0000   1.0000   1.0000   1.0000   1.0000   1.0000   1.0000
     1.0000   1.0000   1.0000   1.0000

          k = 1.7286-0.0859 0.3933 (  8524 PWs)   bands (ev):

   -10.2133  -9.8174  -9.6536  -9.2161  -9.0675  -8.8334  -4.7124  -4.6960
    -4.6150  -4.6095  -4.5540  -4.5499  -4.4718  -4.4453  -4.4287  -4.3934
    -4.3641  -4.3361  -4.2532  -4.2325  -4.2077  -4.1647  -4.1505  -4.0466
    -3.5938  -3.4538   2.2363   2.5622   3.0518   3.8661   4.2760   4.5086
     5.0769   5.3004   5.5844   5.7188   6.1200   6.5975   6.7935   7.1762
     7.3489   7.5903   7.6428   8.1457

     occupation numbers 
     1.0000   1.0000   1.0000   1.0000   1.0000   1.0000   1.0000   1.0000
     1.0000   1.0000   1.0000   1.0000   1.0000   1.0000   1.0000   1.0000
     1.0000   1.0000   1.0000   1.0000   1.0000   1.0000   1.0000   1.0000
     1.0000   1.0000   1.0000   1.0000   1.0000   1.0000   1.0000   1.0000
     1.0000   1.0000   1.0000   1.0000   1.0000   1.0000   1.0000   1.0000
     1.0000   1.0000   1.0000   1.0000

          k = 1.7286-0.0859 0.4863 (  8524 PWs)   bands (ev):

   -10.1730  -9.8136  -9.6720  -9.2550  -9.0672  -8.8314  -4.7072  -4.6928
    -4.6235  -4.6094  -4.5607  -4.5557  -4.4750  -4.4425  -4.4169  -4.3969
    -4.3668  -4.3399  -4.2509  -4.2370  -4.2037  -4.1767  -4.1535  -4.0622
    -3.5414  -3.4740   2.5632   2.7093   2.9392   3.6164   4.2805   4.5201
     5.1386   5.2764   5.5669   5.6202   6.0389   6.4590   6.8032   7.1230
     7.4658   7.5270   7.6233   8.1644

     occupation numbers 
     1.0000   1.0000   1.0000   1.0000   1.0000   1.0000   1.0000   1.0000
     1.0000   1.0000   1.0000   1.0000   1.0000   1.0000   1.0000   1.0000
     1.0000   1.0000   1.0000   1.0000   1.0000   1.0000   1.0000   1.0000
     1.0000   1.0000   1.0000   1.0000   1.0000   1.0000   1.0000   1.0000
     1.0000   1.0000   1.0000   1.0000   1.0000   1.0000   1.0000   1.0000
     1.0000   1.0000   1.0000   1.0000

          k = 1.7286-0.0859-0.5374 (  8521 PWs)   bands (ev):

   -10.1337  -9.8522  -9.6781  -9.2552  -9.0658  -8.8312  -4.7043  -4.6913
    -4.6281  -4.6081  -4.5656  -4.5563  -4.4772  -4.4405  -4.4086  -4.4044
    -4.3640  -4.3431  -4.2540  -4.2353  -4.1988  -4.1856  -4.1545  -4.0606
    -3.5557  -3.4502   2.5377   2.8710   3.0213   3.4513   4.3033   4.5308
     5.0961   5.3207   5.4588   5.5712   6.1362   6.3669   6.8457   7.0675
     7.4173   7.5724   7.6323   8.1754

     occupation numbers 
     1.0000   1.0000   1.0000   1.0000   1.0000   1.0000   1.0000   1.0000
     1.0000   1.0000   1.0000   1.0000   1.0000   1.0000   1.0000   1.0000
     1.0000   1.0000   1.0000   1.0000   1.0000   1.0000   1.0000   1.0000
     1.0000   1.0000   1.0000   1.0000   1.0000   1.0000   1.0000   1.0000
     1.0000   1.0000   1.0000   1.0000   1.0000   1.0000   1.0000   1.0000
     1.0000   1.0000   1.0000   1.0000

          k = 1.7286-0.0859-0.4443 (  8528 PWs)   bands (ev):

   -10.1060  -9.9124  -9.6789  -9.2176  -9.0658  -8.8314  -4.7054  -4.6923
    -4.6268  -4.6047  -4.5663  -4.5526  -4.4780  -4.4411  -4.4203  -4.3985
    -4.3579  -4.3440  -4.2592  -4.2302  -4.2017  -4.1817  -4.1535  -4.0437
    -3.6055  -3.4151   2.2577   2.8925   3.1201   3.5872   4.3494   4.5351
     5.0359   5.2462   5.4845   5.5387   6.2899   6.3903   6.9006   7.0385
     7.3048   7.5968   7.6864   8.1758

     occupation numbers 
     1.0000   1.0000   1.0000   1.0000   1.0000   1.0000   1.0000   1.0000
     1.0000   1.0000   1.0000   1.0000   1.0000   1.0000   1.0000   1.0000
     1.0000   1.0000   1.0000   1.0000   1.0000   1.0000   1.0000   1.0000
     1.0000   1.0000   1.0000   1.0000   1.0000   1.0000   1.0000   1.0000
     1.0000   1.0000   1.0000   1.0000   1.0000   1.0000   1.0000   1.0000
     1.0000   1.0000   1.0000   1.0000

          k = 1.7286-0.0859-0.3512 (  8528 PWs)   bands (ev):

   -10.0965  -9.9809  -9.6626  -9.1638  -9.0645  -8.8328  -4.7097  -4.6951
    -4.6214  -4.6011  -4.5622  -4.5455  -4.4772  -4.4449  -4.4337  -4.3910
    -4.3522  -4.3424  -4.2655  -4.2248  -4.2032  -4.1703  -4.1517  -4.0158
    -3.6676  -3.3896   1.9741   2.6607   3.2821   3.8140   4.4346   4.5183
     5.0357   5.1248   5.4712   5.6202   6.3735   6.5928   6.9506   7.0013
     7.2482   7.5937   7.7278   8.1624

     occupation numbers 
     1.0000   1.0000   1.0000   1.0000   1.0000   1.0000   1.0000   1.0000
     1.0000   1.0000   1.0000   1.0000   1.0000   1.0000   1.0000   1.0000
     1.0000   1.0000   1.0000   1.0000   1.0000   1.0000   1.0000   1.0000
     1.0000   1.0000   1.0000   1.0000   1.0000   1.0000   1.0000   1.0000
     1.0000   1.0000   1.0000   1.0000   1.0000   1.0000   1.0000   1.0000
     1.0000   1.0000   1.0000   1.0000

          k = 1.7286-0.0859-0.2582 (  8518 PWs)   bands (ev):

   -10.1105 -10.0368  -9.6302  -9.1232  -9.0468  -8.8384  -4.7151  -4.6980
    -4.6160  -4.5978  -4.5554  -4.5371  -4.4756  -4.4509  -4.4405  -4.3835
    -4.3491  -4.3394  -4.2718  -4.2253  -4.1971  -4.1562  -4.1433  -3.9853
    -3.7365  -3.3747   1.7246   2.4467   3.3539   3.9836   4.4555   4.5801
     4.9932   5.1339   5.4830   5.7016   6.4712   6.7606   6.9673   7.0206
     7.2784   7.5875   7.7324   8.1340

     occupation numbers 
     1.0000   1.0000   1.0000   1.0000   1.0000   1.0000   1.0000   1.0000
     1.0000   1.0000   1.0000   1.0000   1.0000   1.0000   1.0000   1.0000
     1.0000   1.0000   1.0000   1.0000   1.0000   1.0000   1.0000   1.0000
     1.0000   1.0000   1.0000   1.0000   1.0000   1.0000   1.0000   1.0000
     1.0000   1.0000   1.0000   1.0000   1.0000   1.0000   1.0000   1.0000
     1.0000   1.0000   1.0000   1.0000

          k = 1.7286-0.0859-0.1651 (  8535 PWs)   bands (ev):

   -10.1564 -10.0523  -9.5944  -9.1139  -9.0019  -8.8519  -4.7201  -4.7002
    -4.6136  -4.5938  -4.5507  -4.5297  -4.4744  -4.4566  -4.4370  -4.3776
    -4.3492  -4.3364  -4.2765  -4.2289  -4.1907  -4.1538  -4.1076  -3.9648
    -3.8035  -3.3687   1.5362   2.2793   3.3618   4.0831   4.4087   4.7122
     4.8840   5.2516   5.5657   5.7373   6.5383   6.7347   7.0948   7.1558
     7.3199   7.5747   7.7086   8.0940

     occupation numbers 
     1.0000   1.0000   1.0000   1.0000   1.0000   1.0000   1.0000   1.0000
     1.0000   1.0000   1.0000   1.0000   1.0000   1.0000   1.0000   1.0000
     1.0000   1.0000   1.0000   1.0000   1.0000   1.0000   1.0000   1.0000
     1.0000   1.0000   1.0000   1.0000   1.0000   1.0000   1.0000   1.0000
     1.0000   1.0000   1.0000   1.0000   1.0000   1.0000   1.0000   1.0000
     1.0000   1.0000   1.0000   1.0000

          k = 1.7286-0.0859-0.0720 (  8540 PWs)   bands (ev):

   -10.2068 -10.0409  -9.5669  -9.1161  -8.9525  -8.8765  -4.7238  -4.7015
    -4.6130  -4.5903  -4.5492  -4.5251  -4.4733  -4.4596  -4.4282  -4.3764
    -4.3503  -4.3346  -4.2782  -4.2319  -4.1876  -4.1538  -4.0548  -3.9738
    -3.8500  -3.3700   1.4297   2.1703   3.3392   4.1351   4.3795   4.7644
     4.8440   5.3408   5.6625   5.7553   6.5686   6.6856   7.2309   7.2888
     7.3433   7.5302   7.6991   8.0538

     occupation numbers 
     1.0000   1.0000   1.0000   1.0000   1.0000   1.0000   1.0000   1.0000
     1.0000   1.0000   1.0000   1.0000   1.0000   1.0000   1.0000   1.0000
     1.0000   1.0000   1.0000   1.0000   1.0000   1.0000   1.0000   1.0000
     1.0000   1.0000   1.0000   1.0000   1.0000   1.0000   1.0000   1.0000
     1.0000   1.0000   1.0000   1.0000   1.0000   1.0000   1.0000   1.0000
     1.0000   1.0000   1.0000   1.0000

          k = 1.5557-0.0429 0.0105 (  8558 PWs)   bands (ev):

   -10.0081  -9.9073  -9.4706  -9.1145  -8.9148  -8.9059  -4.6696  -4.6647
    -4.5723  -4.5523  -4.5345  -4.5287  -4.4735  -4.4577  -4.4458  -4.4029
    -4.3292  -4.2834  -4.2646  -4.2380  -4.1780  -4.1658  -3.9216  -3.8378
    -3.6915  -3.4562   1.6215   2.0933   3.0355   3.5498   3.8547   4.3540
     4.6360   4.9159   5.3317   5.7826   6.2170   6.2998   7.2123   7.3378
     7.3878   7.6222   7.7669   8.0485

     occupation numbers 
     1.0000   1.0000   1.0000   1.0000   1.0000   1.0000   1.0000   1.0000
     1.0000   1.0000   1.0000   1.0000   1.0000   1.0000   1.0000   1.0000
     1.0000   1.0000   1.0000   1.0000   1.0000   1.0000   1.0000   1.0000
     1.0000   1.0000   1.0000   1.0000   1.0000   1.0000   1.0000   1.0000
     1.0000   1.0000   1.0000   1.0000   1.0000   1.0000   1.0000   1.0000
     1.0000   1.0000   1.0000   1.0000

          k = 1.5557-0.0429 0.1036 (  8544 PWs)   bands (ev):

   -10.0260  -9.8724  -9.4770  -9.1129  -8.9529  -8.8824  -4.6698  -4.6629
    -4.5737  -4.5485  -4.5368  -4.5244  -4.4713  -4.4572  -4.4458  -4.4044
    -4.3316  -4.2835  -4.2624  -4.2370  -4.1803  -4.1645  -3.9692  -3.8186
    -3.6801  -3.4546   1.6804   2.1118   2.9976   3.5691   3.8804   4.3284
     4.6351   4.9527   5.3398   5.7361   6.1912   6.3725   7.1500   7.2542
     7.3208   7.6544   7.7449   8.0582

     occupation numbers 
     1.0000   1.0000   1.0000   1.0000   1.0000   1.0000   1.0000   1.0000
     1.0000   1.0000   1.0000   1.0000   1.0000   1.0000   1.0000   1.0000
     1.0000   1.0000   1.0000   1.0000   1.0000   1.0000   1.0000   1.0000
     1.0000   1.0000   1.0000   1.0000   1.0000   1.0000   1.0000   1.0000
     1.0000   1.0000   1.0000   1.0000   1.0000   1.0000   1.0000   1.0000
     1.0000   1.0000   1.0000   1.0000

          k = 1.5557-0.0429 0.1966 (  8549 PWs)   bands (ev):

   -10.0281  -9.8276  -9.4971  -9.1074  -9.0044  -8.8666  -4.6685  -4.6594
    -4.5762  -4.5419  -4.5381  -4.5175  -4.4680  -4.4558  -4.4455  -4.4085
    -4.3346  -4.2846  -4.2584  -4.2337  -4.1850  -4.1622  -4.0348  -3.8403
    -3.6333  -3.4512   1.8194   2.1954   2.9581   3.5692   3.9322   4.2555
     4.6363   5.0200   5.3229   5.6415   6.1739   6.4846   6.9348   7.1104
     7.2957   7.6552   7.6842   8.0701

     occupation numbers 
     1.0000   1.0000   1.0000   1.0000   1.0000   1.0000   1.0000   1.0000
     1.0000   1.0000   1.0000   1.0000   1.0000   1.0000   1.0000   1.0000
     1.0000   1.0000   1.0000   1.0000   1.0000   1.0000   1.0000   1.0000
     1.0000   1.0000   1.0000   1.0000   1.0000   1.0000   1.0000   1.0000
     1.0000   1.0000   1.0000   1.0000   1.0000   1.0000   1.0000   1.0000
     1.0000   1.0000   1.0000   1.0000

          k = 1.5557-0.0429 0.2897 (  8538 PWs)   bands (ev):

   -10.0154  -9.7792  -9.5260  -9.0998  -9.0619  -8.8594  -4.6658  -4.6546
    -4.5796  -4.5426  -4.5306  -4.5096  -4.4633  -4.4542  -4.4438  -4.4126
    -4.3375  -4.2881  -4.2530  -4.2287  -4.1912  -4.1599  -4.0934  -3.8926
    -3.5745  -3.4492   2.0228   2.3367   2.9143   3.5409   3.9699   4.1745
     4.6484   5.0549   5.3317   5.5595   6.1380   6.5196   6.6997   6.9894
     7.3043   7.5536   7.6500   8.0739

     occupation numbers 
     1.0000   1.0000   1.0000   1.0000   1.0000   1.0000   1.0000   1.0000
     1.0000   1.0000   1.0000   1.0000   1.0000   1.0000   1.0000   1.0000
     1.0000   1.0000   1.0000   1.0000   1.0000   1.0000   1.0000   1.0000
     1.0000   1.0000   1.0000   1.0000   1.0000   1.0000   1.0000   1.0000
     1.0000   1.0000   1.0000   1.0000   1.0000   1.0000   1.0000   1.0000
     1.0000   1.0000   1.0000   1.0000

          k = 1.5557-0.0429 0.3828 (  8537 PWs)   bands (ev):

    -9.9913  -9.7394  -9.5542  -9.1211  -9.0879  -8.8581  -4.6621  -4.6493
    -4.5834  -4.5465  -4.5210  -4.5031  -4.4576  -4.4539  -4.4404  -4.4134
    -4.3390  -4.2961  -4.2467  -4.2234  -4.1970  -4.1579  -4.1360  -3.9499
    -3.5231  -3.4509   2.2659   2.5231   2.8537   3.4599   3.9405   4.1543
     4.6731   4.9833   5.4428   5.5485   6.0198   6.2951   6.6318   7.0209
     7.2887   7.4547   7.5970   8.0704

     occupation numbers 
     1.0000   1.0000   1.0000   1.0000   1.0000   1.0000   1.0000   1.0000
     1.0000   1.0000   1.0000   1.0000   1.0000   1.0000   1.0000   1.0000
     1.0000   1.0000   1.0000   1.0000   1.0000   1.0000   1.0000   1.0000
     1.0000   1.0000   1.0000   1.0000   1.0000   1.0000   1.0000   1.0000
     1.0000   1.0000   1.0000   1.0000   1.0000   1.0000   1.0000   1.0000
     1.0000   1.0000   1.0000   1.0000

          k = 1.5557-0.0429 0.4758 (  8542 PWs)   bands (ev):

    -9.9620  -9.7260  -9.5690  -9.1620  -9.0812  -8.8594  -4.6586  -4.6453
    -4.5868  -4.5502  -4.5139  -4.4991  -4.4569  -4.4499  -4.4379  -4.4112
    -4.3374  -4.3085  -4.2415  -4.2210  -4.1965  -4.1637  -4.1539  -3.9931
    -3.4880  -3.4556   2.5165   2.7373   2.7555   3.3063   3.9053   4.1467
     4.7170   4.8944   5.5282   5.6740   5.8382   6.0350   6.6298   7.0881
     7.2661   7.3881   7.5562   8.0645

     occupation numbers 
     1.0000   1.0000   1.0000   1.0000   1.0000   1.0000   1.0000   1.0000
     1.0000   1.0000   1.0000   1.0000   1.0000   1.0000   1.0000   1.0000
     1.0000   1.0000   1.0000   1.0000   1.0000   1.0000   1.0000   1.0000
     1.0000   1.0000   1.0000   1.0000   1.0000   1.0000   1.0000   1.0000
     1.0000   1.0000   1.0000   1.0000   1.0000   1.0000   1.0000   1.0000
     1.0000   1.0000   1.0000   1.0000

          k = 1.5557-0.0429-0.5479 (  8551 PWs)   bands (ev):

    -9.9369  -9.7423  -9.5720  -9.1730  -9.0780  -8.8602  -4.6565  -4.6441
    -4.5884  -4.5516  -4.5111  -4.4975  -4.4592  -4.4464  -4.4373  -4.4126
    -4.3293  -4.3200  -4.2405  -4.2204  -4.1900  -4.1757  -4.1549  -4.0034
    -3.4874  -3.4484   2.6004   2.7389   2.9509   3.1053   3.9053   4.1252
     4.7400   4.8709   5.5176   5.6777   5.8268   5.9432   6.6662   7.0428
     7.2872   7.3902   7.5405   8.0632

     occupation numbers 
     1.0000   1.0000   1.0000   1.0000   1.0000   1.0000   1.0000   1.0000
     1.0000   1.0000   1.0000   1.0000   1.0000   1.0000   1.0000   1.0000
     1.0000   1.0000   1.0000   1.0000   1.0000   1.0000   1.0000   1.0000
     1.0000   1.0000   1.0000   1.0000   1.0000   1.0000   1.0000   1.0000
     1.0000   1.0000   1.0000   1.0000   1.0000   1.0000   1.0000   1.0000
     1.0000   1.0000   1.0000   1.0000

          k = 1.5557-0.0429-0.4548 (  8547 PWs)   bands (ev):

    -9.9254  -9.7750  -9.5706  -9.1492  -9.0802  -8.8593  -4.6567  -4.6466
    -4.5876  -4.5498  -4.5130  -4.4983  -4.4615  -4.4490  -4.4377  -4.4187
    -4.3265  -4.3143  -4.2445  -4.2189  -4.1934  -4.1670  -4.1568  -3.9756
    -3.5133  -3.4377   2.3914   2.8568   2.9077   3.1665   3.9404   4.0975
     4.7150   4.9368   5.3789   5.5470   5.9283   6.1609   6.6997   6.9901
     7.2543   7.4835   7.5447   8.0692

     occupation numbers 
     1.0000   1.0000   1.0000   1.0000   1.0000   1.0000   1.0000   1.0000
     1.0000   1.0000   1.0000   1.0000   1.0000   1.0000   1.0000   1.0000
     1.0000   1.0000   1.0000   1.0000   1.0000   1.0000   1.0000   1.0000
     1.0000   1.0000   1.0000   1.0000   1.0000   1.0000   1.0000   1.0000
     1.0000   1.0000   1.0000   1.0000   1.0000   1.0000   1.0000   1.0000
     1.0000   1.0000   1.0000   1.0000

          k = 1.5557-0.0429-0.3617 (  8541 PWs)   bands (ev):

    -9.9283  -9.8203  -9.5567  -9.1025  -9.0868  -8.8577  -4.6590  -4.6515
    -4.5843  -4.5464  -4.5193  -4.5024  -4.4658  -4.4546  -4.4400  -4.4207
    -4.3289  -4.2993  -4.2514  -4.2213  -4.1936  -4.1600  -4.1372  -3.9239
    -3.5526  -3.4350   2.1574   2.6303   3.0126   3.3176   4.0112   4.0499
     4.6929   5.0379   5.2381   5.4615   6.1132   6.3697   6.7117   6.9738
     7.2972   7.4842   7.6232   8.0785

     occupation numbers 
     1.0000   1.0000   1.0000   1.0000   1.0000   1.0000   1.0000   1.0000
     1.0000   1.0000   1.0000   1.0000   1.0000   1.0000   1.0000   1.0000
     1.0000   1.0000   1.0000   1.0000   1.0000   1.0000   1.0000   1.0000
     1.0000   1.0000   1.0000   1.0000   1.0000   1.0000   1.0000   1.0000
     1.0000   1.0000   1.0000   1.0000   1.0000   1.0000   1.0000   1.0000
     1.0000   1.0000   1.0000   1.0000

          k = 1.5557-0.0429-0.2687 (  8542 PWs)   bands (ev):

    -9.9359  -9.8743  -9.5299  -9.0965  -9.0466  -8.8587  -4.6622  -4.6572
    -4.5797  -4.5445  -4.5274  -4.5105  -4.4715  -4.4569  -4.4436  -4.4162
    -4.3290  -4.2897  -4.2581  -4.2273  -4.1885  -4.1614  -4.0893  -3.8671
    -3.6017  -3.4389   1.9358   2.4228   3.0657   3.4172   3.9704   4.1311
     4.6638   5.0681   5.1790   5.5102   6.2012   6.5090   6.7546   7.0759
     7.3403   7.5117   7.6859   8.0828

     occupation numbers 
     1.0000   1.0000   1.0000   1.0000   1.0000   1.0000   1.0000   1.0000
     1.0000   1.0000   1.0000   1.0000   1.0000   1.0000   1.0000   1.0000
     1.0000   1.0000   1.0000   1.0000   1.0000   1.0000   1.0000   1.0000
     1.0000   1.0000   1.0000   1.0000   1.0000   1.0000   1.0000   1.0000
     1.0000   1.0000   1.0000   1.0000   1.0000   1.0000   1.0000   1.0000
     1.0000   1.0000   1.0000   1.0000

          k = 1.5557-0.0429-0.1756 (  8544 PWs)   bands (ev):

    -9.9386  -9.9280  -9.5008  -9.1054  -8.9929  -8.8659  -4.6652  -4.6619
    -4.5753  -4.5470  -4.5321  -4.5203  -4.4744  -4.4575  -4.4455  -4.4099
    -4.3283  -4.2852  -4.2629  -4.2327  -4.1833  -4.1632  -4.0258  -3.8249
    -3.6521  -3.4463   1.7586   2.2551   3.0799   3.4771   3.9057   4.2499
     4.6347   4.9773   5.2459   5.6389   6.2084   6.4400   6.9846   7.2249
     7.3309   7.6023   7.7075   8.0757

     occupation numbers 
     1.0000   1.0000   1.0000   1.0000   1.0000   1.0000   1.0000   1.0000
     1.0000   1.0000   1.0000   1.0000   1.0000   1.0000   1.0000   1.0000
     1.0000   1.0000   1.0000   1.0000   1.0000   1.0000   1.0000   1.0000
     1.0000   1.0000   1.0000   1.0000   1.0000   1.0000   1.0000   1.0000
     1.0000   1.0000   1.0000   1.0000   1.0000   1.0000   1.0000   1.0000
     1.0000   1.0000   1.0000   1.0000

          k = 1.5557-0.0429-0.0826 (  8559 PWs)   bands (ev):

    -9.9748  -9.9292  -9.4792  -9.1118  -8.9462  -8.8827  -4.6678  -4.6644
    -4.5726  -4.5514  -4.5328  -4.5278  -4.4747  -4.4578  -4.4459  -4.4049
    -4.3281  -4.2837  -4.2650  -4.2365  -4.1793  -4.1650  -3.9572  -3.8223
    -3.6839  -3.4532   1.6490   2.1422   3.0664   3.5179   3.8644   4.3306
     4.6285   4.9223   5.2992   5.7496   6.2058   6.3447   7.1765   7.3212
     7.3468   7.6502   7.7254   8.0586

     occupation numbers 
     1.0000   1.0000   1.0000   1.0000   1.0000   1.0000   1.0000   1.0000
     1.0000   1.0000   1.0000   1.0000   1.0000   1.0000   1.0000   1.0000
     1.0000   1.0000   1.0000   1.0000   1.0000   1.0000   1.0000   1.0000
     1.0000   1.0000   1.0000   1.0000   1.0000   1.0000   1.0000   1.0000
     1.0000   1.0000   1.0000   1.0000   1.0000   1.0000   1.0000   1.0000
     1.0000   1.0000   1.0000   1.0000

          k = 1.3829-0.0000 0.0000 (  8552 PWs)   bands (ev):

    -9.8043  -9.7238  -9.3838  -9.1451  -8.9082  -8.9052  -4.6123  -4.5958
    -4.5744  -4.5509  -4.5073  -4.4928  -4.4594  -4.4559  -4.4345  -4.4208
    -4.3338  -4.2535  -4.2200  -4.2146  -4.1747  -4.1687  -3.8277  -3.6512
    -3.5925  -3.5203   1.8403   1.9017   2.5239   2.7733   3.5249   4.2808
     4.5616   4.6337   4.9858   5.5521   6.0536   6.2213   6.9737   7.3764
     7.3808   7.6257   7.8303   8.0490

     occupation numbers 
     1.0000   1.0000   1.0000   1.0000   1.0000   1.0000   1.0000   1.0000
     1.0000   1.0000   1.0000   1.0000   1.0000   1.0000   1.0000   1.0000
     1.0000   1.0000   1.0000   1.0000   1.0000   1.0000   1.0000   1.0000
     1.0000   1.0000   1.0000   1.0000   1.0000   1.0000   1.0000   1.0000
     1.0000   1.0000   1.0000   1.0000   1.0000   1.0000   1.0000   1.0000
     1.0000   1.0000   1.0000   1.0000

          k = 1.3829-0.0000 0.0931 (  8556 PWs)   bands (ev):

    -9.8024  -9.7146  -9.3895  -9.1430  -8.9318  -8.8906  -4.6124  -4.5957
    -4.5723  -4.5455  -4.5087  -4.4898  -4.4590  -4.4559  -4.4364  -4.4193
    -4.3339  -4.2524  -4.2205  -4.2135  -4.1762  -4.1674  -3.8566  -3.6571
    -3.5934  -3.5063   1.8707   1.9360   2.5228   2.7832   3.5386   4.2509
     4.4850   4.7162   4.9881   5.5525   6.0508   6.2378   6.9634   7.2917
     7.3642   7.6180   7.8056   8.0315

     occupation numbers 
     1.0000   1.0000   1.0000   1.0000   1.0000   1.0000   1.0000   1.0000
     1.0000   1.0000   1.0000   1.0000   1.0000   1.0000   1.0000   1.0000
     1.0000   1.0000   1.0000   1.0000   1.0000   1.0000   1.0000   1.0000
     1.0000   1.0000   1.0000   1.0000   1.0000   1.0000   1.0000   1.0000
     1.0000   1.0000   1.0000   1.0000   1.0000   1.0000   1.0000   1.0000
     1.0000   1.0000   1.0000   1.0000

          k = 1.3829-0.0000 0.1861 (  8546 PWs)   bands (ev):

    -9.7951  -9.6906  -9.4050  -9.1374  -8.9641  -8.8837  -4.6119  -4.5963
    -4.5650  -4.5332  -4.5097  -4.4829  -4.4580  -4.4568  -4.4406  -4.4140
    -4.3341  -4.2490  -4.2224  -4.2104  -4.1791  -4.1644  -3.9202  -3.7040
    -3.5701  -3.4806   1.9588   2.0306   2.5229   2.8045   3.5796   4.1738
     4.3902   4.8143   5.0160   5.5268   6.0408   6.2987   6.8914   7.1706
     7.2657   7.5848   7.7287   7.9912

     occupation numbers 
     1.0000   1.0000   1.0000   1.0000   1.0000   1.0000   1.0000   1.0000
     1.0000   1.0000   1.0000   1.0000   1.0000   1.0000   1.0000   1.0000
     1.0000   1.0000   1.0000   1.0000   1.0000   1.0000   1.0000   1.0000
     1.0000   1.0000   1.0000   1.0000   1.0000   1.0000   1.0000   1.0000
     1.0000   1.0000   1.0000   1.0000   1.0000   1.0000   1.0000   1.0000
     1.0000   1.0000   1.0000   1.0000

          k = 1.3829-0.0000 0.2792 (  8544 PWs)   bands (ev):

    -9.7802  -9.6605  -9.4261  -9.1312  -8.9994  -8.8841  -4.6100  -4.5965
    -4.5573  -4.5221  -4.5044  -4.4736  -4.4609  -4.4552  -4.4435  -4.4034
    -4.3340  -4.2442  -4.2265  -4.2055  -4.1817  -4.1597  -3.9924  -3.7749
    -3.5425  -3.4554   2.0904   2.1654   2.5303   2.8185   3.6448   4.0754
     4.3100   4.8578   5.1158   5.4466   6.0367   6.3816   6.6876   7.1256
     7.1510   7.5126   7.6109   7.9459

     occupation numbers 
     1.0000   1.0000   1.0000   1.0000   1.0000   1.0000   1.0000   1.0000
     1.0000   1.0000   1.0000   1.0000   1.0000   1.0000   1.0000   1.0000
     1.0000   1.0000   1.0000   1.0000   1.0000   1.0000   1.0000   1.0000
     1.0000   1.0000   1.0000   1.0000   1.0000   1.0000   1.0000   1.0000
     1.0000   1.0000   1.0000   1.0000   1.0000   1.0000   1.0000   1.0000
     1.0000   1.0000   1.0000   1.0000

          k = 1.3829-0.0000 0.3722 (  8558 PWs)   bands (ev):

    -9.7589  -9.6356  -9.4445  -9.1296  -9.0291  -8.8892  -4.6074  -4.5952
    -4.5536  -4.5196  -4.4913  -4.4664  -4.4627  -4.4513  -4.4435  -4.3869
    -4.3315  -4.2449  -4.2296  -4.1994  -4.1824  -4.1522  -4.0582  -3.8513
    -3.5211  -3.4356   2.2343   2.3146   2.5498   2.8072   3.7222   3.9808
     4.2544   4.8530   5.2264   5.3994   6.0146   6.2875   6.6091   7.0096
     7.1906   7.3814   7.5025   7.9014

     occupation numbers 
     1.0000   1.0000   1.0000   1.0000   1.0000   1.0000   1.0000   1.0000
     1.0000   1.0000   1.0000   1.0000   1.0000   1.0000   1.0000   1.0000
     1.0000   1.0000   1.0000   1.0000   1.0000   1.0000   1.0000   1.0000
     1.0000   1.0000   1.0000   1.0000   1.0000   1.0000   1.0000   1.0000
     1.0000   1.0000   1.0000   1.0000   1.0000   1.0000   1.0000   1.0000
     1.0000   1.0000   1.0000   1.0000

          k = 1.3829-0.0000 0.4653 (  8558 PWs)   bands (ev):

    -9.7371  -9.6257  -9.4525  -9.1362  -9.0444  -8.8950  -4.6050  -4.5933
    -4.5527  -4.5211  -4.4828  -4.4675  -4.4576  -4.4463  -4.4392  -4.3706
    -4.3210  -4.2622  -4.2252  -4.1948  -4.1771  -4.1472  -4.1014  -3.9165
    -3.5076  -3.4235   2.3425   2.4468   2.5837   2.7658   3.7907   3.9052
     4.2295   4.8109   5.2546   5.5216   5.9323   6.0460   6.7055   6.9680
     7.1816   7.2818   7.4200   7.8648

     occupation numbers 
     1.0000   1.0000   1.0000   1.0000   1.0000   1.0000   1.0000   1.0000
     1.0000   1.0000   1.0000   1.0000   1.0000   1.0000   1.0000   1.0000
     1.0000   1.0000   1.0000   1.0000   1.0000   1.0000   1.0000   1.0000
     1.0000   1.0000   1.0000   1.0000   1.0000   1.0000   1.0000   1.0000
     1.0000   1.0000   1.0000   1.0000   1.0000   1.0000   1.0000   1.0000
     1.0000   1.0000   1.0000   1.0000

          k = 1.3829-0.0000-0.5584 (  8552 PWs)   bands (ev):

    -9.7267  -9.6258  -9.4531  -9.1414  -9.0479  -8.8975  -4.6041  -4.5924
    -4.5526  -4.5222  -4.4811  -4.4671  -4.4564  -4.4447  -4.4353  -4.3646
    -4.3054  -4.2810  -4.2227  -4.1937  -4.1638  -4.1604  -4.1082  -3.9449
    -3.5029  -3.4195   2.3796   2.5081   2.6101   2.7299   3.8350   3.8571
     4.2266   4.7793   5.2849   5.6110   5.8793   5.9134   6.7561   7.0169
     7.0624   7.3117   7.3727   7.8497

     occupation numbers 
     1.0000   1.0000   1.0000   1.0000   1.0000   1.0000   1.0000   1.0000
     1.0000   1.0000   1.0000   1.0000   1.0000   1.0000   1.0000   1.0000
     1.0000   1.0000   1.0000   1.0000   1.0000   1.0000   1.0000   1.0000
     1.0000   1.0000   1.0000   1.0000   1.0000   1.0000   1.0000   1.0000
     1.0000   1.0000   1.0000   1.0000   1.0000   1.0000   1.0000   1.0000
     1.0000   1.0000   1.0000   1.0000

          k = 0.0000 0.4293-0.1051 (  8535 PWs)   bands (ev):

   -10.4191 -10.1577  -9.6376  -9.1418  -8.9206  -8.9024  -4.7292  -4.7213
    -4.7088  -4.6505  -4.5097  -4.4941  -4.4889  -4.4602  -4.4369  -4.4094
    -4.3225  -4.2992  -4.2884  -4.2818  -4.1913  -4.1829  -4.1380  -4.1073
    -3.9997  -3.3148   1.2397   2.0538   3.4176   4.1631   5.0807   5.4016
     5.6645   5.8483   6.1838   6.3940   6.5543   6.8729   6.9810   7.1904
     7.5642   7.5757   7.7686   7.9946

     occupation numbers 
     1.0000   1.0000   1.0000   1.0000   1.0000   1.0000   1.0000   1.0000
     1.0000   1.0000   1.0000   1.0000   1.0000   1.0000   1.0000   1.0000
     1.0000   1.0000   1.0000   1.0000   1.0000   1.0000   1.0000   1.0000
     1.0000   1.0000   1.0000   1.0000   1.0000   1.0000   1.0000   1.0000
     1.0000   1.0000   1.0000   1.0000   1.0000   1.0000   1.0000   1.0000
     1.0000   1.0000   1.0000   1.0000

          k = 0.0000 0.4293-0.0120 (  8536 PWs)   bands (ev):

   -10.4401 -10.1098  -9.6445  -9.1541  -8.9679  -8.8686  -4.7290  -4.7213
    -4.7097  -4.6502  -4.5183  -4.5049  -4.4853  -4.4577  -4.4551  -4.4134
    -4.3090  -4.3014  -4.2911  -4.2758  -4.1919  -4.1829  -4.1381  -4.1133
    -3.9608  -3.3338   1.3342   2.0862   3.4095   4.1676   5.1078   5.1546
     5.4990   5.9903   6.1739   6.4158   6.4646   6.9474   7.0355   7.2241
     7.5468   7.5896   7.7911   8.0100

     occupation numbers 
     1.0000   1.0000   1.0000   1.0000   1.0000   1.0000   1.0000   1.0000
     1.0000   1.0000   1.0000   1.0000   1.0000   1.0000   1.0000   1.0000
     1.0000   1.0000   1.0000   1.0000   1.0000   1.0000   1.0000   1.0000
     1.0000   1.0000   1.0000   1.0000   1.0000   1.0000   1.0000   1.0000
     1.0000   1.0000   1.0000   1.0000   1.0000   1.0000   1.0000   1.0000
     1.0000   1.0000   1.0000   1.0000

          k = 0.0000 0.4293 0.0810 (  8523 PWs)   bands (ev):

   -10.4406 -10.0493  -9.6705  -9.1838  -9.0155  -8.8400  -4.7255  -4.7214
    -4.7115  -4.6506  -4.5533  -4.5249  -4.4763  -4.4721  -4.4502  -4.4161
    -4.3084  -4.2990  -4.2932  -4.2690  -4.1926  -4.1854  -4.1382  -4.1197
    -3.8837  -3.3608   1.5275   2.1767   3.3917   4.1703   4.9054   5.1687
     5.2609   5.9902   6.1420   6.3467   6.3745   6.9987   7.1190   7.3150
     7.5356   7.6037   7.7757   8.0545

     occupation numbers 
     1.0000   1.0000   1.0000   1.0000   1.0000   1.0000   1.0000   1.0000
     1.0000   1.0000   1.0000   1.0000   1.0000   1.0000   1.0000   1.0000
     1.0000   1.0000   1.0000   1.0000   1.0000   1.0000   1.0000   1.0000
     1.0000   1.0000   1.0000   1.0000   1.0000   1.0000   1.0000   1.0000
     1.0000   1.0000   1.0000   1.0000   1.0000   1.0000   1.0000   1.0000
     1.0000   1.0000   1.0000   1.0000

          k = 0.0000 0.4293 0.1741 (  8529 PWs)   bands (ev):

   -10.4220  -9.9843  -9.7096  -9.2394  -9.0432  -8.8211  -4.7215  -4.7194
    -4.7138  -4.6519  -4.5955  -4.5501  -4.4796  -4.4629  -4.4387  -4.4223
    -4.3198  -4.3111  -4.2797  -4.2656  -4.1933  -4.1895  -4.1381  -4.1222
    -3.7901  -3.3941   1.8059   2.3185   3.3300   4.1034   4.7411   5.0393
     5.2598   5.8143   6.0638   6.2864   6.3167   7.0261   7.1850   7.4219
     7.5293   7.6171   7.7339   8.1121

     occupation numbers 
     1.0000   1.0000   1.0000   1.0000   1.0000   1.0000   1.0000   1.0000
     1.0000   1.0000   1.0000   1.0000   1.0000   1.0000   1.0000   1.0000
     1.0000   1.0000   1.0000   1.0000   1.0000   1.0000   1.0000   1.0000
     1.0000   1.0000   1.0000   1.0000   1.0000   1.0000   1.0000   1.0000
     1.0000   1.0000   1.0000   1.0000   1.0000   1.0000   1.0000   1.0000
     1.0000   1.0000   1.0000   1.0000

          k = 0.0000 0.4293 0.2672 (  8536 PWs)   bands (ev):

   -10.3879  -9.9323  -9.7496  -9.3061  -9.0528  -8.8106  -4.7212  -4.7162
    -4.7113  -4.6552  -4.6258  -4.5777  -4.4848  -4.4471  -4.4273  -4.4247
    -4.3341  -4.3256  -4.2691  -4.2663  -4.1937  -4.1932  -4.1379  -4.1207
    -3.7004  -3.4295   2.1485   2.4900   3.1958   3.9066   4.6945   4.9356
     5.3744   5.5717   5.9390   6.2113   6.3032   7.0297   7.2275   7.5110
     7.5261   7.6294   7.6811   8.1600

     occupation numbers 
     1.0000   1.0000   1.0000   1.0000   1.0000   1.0000   1.0000   1.0000
     1.0000   1.0000   1.0000   1.0000   1.0000   1.0000   1.0000   1.0000
     1.0000   1.0000   1.0000   1.0000   1.0000   1.0000   1.0000   1.0000
     1.0000   1.0000   1.0000   1.0000   1.0000   1.0000   1.0000   1.0000
     1.0000   1.0000   1.0000   1.0000   1.0000   1.0000   1.0000   1.0000
     1.0000   1.0000   1.0000   1.0000

          k = 0.0000 0.4293 0.3602 (  8549 PWs)   bands (ev):

   -10.3452  -9.9239  -9.7718  -9.3521  -9.0546  -8.8058  -4.7205  -4.7183
    -4.7026  -4.6637  -4.6352  -4.6021  -4.4888  -4.4329  -4.4292  -4.4109
    -4.3478  -4.3396  -4.2706  -4.2613  -4.1951  -4.1938  -4.1377  -4.1177
    -3.6409  -3.4517   2.5197   2.6053   3.0448   3.6538   4.6965   4.9715
     5.3589   5.4948   5.8062   6.1222   6.3164   7.0106   7.2541   7.5250
     7.5633   7.6262   7.6402   8.1829

     occupation numbers 
     1.0000   1.0000   1.0000   1.0000   1.0000   1.0000   1.0000   1.0000
     1.0000   1.0000   1.0000   1.0000   1.0000   1.0000   1.0000   1.0000
     1.0000   1.0000   1.0000   1.0000   1.0000   1.0000   1.0000   1.0000
     1.0000   1.0000   1.0000   1.0000   1.0000   1.0000   1.0000   1.0000
     1.0000   1.0000   1.0000   1.0000   1.0000   1.0000   1.0000   1.0000
     1.0000   1.0000   1.0000   1.0000

          k = 0.0000 0.4293-0.6635 (  8534 PWs)   bands (ev):

   -10.3040  -9.9651  -9.7808  -9.3498  -9.0541  -8.8045  -4.7207  -4.7183
    -4.6961  -4.6709  -4.6278  -4.6185  -4.4911  -4.4279  -4.4269  -4.4030
    -4.3537  -4.3471  -4.2772  -4.2564  -4.1953  -4.1936  -4.1375  -4.1150
    -3.6461  -3.4325   2.4416   2.8877   2.9839   3.5517   4.6762   5.0742
     5.2608   5.5328   5.7643   6.0529   6.3463   6.9714   7.2647   7.5259
     7.5638   7.5876   7.6482   8.1756

     occupation numbers 
     1.0000   1.0000   1.0000   1.0000   1.0000   1.0000   1.0000   1.0000
     1.0000   1.0000   1.0000   1.0000   1.0000   1.0000   1.0000   1.0000
     1.0000   1.0000   1.0000   1.0000   1.0000   1.0000   1.0000   1.0000
     1.0000   1.0000   1.0000   1.0000   1.0000   1.0000   1.0000   1.0000
     1.0000   1.0000   1.0000   1.0000   1.0000   1.0000   1.0000   1.0000
     1.0000   1.0000   1.0000   1.0000

          k = 0.0000 0.4293-0.5704 (  8517 PWs)   bands (ev):

   -10.2757 -10.0324  -9.7826  -9.3028  -9.0533  -8.8057  -4.7217  -4.7165
    -4.6972  -4.6675  -4.6251  -4.6084  -4.4914  -4.4363  -4.4200  -4.4084
    -4.3465  -4.3415  -4.2855  -4.2544  -4.1942  -4.1931  -4.1374  -4.1132
    -3.7016  -3.3884   2.1454   2.7585   3.2150   3.7573   4.6197   5.1712
     5.3331   5.4289   5.8723   6.0309   6.3917   6.9175   7.2436   7.5289
     7.5375   7.5613   7.6511   8.1429

     occupation numbers 
     1.0000   1.0000   1.0000   1.0000   1.0000   1.0000   1.0000   1.0000
     1.0000   1.0000   1.0000   1.0000   1.0000   1.0000   1.0000   1.0000
     1.0000   1.0000   1.0000   1.0000   1.0000   1.0000   1.0000   1.0000
     1.0000   1.0000   1.0000   1.0000   1.0000   1.0000   1.0000   1.0000
     1.0000   1.0000   1.0000   1.0000   1.0000   1.0000   1.0000   1.0000
     1.0000   1.0000   1.0000   1.0000

          k = 0.0000 0.4293-0.4773 (  8514 PWs)   bands (ev):

   -10.2672 -10.1097  -9.7632  -9.2375  -9.0503  -8.8099  -4.7222  -4.7142
    -4.7044  -4.6593  -4.6134  -4.5833  -4.4896  -4.4514  -4.4221  -4.4091
    -4.3327  -4.3278  -4.2955  -4.2559  -4.1924  -4.1924  -4.1374  -4.1114
    -3.7776  -3.3482   1.8367   2.5226   3.3944   4.0447   4.6312   5.2622
     5.3086   5.5241   5.9970   6.0424   6.4560   6.8552   7.1776   7.5012
     7.5342   7.5544   7.6464   8.0974

     occupation numbers 
     1.0000   1.0000   1.0000   1.0000   1.0000   1.0000   1.0000   1.0000
     1.0000   1.0000   1.0000   1.0000   1.0000   1.0000   1.0000   1.0000
     1.0000   1.0000   1.0000   1.0000   1.0000   1.0000   1.0000   1.0000
     1.0000   1.0000   1.0000   1.0000   1.0000   1.0000   1.0000   1.0000
     1.0000   1.0000   1.0000   1.0000   1.0000   1.0000   1.0000   1.0000
     1.0000   1.0000   1.0000   1.0000

          k = 0.0000 0.4293-0.3843 (  8528 PWs)   bands (ev):

   -10.2822 -10.1740  -9.7252  -9.1793  -9.0374  -8.8198  -4.7222  -4.7129
    -4.7119  -4.6549  -4.5814  -4.5561  -4.4861  -4.4667  -4.4369  -4.3957
    -4.3194  -4.3125  -4.3071  -4.2611  -4.1917  -4.1902  -4.1375  -4.1090
    -3.8597  -3.3203   1.5658   2.3202   3.4570   4.1919   4.8293   5.2062
     5.4176   5.7391   6.0390   6.0936   6.5427   6.7906   7.0904   7.4203
     7.5416   7.5986   7.6329   8.0534

     occupation numbers 
     1.0000   1.0000   1.0000   1.0000   1.0000   1.0000   1.0000   1.0000
     1.0000   1.0000   1.0000   1.0000   1.0000   1.0000   1.0000   1.0000
     1.0000   1.0000   1.0000   1.0000   1.0000   1.0000   1.0000   1.0000
     1.0000   1.0000   1.0000   1.0000   1.0000   1.0000   1.0000   1.0000
     1.0000   1.0000   1.0000   1.0000   1.0000   1.0000   1.0000   1.0000
     1.0000   1.0000   1.0000   1.0000

          k = 0.0000 0.4293-0.2912 (  8536 PWs)   bands (ev):

   -10.3266 -10.1982  -9.6835  -9.1473  -9.0039  -8.8388  -4.7219  -4.7206
    -4.7100  -4.6528  -4.5384  -4.5305  -4.4803  -4.4791  -4.4491  -4.3843
    -4.3194  -4.3088  -4.2997  -4.2699  -4.1913  -4.1879  -4.1376  -4.1060
    -3.9356  -3.3062   1.3634   2.1712   3.4535   4.2012   5.1314   5.1480
     5.6020   5.8783   6.0461   6.1517   6.6359   6.7365   7.0189   7.3232
     7.5512   7.6119   7.6584   8.0205

     occupation numbers 
     1.0000   1.0000   1.0000   1.0000   1.0000   1.0000   1.0000   1.0000
     1.0000   1.0000   1.0000   1.0000   1.0000   1.0000   1.0000   1.0000
     1.0000   1.0000   1.0000   1.0000   1.0000   1.0000   1.0000   1.0000
     1.0000   1.0000   1.0000   1.0000   1.0000   1.0000   1.0000   1.0000
     1.0000   1.0000   1.0000   1.0000   1.0000   1.0000   1.0000   1.0000
     1.0000   1.0000   1.0000   1.0000

          k = 0.0000 0.4293-0.1981 (  8550 PWs)   bands (ev):

   -10.3790 -10.1886  -9.6516  -9.1388  -8.9565  -8.8696  -4.7263  -4.7215
    -4.7089  -4.6514  -4.5168  -4.4994  -4.4868  -4.4638  -4.4572  -4.3862
    -4.3268  -4.3018  -4.2914  -4.2793  -4.1911  -4.1852  -4.1378  -4.1048
    -3.9885  -3.3050   1.2505   2.0819   3.4327   4.1773   5.0887   5.4306
     5.6994   5.7925   6.1784   6.2312   6.6287   6.7818   6.9812   7.2335
     7.5626   7.5873   7.7191   8.0008

     occupation numbers 
     1.0000   1.0000   1.0000   1.0000   1.0000   1.0000   1.0000   1.0000
     1.0000   1.0000   1.0000   1.0000   1.0000   1.0000   1.0000   1.0000
     1.0000   1.0000   1.0000   1.0000   1.0000   1.0000   1.0000   1.0000
     1.0000   1.0000   1.0000   1.0000   1.0000   1.0000   1.0000   1.0000
     1.0000   1.0000   1.0000   1.0000   1.0000   1.0000   1.0000   1.0000
     1.0000   1.0000   1.0000   1.0000

          k = 1.9015-0.0429 0.0105 (  8550 PWs)   bands (ev):

   -10.3191 -10.1822  -9.6147  -9.1289  -8.9207  -8.9033  -4.7448  -4.7127
    -4.6776  -4.6307  -4.5177  -4.5051  -4.4933  -4.4617  -4.4182  -4.4084
    -4.3393  -4.3333  -4.2883  -4.2271  -4.2043  -4.1428  -4.1424  -4.0685
    -3.9654  -3.3115   1.2864   2.0642   3.4501   4.1333   4.8585   5.3501
     5.4205   5.6486   5.9117   6.0036   6.9126   6.9499   7.0552   7.1171
     7.4728   7.4956   7.7544   8.0002

     occupation numbers 
     1.0000   1.0000   1.0000   1.0000   1.0000   1.0000   1.0000   1.0000
     1.0000   1.0000   1.0000   1.0000   1.0000   1.0000   1.0000   1.0000
     1.0000   1.0000   1.0000   1.0000   1.0000   1.0000   1.0000   1.0000
     1.0000   1.0000   1.0000   1.0000   1.0000   1.0000   1.0000   1.0000
     1.0000   1.0000   1.0000   1.0000   1.0000   1.0000   1.0000   1.0000
     1.0000   1.0000   1.0000   1.0000

          k = 1.9015-0.0429 0.1036 (  8535 PWs)   bands (ev):

   -10.3414 -10.1379  -9.6229  -9.1353  -8.9664  -8.8701  -4.7442  -4.7133
    -4.6773  -4.6309  -4.5233  -4.5149  -4.4873  -4.4595  -4.4410  -4.4001
    -4.3385  -4.3287  -4.2866  -4.2298  -4.2047  -4.1518  -4.1420  -4.0706
    -3.9319  -3.3226   1.3598   2.0939   3.4457   4.1386   4.8778   5.2125
     5.2427   5.7808   5.9636   5.9921   6.7702   6.9380   7.0935   7.1964
     7.4459   7.5206   7.7601   8.0189

     occupation numbers 
     1.0000   1.0000   1.0000   1.0000   1.0000   1.0000   1.0000   1.0000
     1.0000   1.0000   1.0000   1.0000   1.0000   1.0000   1.0000   1.0000
     1.0000   1.0000   1.0000   1.0000   1.0000   1.0000   1.0000   1.0000
     1.0000   1.0000   1.0000   1.0000   1.0000   1.0000   1.0000   1.0000
     1.0000   1.0000   1.0000   1.0000   1.0000   1.0000   1.0000   1.0000
     1.0000   1.0000   1.0000   1.0000

          k = 1.9015-0.0429 0.1966 (  8535 PWs)   bands (ev):

   -10.3456 -10.0787  -9.6493  -9.1555  -9.0164  -8.8422  -4.7417  -4.7142
    -4.6762  -4.6324  -4.5471  -4.5291  -4.4820  -4.4598  -4.4527  -4.3996
    -4.3345  -4.3290  -4.2825  -4.2360  -4.2044  -4.1638  -4.1418  -4.0805
    -3.8587  -3.3420   1.5322   2.1834   3.4398   4.1334   4.8700   5.0431
     5.0764   5.8381   5.9398   5.9697   6.5810   6.9353   7.1764   7.2257
     7.4033   7.5667   7.7461   8.0680

     occupation numbers 
     1.0000   1.0000   1.0000   1.0000   1.0000   1.0000   1.0000   1.0000
     1.0000   1.0000   1.0000   1.0000   1.0000   1.0000   1.0000   1.0000
     1.0000   1.0000   1.0000   1.0000   1.0000   1.0000   1.0000   1.0000
     1.0000   1.0000   1.0000   1.0000   1.0000   1.0000   1.0000   1.0000
     1.0000   1.0000   1.0000   1.0000   1.0000   1.0000   1.0000   1.0000
     1.0000   1.0000   1.0000   1.0000

          k = 1.9015-0.0429 0.2897 (  8525 PWs)   bands (ev):

   -10.3326 -10.0125  -9.6875  -9.2031  -9.0463  -8.8244  -4.7378  -4.7151
    -4.6740  -4.6359  -4.5786  -4.5495  -4.4823  -4.4596  -4.4419  -4.4031
    -4.3360  -4.3345  -4.2757  -4.2434  -4.2030  -4.1733  -4.1420  -4.0928
    -3.7699  -3.3691   1.7897   2.3268   3.4013   4.0622   4.7269   4.9184
     5.0895   5.7461   5.8834   5.9525   6.4144   6.9212   7.1946   7.3045
     7.3726   7.6071   7.7184   8.1246

     occupation numbers 
     1.0000   1.0000   1.0000   1.0000   1.0000   1.0000   1.0000   1.0000
     1.0000   1.0000   1.0000   1.0000   1.0000   1.0000   1.0000   1.0000
     1.0000   1.0000   1.0000   1.0000   1.0000   1.0000   1.0000   1.0000
     1.0000   1.0000   1.0000   1.0000   1.0000   1.0000   1.0000   1.0000
     1.0000   1.0000   1.0000   1.0000   1.0000   1.0000   1.0000   1.0000
     1.0000   1.0000   1.0000   1.0000

          k = 1.9015-0.0429 0.3828 (  8530 PWs)   bands (ev):

   -10.3066  -9.9538  -9.7254  -9.2689  -9.0555  -8.8148  -4.7331  -4.7155
    -4.6710  -4.6432  -4.6021  -4.5726  -4.4857  -4.4526  -4.4275  -4.4030
    -4.3481  -4.3404  -4.2681  -4.2501  -4.2011  -4.1818  -4.1426  -4.1010
    -3.6831  -3.4021   2.1108   2.5075   3.2877   3.8836   4.6159   4.8497
     5.2084   5.5661   5.7958   5.9346   6.2994   6.8862   7.1791   7.3250
     7.4392   7.6330   7.6855   8.1700

     occupation numbers 
     1.0000   1.0000   1.0000   1.0000   1.0000   1.0000   1.0000   1.0000
     1.0000   1.0000   1.0000   1.0000   1.0000   1.0000   1.0000   1.0000
     1.0000   1.0000   1.0000   1.0000   1.0000   1.0000   1.0000   1.0000
     1.0000   1.0000   1.0000   1.0000   1.0000   1.0000   1.0000   1.0000
     1.0000   1.0000   1.0000   1.0000   1.0000   1.0000   1.0000   1.0000
     1.0000   1.0000   1.0000   1.0000

          k = 1.9015-0.0429 0.4758 (  8531 PWs)   bands (ev):

   -10.2749  -9.9265  -9.7471  -9.3228  -9.0565  -8.8107  -4.7287  -4.7153
    -4.6674  -4.6532  -4.6111  -4.5928  -4.4885  -4.4482  -4.4105  -4.3985
    -4.3623  -4.3496  -4.2624  -4.2551  -4.1989  -4.1890  -4.1432  -4.1039
    -3.6168  -3.4326   2.4571   2.6716   3.1084   3.6568   4.5685   4.8659
     5.3442   5.4026   5.6751   5.9063   6.2473   6.8423   7.1671   7.3138
     7.5221   7.6336   7.6643   8.1968

     occupation numbers 
     1.0000   1.0000   1.0000   1.0000   1.0000   1.0000   1.0000   1.0000
     1.0000   1.0000   1.0000   1.0000   1.0000   1.0000   1.0000   1.0000
     1.0000   1.0000   1.0000   1.0000   1.0000   1.0000   1.0000   1.0000
     1.0000   1.0000   1.0000   1.0000   1.0000   1.0000   1.0000   1.0000
     1.0000   1.0000   1.0000   1.0000   1.0000   1.0000   1.0000   1.0000
     1.0000   1.0000   1.0000   1.0000

          k = 1.9015-0.0429-0.5479 (  8523 PWs)   bands (ev):

   -10.2484  -9.9408  -9.7534  -9.3351  -9.0560  -8.8096  -4.7265  -4.7150
    -4.6644  -4.6592  -4.6081  -4.6056  -4.4900  -4.4462  -4.4016  -4.3938
    -4.3698  -4.3559  -4.2648  -4.2533  -4.1971  -4.1926  -4.1433  -4.1034
    -3.6029  -3.4336   2.5427   2.8327   3.0161   3.5401   4.5559   4.9039
     5.3187   5.4227   5.5999   5.8887   6.2504   6.8062   7.1654   7.3110
     7.5417   7.6013   7.6841   8.2032

     occupation numbers 
     1.0000   1.0000   1.0000   1.0000   1.0000   1.0000   1.0000   1.0000
     1.0000   1.0000   1.0000   1.0000   1.0000   1.0000   1.0000   1.0000
     1.0000   1.0000   1.0000   1.0000   1.0000   1.0000   1.0000   1.0000
     1.0000   1.0000   1.0000   1.0000   1.0000   1.0000   1.0000   1.0000
     1.0000   1.0000   1.0000   1.0000   1.0000   1.0000   1.0000   1.0000
     1.0000   1.0000   1.0000   1.0000

          k = 1.9015-0.0429-0.4548 (  8520 PWs)   bands (ev):

   -10.2367  -9.9836  -9.7530  -9.2984  -9.0559  -8.8106  -4.7280  -4.7146
    -4.6662  -4.6544  -4.6083  -4.5948  -4.4900  -4.4462  -4.4154  -4.3913
    -4.3618  -4.3516  -4.2712  -4.2489  -4.1989  -4.1891  -4.1429  -4.1001
    -3.6486  -3.4002   2.2653   2.7589   3.2161   3.6768   4.5522   4.9415
     5.3104   5.3522   5.6982   5.8915   6.3058   6.7890   7.1760   7.3133
     7.4610   7.6192   7.6966   8.1893

     occupation numbers 
     1.0000   1.0000   1.0000   1.0000   1.0000   1.0000   1.0000   1.0000
     1.0000   1.0000   1.0000   1.0000   1.0000   1.0000   1.0000   1.0000
     1.0000   1.0000   1.0000   1.0000   1.0000   1.0000   1.0000   1.0000
     1.0000   1.0000   1.0000   1.0000   1.0000   1.0000   1.0000   1.0000
     1.0000   1.0000   1.0000   1.0000   1.0000   1.0000   1.0000   1.0000
     1.0000   1.0000   1.0000   1.0000

          k = 1.9015-0.0429-0.3617 (  8515 PWs)   bands (ev):

   -10.2396 -10.0478  -9.7329  -9.2354  -9.0542  -8.8145  -4.7318  -4.7143
    -4.6696  -4.6449  -4.5983  -4.5744  -4.4883  -4.4509  -4.4308  -4.3936
    -4.3480  -4.3431  -4.2782  -4.2443  -4.2011  -4.1826  -4.1422  -4.0935
    -3.7217  -3.3630   1.9499   2.5400   3.4105   3.9089   4.6094   4.9853
     5.1895   5.4555   5.8044   5.9107   6.4129   6.7958   7.1940   7.3012
     7.3672   7.6430   7.6885   8.1566

     occupation numbers 
     1.0000   1.0000   1.0000   1.0000   1.0000   1.0000   1.0000   1.0000
     1.0000   1.0000   1.0000   1.0000   1.0000   1.0000   1.0000   1.0000
     1.0000   1.0000   1.0000   1.0000   1.0000   1.0000   1.0000   1.0000
     1.0000   1.0000   1.0000   1.0000   1.0000   1.0000   1.0000   1.0000
     1.0000   1.0000   1.0000   1.0000   1.0000   1.0000   1.0000   1.0000
     1.0000   1.0000   1.0000   1.0000

          k = 1.9015-0.0429-0.2687 (  8530 PWs)   bands (ev):

   -10.2481 -10.1209  -9.6956  -9.1743  -9.0432  -8.8237  -4.7363  -4.7139
    -4.6728  -4.6377  -4.5738  -4.5514  -4.4856  -4.4595  -4.4435  -4.3902
    -4.3378  -4.3375  -4.2846  -4.2388  -4.2031  -4.1748  -4.1417  -4.0833
    -3.8045  -3.3343   1.6668   2.3405   3.4838   4.0742   4.7755   5.0047
     5.1801   5.5564   5.8865   5.9276   6.5604   6.8227   7.1959   7.2187
     7.3610   7.6395   7.6855   8.1100

     occupation numbers 
     1.0000   1.0000   1.0000   1.0000   1.0000   1.0000   1.0000   1.0000
     1.0000   1.0000   1.0000   1.0000   1.0000   1.0000   1.0000   1.0000
     1.0000   1.0000   1.0000   1.0000   1.0000   1.0000   1.0000   1.0000
     1.0000   1.0000   1.0000   1.0000   1.0000   1.0000   1.0000   1.0000
     1.0000   1.0000   1.0000   1.0000   1.0000   1.0000   1.0000   1.0000
     1.0000   1.0000   1.0000   1.0000

          k = 1.9015-0.0429-0.1756 (  8538 PWs)   bands (ev):

   -10.2577 -10.1833  -9.6559  -9.1390  -9.0097  -8.8416  -4.7404  -4.7133
    -4.6754  -4.6337  -4.5427  -4.5303  -4.4853  -4.4606  -4.4537  -4.3849
    -4.3376  -4.3336  -4.2885  -4.2325  -4.2044  -4.1649  -4.1416  -4.0725
    -3.8849  -3.3164   1.4486   2.1894   3.4843   4.1310   4.8963   5.0824
     5.3197   5.5978   5.9197   5.9513   6.7157   6.8748   7.1256   7.1789
     7.3977   7.5862   7.7130   8.0589

     occupation numbers 
     1.0000   1.0000   1.0000   1.0000   1.0000   1.0000   1.0000   1.0000
     1.0000   1.0000   1.0000   1.0000   1.0000   1.0000   1.0000   1.0000
     1.0000   1.0000   1.0000   1.0000   1.0000   1.0000   1.0000   1.0000
     1.0000   1.0000   1.0000   1.0000   1.0000   1.0000   1.0000   1.0000
     1.0000   1.0000   1.0000   1.0000   1.0000   1.0000   1.0000   1.0000
     1.0000   1.0000   1.0000   1.0000

          k = 1.9015-0.0429-0.0826 (  8539 PWs)   bands (ev):

   -10.2837 -10.2040  -9.6265  -9.1288  -8.9599  -8.8707  -4.7434  -4.7128
    -4.6769  -4.6316  -4.5228  -4.5128  -4.4900  -4.4600  -4.4426  -4.3888
    -4.3385  -4.3352  -4.2892  -4.2279  -4.2045  -4.1516  -4.1417  -4.0674
    -3.9458  -3.3091   1.3173   2.0961   3.4646   4.1352   4.8679   5.3068
     5.4472   5.5845   5.8904   5.9885   6.8346   6.9807   7.0719   7.1039
     7.4443   7.5288   7.7377   8.0172

     occupation numbers 
     1.0000   1.0000   1.0000   1.0000   1.0000   1.0000   1.0000   1.0000
     1.0000   1.0000   1.0000   1.0000   1.0000   1.0000   1.0000   1.0000
     1.0000   1.0000   1.0000   1.0000   1.0000   1.0000   1.0000   1.0000
     1.0000   1.0000   1.0000   1.0000   1.0000   1.0000   1.0000   1.0000
     1.0000   1.0000   1.0000   1.0000   1.0000   1.0000   1.0000   1.0000
     1.0000   1.0000   1.0000   1.0000

          k = 1.7286 0.0000-0.0000 (  8542 PWs)   bands (ev):

   -10.1489 -10.1171  -9.5538  -9.1143  -8.9193  -8.9049  -4.7265  -4.7027
    -4.6113  -4.5897  -4.5489  -4.5242  -4.4709  -4.4688  -4.4244  -4.3760
    -4.3508  -4.3409  -4.2786  -4.2325  -4.1870  -4.1539  -4.0165  -3.9999
    -3.8554  -3.3572   1.4225   2.1089   3.3937   4.0910   4.3573   4.7772
     4.7973   5.3635   5.6735   5.7881   6.6365   6.6433   7.2772   7.3403
     7.3691   7.5346   7.6781   8.0252

     occupation numbers 
     1.0000   1.0000   1.0000   1.0000   1.0000   1.0000   1.0000   1.0000
     1.0000   1.0000   1.0000   1.0000   1.0000   1.0000   1.0000   1.0000
     1.0000   1.0000   1.0000   1.0000   1.0000   1.0000   1.0000   1.0000
     1.0000   1.0000   1.0000   1.0000   1.0000   1.0000   1.0000   1.0000
     1.0000   1.0000   1.0000   1.0000   1.0000   1.0000   1.0000   1.0000
     1.0000   1.0000   1.0000   1.0000

          k = 1.7286 0.0000 0.0931 (  8533 PWs)   bands (ev):

   -10.1617 -10.0878  -9.5628  -9.1142  -8.9604  -8.8753  -4.7255  -4.7024
    -4.6111  -4.5915  -4.5485  -4.5260  -4.4716  -4.4664  -4.4289  -4.3773
    -4.3502  -4.3413  -4.2771  -4.2315  -4.1886  -4.1537  -4.0640  -3.9706
    -3.8347  -3.3599   1.4719   2.1414   3.3921   4.0833   4.3699   4.6985
     4.8589   5.3327   5.6155   5.8214   6.6078   6.6933   7.1763   7.2646
     7.3643   7.5932   7.6798   8.0467

     occupation numbers 
     1.0000   1.0000   1.0000   1.0000   1.0000   1.0000   1.0000   1.0000
     1.0000   1.0000   1.0000   1.0000   1.0000   1.0000   1.0000   1.0000
     1.0000   1.0000   1.0000   1.0000   1.0000   1.0000   1.0000   1.0000
     1.0000   1.0000   1.0000   1.0000   1.0000   1.0000   1.0000   1.0000
     1.0000   1.0000   1.0000   1.0000   1.0000   1.0000   1.0000   1.0000
     1.0000   1.0000   1.0000   1.0000

          k = 1.7286 0.0000 0.1861 (  8531 PWs)   bands (ev):

   -10.1683 -10.0342  -9.5879  -9.1173  -9.0143  -8.8514  -4.7224  -4.7013
    -4.6110  -4.5962  -4.5488  -4.5314  -4.4723  -4.4607  -4.4375  -4.3814
    -4.3506  -4.3416  -4.2730  -4.2291  -4.1935  -4.1536  -4.1116  -3.9755
    -3.7736  -3.3680   1.6150   2.2373   3.3820   4.0462   4.4001   4.5969
     4.9069   5.2919   5.5184   5.8298   6.5561   6.7715   7.0110   7.1083
     7.3449   7.6235   7.7042   8.0923

     occupation numbers 
     1.0000   1.0000   1.0000   1.0000   1.0000   1.0000   1.0000   1.0000
     1.0000   1.0000   1.0000   1.0000   1.0000   1.0000   1.0000   1.0000
     1.0000   1.0000   1.0000   1.0000   1.0000   1.0000   1.0000   1.0000
     1.0000   1.0000   1.0000   1.0000   1.0000   1.0000   1.0000   1.0000
     1.0000   1.0000   1.0000   1.0000   1.0000   1.0000   1.0000   1.0000
     1.0000   1.0000   1.0000   1.0000

          k = 1.7286 0.0000 0.2792 (  8527 PWs)   bands (ev):

   -10.1612  -9.9718  -9.6229  -9.1398  -9.0553  -8.8376  -4.7178  -4.6992
    -4.6125  -4.6017  -4.5523  -4.5395  -4.4742  -4.4528  -4.4408  -4.3872
    -4.3535  -4.3420  -4.2671  -4.2269  -4.2013  -4.1556  -4.1425  -4.0032
    -3.6968  -3.3824   1.8380   2.3907   3.3453   3.9450   4.4092   4.5163
     4.9450   5.2798   5.4547   5.7742   6.4313   6.7465   6.9286   7.0249
     7.3007   7.6174   7.7227   8.1352

     occupation numbers 
     1.0000   1.0000   1.0000   1.0000   1.0000   1.0000   1.0000   1.0000
     1.0000   1.0000   1.0000   1.0000   1.0000   1.0000   1.0000   1.0000
     1.0000   1.0000   1.0000   1.0000   1.0000   1.0000   1.0000   1.0000
     1.0000   1.0000   1.0000   1.0000   1.0000   1.0000   1.0000   1.0000
     1.0000   1.0000   1.0000   1.0000   1.0000   1.0000   1.0000   1.0000
     1.0000   1.0000   1.0000   1.0000

          k = 1.7286 0.0000 0.3722 (  8514 PWs)   bands (ev):

   -10.1443  -9.9123  -9.6567  -9.1929  -9.0661  -8.8314  -4.7125  -4.6961
    -4.6186  -4.6045  -4.5589  -4.5480  -4.4771  -4.4471  -4.4327  -4.3929
    -4.3569  -4.3450  -4.2606  -4.2291  -4.2062  -4.1669  -4.1515  -4.0343
    -3.6221  -3.4039   2.1193   2.5884   3.2508   3.7643   4.3517   4.5113
     5.0047   5.2669   5.4742   5.6736   6.2645   6.5832   6.8743   7.0831
     7.2904   7.6155   7.7026   8.1645

     occupation numbers 
     1.0000   1.0000   1.0000   1.0000   1.0000   1.0000   1.0000   1.0000
     1.0000   1.0000   1.0000   1.0000   1.0000   1.0000   1.0000   1.0000
     1.0000   1.0000   1.0000   1.0000   1.0000   1.0000   1.0000   1.0000
     1.0000   1.0000   1.0000   1.0000   1.0000   1.0000   1.0000   1.0000
     1.0000   1.0000   1.0000   1.0000   1.0000   1.0000   1.0000   1.0000
     1.0000   1.0000   1.0000   1.0000

          k = 1.7286 0.0000 0.4653 (  8523 PWs)   bands (ev):

   -10.1263  -9.8726  -9.6755  -9.2455  -9.0655  -8.8294  -4.7078  -4.6931
    -4.6257  -4.6061  -4.5648  -4.5541  -4.4793  -4.4441  -4.4192  -4.3984
    -4.3584  -4.3504  -4.2551  -4.2351  -4.2035  -4.1787  -4.1539  -4.0571
    -3.5595  -3.4316   2.4289   2.7897   3.0852   3.5444   4.3050   4.5164
     5.0835   5.2727   5.5045   5.5800   6.1400   6.4277   6.8608   7.0537
     7.3933   7.5991   7.6606   8.1805

     occupation numbers 
     1.0000   1.0000   1.0000   1.0000   1.0000   1.0000   1.0000   1.0000
     1.0000   1.0000   1.0000   1.0000   1.0000   1.0000   1.0000   1.0000
     1.0000   1.0000   1.0000   1.0000   1.0000   1.0000   1.0000   1.0000
     1.0000   1.0000   1.0000   1.0000   1.0000   1.0000   1.0000   1.0000
     1.0000   1.0000   1.0000   1.0000   1.0000   1.0000   1.0000   1.0000
     1.0000   1.0000   1.0000   1.0000

          k = 1.7286 0.0000-0.5584 (  8526 PWs)   bands (ev):

   -10.1183  -9.8607  -9.6786  -9.2676  -9.0646  -8.8291  -4.7058  -4.6918
    -4.6286  -4.6070  -4.5670  -4.5563  -4.4800  -4.4430  -4.4090  -4.4046
    -4.3572  -4.3547  -4.2528  -4.2379  -4.1997  -4.1853  -4.1548  -4.0652
    -3.5281  -3.4509   2.6750   2.7853   3.0172   3.4113   4.2908   4.5168
     5.1248   5.2913   5.4645   5.5785   6.0982   6.3620   6.8613   7.0272
     7.5155   7.5156   7.6488   8.1854

     occupation numbers 
     1.0000   1.0000   1.0000   1.0000   1.0000   1.0000   1.0000   1.0000
     1.0000   1.0000   1.0000   1.0000   1.0000   1.0000   1.0000   1.0000
     1.0000   1.0000   1.0000   1.0000   1.0000   1.0000   1.0000   1.0000
     1.0000   1.0000   1.0000   1.0000   1.0000   1.0000   1.0000   1.0000
     1.0000   1.0000   1.0000   1.0000   1.0000   1.0000   1.0000   1.0000
     1.0000   1.0000   1.0000   1.0000

          k = 0.0000-0.5152 0.1261 (  8512 PWs)   bands (ev):

   -10.3272 -10.2610  -9.6365  -9.1336  -8.9207  -8.9028  -4.7298  -4.7217
    -4.7088  -4.6515  -4.5096  -4.4981  -4.4894  -4.4598  -4.4347  -4.4142
    -4.3308  -4.2992  -4.2885  -4.2842  -4.1908  -4.1815  -4.1377  -4.1070
    -3.9947  -3.2895   1.2393   2.0334   3.4722   4.0813   5.0648   5.4988
     5.6870   5.9896   6.1273   6.1878   6.6934   6.7458   7.0223   7.1409
     7.5695   7.5702   7.7984   7.9809

     occupation numbers 
     1.0000   1.0000   1.0000   1.0000   1.0000   1.0000   1.0000   1.0000
     1.0000   1.0000   1.0000   1.0000   1.0000   1.0000   1.0000   1.0000
     1.0000   1.0000   1.0000   1.0000   1.0000   1.0000   1.0000   1.0000
     1.0000   1.0000   1.0000   1.0000   1.0000   1.0000   1.0000   1.0000
     1.0000   1.0000   1.0000   1.0000   1.0000   1.0000   1.0000   1.0000
     1.0000   1.0000   1.0000   1.0000

          k = 0.0000-0.5152 0.2192 (  8534 PWs)   bands (ev):

   -10.3355 -10.2344  -9.6469  -9.1381  -8.9639  -8.8684  -4.7283  -4.7218
    -4.7093  -4.6519  -4.5160  -4.5069  -4.4865  -4.4615  -4.4571  -4.4031
    -4.3247  -4.3016  -4.2913  -4.2791  -4.1910  -4.1828  -4.1377  -4.1088
    -3.9697  -3.2945   1.2926   2.0635   3.4809   4.0873   5.0825   5.3041
     5.7197   5.9555   6.1221   6.1789   6.6213   6.8036   7.0402   7.1890
     7.5545   7.5880   7.7831   7.9938

     occupation numbers 
     1.0000   1.0000   1.0000   1.0000   1.0000   1.0000   1.0000   1.0000
     1.0000   1.0000   1.0000   1.0000   1.0000   1.0000   1.0000   1.0000
     1.0000   1.0000   1.0000   1.0000   1.0000   1.0000   1.0000   1.0000
     1.0000   1.0000   1.0000   1.0000   1.0000   1.0000   1.0000   1.0000
     1.0000   1.0000   1.0000   1.0000   1.0000   1.0000   1.0000   1.0000
     1.0000   1.0000   1.0000   1.0000

          k = 0.0000-0.5152 0.3122 (  8540 PWs)   bands (ev):

   -10.3407 -10.1767  -9.6758  -9.1579  -9.0127  -8.8381  -4.7240  -4.7221
    -4.7108  -4.6529  -4.5455  -4.5306  -4.4793  -4.4781  -4.4493  -4.4059
    -4.3109  -4.3085  -4.2994  -4.2699  -4.1915  -4.1855  -4.1377  -4.1130
    -3.9044  -3.3095   1.4474   2.1531   3.4986   4.0901   5.0170   5.1346
     5.5068   5.9576   6.0897   6.1470   6.5243   6.8666   7.1004   7.2919
     7.5424   7.6062   7.7442   8.0289

     occupation numbers 
     1.0000   1.0000   1.0000   1.0000   1.0000   1.0000   1.0000   1.0000
     1.0000   1.0000   1.0000   1.0000   1.0000   1.0000   1.0000   1.0000
     1.0000   1.0000   1.0000   1.0000   1.0000   1.0000   1.0000   1.0000
     1.0000   1.0000   1.0000   1.0000   1.0000   1.0000   1.0000   1.0000
     1.0000   1.0000   1.0000   1.0000   1.0000   1.0000   1.0000   1.0000
     1.0000   1.0000   1.0000   1.0000

          k = 0.0000-0.5152 0.4053 (  8537 PWs)   bands (ev):

   -10.3330 -10.1062  -9.7159  -9.2060  -9.0419  -8.8188  -4.7223  -4.7176
    -4.7130  -4.6548  -4.5888  -4.5550  -4.4857  -4.4651  -4.4373  -4.4160
    -4.3194  -4.3119  -4.2968  -4.2633  -4.1922  -4.1890  -4.1376  -4.1163
    -3.8186  -3.3347   1.6899   2.2980   3.4943   4.0395   4.7669   5.2182
     5.2525   5.7803   6.0780   6.1068   6.4424   6.9171   7.1840   7.4007
     7.5334   7.6215   7.6951   8.0784

     occupation numbers 
     1.0000   1.0000   1.0000   1.0000   1.0000   1.0000   1.0000   1.0000
     1.0000   1.0000   1.0000   1.0000   1.0000   1.0000   1.0000   1.0000
     1.0000   1.0000   1.0000   1.0000   1.0000   1.0000   1.0000   1.0000
     1.0000   1.0000   1.0000   1.0000   1.0000   1.0000   1.0000   1.0000
     1.0000   1.0000   1.0000   1.0000   1.0000   1.0000   1.0000   1.0000
     1.0000   1.0000   1.0000   1.0000

          k = 0.0000-0.5152 0.4984 (  8515 PWs)   bands (ev):

   -10.3155 -10.0368  -9.7548  -9.2750  -9.0514  -8.8081  -4.7221  -4.7154
    -4.7100  -4.6587  -4.6199  -4.5821  -4.4897  -4.4493  -4.4259  -4.4231
    -4.3333  -4.3266  -4.2847  -4.2610  -4.1928  -4.1924  -4.1375  -4.1173
    -3.7304  -3.3690   1.9972   2.4867   3.4074   3.8835   4.6205   5.0895
     5.3277   5.5600   5.9663   6.0763   6.3924   6.9551   7.2613   7.4921
     7.5272   7.6318   7.6485   8.1304

     occupation numbers 
     1.0000   1.0000   1.0000   1.0000   1.0000   1.0000   1.0000   1.0000
     1.0000   1.0000   1.0000   1.0000   1.0000   1.0000   1.0000   1.0000
     1.0000   1.0000   1.0000   1.0000   1.0000   1.0000   1.0000   1.0000
     1.0000   1.0000   1.0000   1.0000   1.0000   1.0000   1.0000   1.0000
     1.0000   1.0000   1.0000   1.0000   1.0000   1.0000   1.0000   1.0000
     1.0000   1.0000   1.0000   1.0000

          k = 0.0000-0.5152 0.5914 (  8515 PWs)   bands (ev):

   -10.2970  -9.9883  -9.7764  -9.3382  -9.0530  -8.8033  -4.7215  -4.7177
    -4.7028  -4.6665  -4.6310  -4.6066  -4.4923  -4.4343  -4.4326  -4.4095
    -4.3472  -4.3403  -4.2750  -4.2627  -4.1948  -4.1933  -4.1374  -4.1167
    -3.6568  -3.4063   2.3283   2.6848   3.2027   3.6739   4.5791   5.0419
     5.3732   5.4500   5.8340   6.0245   6.3692   6.9791   7.3134   7.5234
     7.5508   7.6169   7.6371   8.1699

     occupation numbers 
     1.0000   1.0000   1.0000   1.0000   1.0000   1.0000   1.0000   1.0000
     1.0000   1.0000   1.0000   1.0000   1.0000   1.0000   1.0000   1.0000
     1.0000   1.0000   1.0000   1.0000   1.0000   1.0000   1.0000   1.0000
     1.0000   1.0000   1.0000   1.0000   1.0000   1.0000   1.0000   1.0000
     1.0000   1.0000   1.0000   1.0000   1.0000   1.0000   1.0000   1.0000
     1.0000   1.0000   1.0000   1.0000

          k = 0.0000-0.5152-0.4323 (  8526 PWs)   bands (ev):

   -10.2888  -9.9731  -9.7795  -9.3651  -9.0529  -8.8020  -4.7208  -4.7189
    -4.6994  -4.6714  -4.6277  -4.6211  -4.4933  -4.4349  -4.4273  -4.4031
    -4.3537  -4.3468  -4.2676  -4.2676  -4.1955  -4.1935  -4.1374  -4.1164
    -3.6243  -3.4260   2.5340   2.7883   3.0328   3.5612   4.5822   5.0396
     5.2955   5.5275   5.7516   5.9994   6.3627   6.9874   7.3318   7.5222
     7.5668   7.6096   7.6386   8.1846

     occupation numbers 
     1.0000   1.0000   1.0000   1.0000   1.0000   1.0000   1.0000   1.0000
     1.0000   1.0000   1.0000   1.0000   1.0000   1.0000   1.0000   1.0000
     1.0000   1.0000   1.0000   1.0000   1.0000   1.0000   1.0000   1.0000
     1.0000   1.0000   1.0000   1.0000   1.0000   1.0000   1.0000   1.0000
     1.0000   1.0000   1.0000   1.0000   1.0000   1.0000   1.0000   1.0000
     1.0000   1.0000   1.0000   1.0000

     highest occupied level (ev):     8.2032

!    total energy              =   -1362.17731090 Ry

     total all-electron energy =    -16455.917295 Ry
     estimated scf accuracy    <          5.8E-12 Ry

     The total energy is the sum of the following terms:
     one-electron contribution =    -407.68220628 Ry
     hartree contribution      =     297.23097624 Ry
     xc contribution           =    -199.42277148 Ry
     ewald contribution        =    -545.57270104 Ry
     one-center paw contrib.   =    -506.73060834 Ry
      -> PAW hartree energy AE =     147.49694327 Ry
      -> PAW hartree energy PS =    -146.99837025 Ry
      -> PAW xc energy AE      =    -151.32682110 Ry
      -> PAW xc energy PS      =      38.46789186 Ry
      -> total E_H with PAW    =     297.72954926 Ry
      -> total E_XC with PAW   =    -312.28170072 Ry

     convergence has been achieved in  58 iterations

     Forces acting on atoms (cartesian axes, Ry/au):

     atom    1 type  1   force =    -0.00000000   -0.01541290    0.00496379
     atom    2 type  1   force =     0.00000000    0.01541290   -0.00496379
     atom    3 type  1   force =     0.00000000   -0.00359635    0.00449099
     atom    4 type  1   force =    -0.00000000    0.00359635   -0.00449099
     atom    5 type  2   force =     0.00000000   -0.00128898   -0.00729596
     atom    6 type  2   force =    -0.00000000    0.00128898    0.00729596
     atom    7 type  2   force =     0.00000000    0.00409473   -0.00198315
     atom    8 type  2   force =     0.00000000   -0.00409473    0.00198315
     atom    9 type  2   force =     0.00000000   -0.01206690    0.00185157
     atom   10 type  2   force =     0.00000000    0.01206690   -0.00185157
     The non-local contrib.  to forces
     atom    1 type  1   force =     0.00000000   -0.09018852   -0.05519256
     atom    2 type  1   force =     0.00000000    0.09018852    0.05519256
     atom    3 type  1   force =     0.00000000    0.04609017    0.19124078
     atom    4 type  1   force =     0.00000000   -0.04609017   -0.19124078
     atom    5 type  2   force =     0.00000000    0.62228219   -0.18902684
     atom    6 type  2   force =     0.00000000   -0.62228219    0.18902684
     atom    7 type  2   force =     0.00000000    0.13327176    0.24076512
     atom    8 type  2   force =     0.00000000   -0.13327176   -0.24076512
     atom    9 type  2   force =     0.00000000    0.36733801   -0.21623789
     atom   10 type  2   force =     0.00000000   -0.36733801    0.21623789
     The ionic contribution  to forces
     atom    1 type  1   force =    -0.00000000   -2.40624452    1.61660739
     atom    2 type  1   force =     0.00000000    2.40624452   -1.61660739
     atom    3 type  1   force =    -0.00000000    1.35668196   -3.38232911
     atom    4 type  1   force =     0.00000000   -1.35668196    3.38232911
     atom    5 type  2   force =    -0.00000000   -5.34378352   -2.59955931
     atom    6 type  2   force =     0.00000000    5.34378352    2.59955931
     atom    7 type  2   force =    -0.00000000    2.39770562    1.47497044
     atom    8 type  2   force =     0.00000000   -2.39770562   -1.47497044
     atom    9 type  2   force =     0.00000000   -1.00892765    0.80838383
     atom   10 type  2   force =    -0.00000000    1.00892765   -0.80838383
     The local contribution  to forces
     atom    1 type  1   force =    -0.00000000    2.47947011   -1.55723532
     atom    2 type  1   force =     0.00000000   -2.47947011    1.55723532
     atom    3 type  1   force =     0.00000000   -1.40603497    3.19932479
     atom    4 type  1   force =    -0.00000000    1.40603497   -3.19932479
     atom    5 type  2   force =     0.00000000    4.72536173    2.77927857
     atom    6 type  2   force =    -0.00000000   -4.72536173   -2.77927857
     atom    7 type  2   force =    -0.00000000   -2.52533810   -1.71540363
     atom    8 type  2   force =     0.00000000    2.52533810    1.71540363
     atom    9 type  2   force =     0.00000000    0.63257930   -0.59207464
     atom   10 type  2   force =    -0.00000000   -0.63257930    0.59207464
     The core correction contribution to forces
     atom    1 type  1   force =    -0.00000000    0.00155107    0.00078599
     atom    2 type  1   force =    -0.00000000   -0.00155107   -0.00078599
     atom    3 type  1   force =     0.00000000   -0.00033286   -0.00374684
     atom    4 type  1   force =    -0.00000000    0.00033286    0.00374684
     atom    5 type  2   force =     0.00000000   -0.00514910    0.00200977
     atom    6 type  2   force =    -0.00000000    0.00514910   -0.00200977
     atom    7 type  2   force =     0.00000000   -0.00154281   -0.00231362
     atom    8 type  2   force =    -0.00000000    0.00154281    0.00231362
     atom    9 type  2   force =     0.00000000   -0.00305635    0.00177893
     atom   10 type  2   force =    -0.00000000    0.00305635   -0.00177893
     The Hubbard contrib.    to forces
     atom    1 type  1   force =     0.00000000    0.00000000    0.00000000
     atom    2 type  1   force =     0.00000000    0.00000000    0.00000000
     atom    3 type  1   force =     0.00000000    0.00000000    0.00000000
     atom    4 type  1   force =     0.00000000    0.00000000    0.00000000
     atom    5 type  2   force =     0.00000000    0.00000000    0.00000000
     atom    6 type  2   force =     0.00000000    0.00000000    0.00000000
     atom    7 type  2   force =     0.00000000    0.00000000    0.00000000
     atom    8 type  2   force =     0.00000000    0.00000000    0.00000000
     atom    9 type  2   force =     0.00000000    0.00000000    0.00000000
     atom   10 type  2   force =     0.00000000    0.00000000    0.00000000
     The SCF correction term to forces
     atom    1 type  1   force =    -0.00000000   -0.00000105   -0.00000171
     atom    2 type  1   force =     0.00000000    0.00000105    0.00000171
     atom    3 type  1   force =     0.00000000   -0.00000065    0.00000137
     atom    4 type  1   force =    -0.00000000    0.00000065   -0.00000137
     atom    5 type  2   force =    -0.00000000   -0.00000028    0.00000185
     atom    6 type  2   force =    -0.00000000    0.00000028   -0.00000185
     atom    7 type  2   force =     0.00000000   -0.00000174   -0.00000145
     atom    8 type  2   force =    -0.00000000    0.00000174    0.00000145
     atom    9 type  2   force =    -0.00000000   -0.00000022    0.00000133
     atom   10 type  2   force =     0.00000000    0.00000022   -0.00000133

     Total force =     0.032247     Total SCF correction =     0.000006


     Computing stress (Cartesian axis) and pressure

          total   stress  (Ry/bohr**3)                   (kbar)     P=       92.19
   0.00072644  -0.00000000   0.00000000          106.86       -0.00        0.00
   0.00000000   0.00061727  -0.00002300            0.00       90.80       -3.38
   0.00000000  -0.00002300   0.00053628            0.00       -3.38       78.89

     kinetic stress (kbar)  26573.64     -0.00      0.00
                               -0.00  26708.42     43.27
                                0.00     43.27  26768.55

     local   stress (kbar)  -8179.66     -0.00     -0.00
                               -0.00   7865.00   3940.28
                               -0.00   3940.28   6169.71

     nonloc. stress (kbar)  -1882.69      0.00     -0.00
                                0.00  -1758.26     13.02
                                0.00     13.02  -1795.58

     hartree stress (kbar)  24683.20      0.00      0.00
                                0.00  18264.42  -1645.86
                                0.00  -1645.86  18949.00

     exc-cor stress (kbar)   3090.88     -0.00     -0.00
                               -0.00   3081.63     -1.26
                               -0.00     -1.26   3084.03

     corecor stress (kbar) -12577.87     -0.00     -0.00
                               -0.00 -12577.47     -0.13
                               -0.00     -0.13 -12578.08

     ewald   stress (kbar) -31600.64      0.00      0.00
                                0.00 -41492.93  -2352.70
                                0.00  -2352.70 -40518.75

     hubbard stress (kbar)      0.00      0.00      0.00
                                0.00      0.00      0.00
                                0.00      0.00      0.00

     DFT-D   stress (kbar)      0.00      0.00      0.00
                                0.00      0.00      0.00
                                0.00      0.00      0.00

     XDM     stress (kbar)      0.00      0.00      0.00
                                0.00      0.00      0.00
                                0.00      0.00      0.00

     dft-nl  stress (kbar)      0.00      0.00      0.00
                                0.00      0.00      0.00
                                0.00      0.00      0.00

     TS-vdW  stress (kbar)      0.00      0.00      0.00
                                0.00      0.00      0.00
                                0.00      0.00      0.00


                                0.00      0.00      0.00
                                0.00      0.00      0.00


                                0.00      0.00      0.00


     Writing all to output data dir ./tmp/beta-Ga2O3.save/

     init_run     :     11.32s CPU     11.94s WALL (       1 calls)
     electrons    :   2634.25s CPU   2760.40s WALL (       1 calls)
     forces       :      2.09s CPU      2.30s WALL (       1 calls)
     stress       :      8.72s CPU      8.81s WALL (       1 calls)

     Called by init_run:
     wfcinit      :     10.64s CPU     11.20s WALL (       1 calls)
     wfcinit:atom :      0.07s CPU      0.07s WALL (     476 calls)
     wfcinit:wfcr :     10.07s CPU     10.62s WALL (     476 calls)
     potinit      :      0.23s CPU      0.25s WALL (       1 calls)
     hinit0       :      0.34s CPU      0.36s WALL (       1 calls)

     Called by electrons:
     c_bands      :   2462.41s CPU   2577.24s WALL (      58 calls)
     sum_band     :    165.32s CPU    176.27s WALL (      58 calls)
     v_of_rho     :      0.74s CPU      0.82s WALL (      59 calls)
     v_h          :      0.04s CPU      0.05s WALL (      59 calls)
     v_xc         :      0.72s CPU      0.80s WALL (      61 calls)
     newd         :      1.65s CPU      1.69s WALL (      59 calls)
     PAW_pot      :      3.97s CPU      4.10s WALL (      59 calls)
     mix_rho      :      0.14s CPU      0.16s WALL (      58 calls)

     Called by c_bands:
     init_us_2    :      9.64s CPU     10.53s WALL (   56644 calls)
     init_us_2:cp :      9.53s CPU     10.43s WALL (   56644 calls)
     cegterg      :   2432.35s CPU   2544.53s WALL (   28184 calls)

     Called by sum_band:
     sum_band:wei :      0.01s CPU      0.01s WALL (      58 calls)
     sum_band:loo :    163.34s CPU    174.21s WALL (      58 calls)
     sum_band:buf :      0.72s CPU      0.83s WALL (   27608 calls)
     sum_band:ini :      4.37s CPU      4.99s WALL (   27608 calls)
     sum_band:cal :     12.05s CPU     13.87s WALL (   27608 calls)
     sum_band:bec :      1.36s CPU      1.56s WALL (   27608 calls)
     addusdens    :      1.81s CPU      1.86s WALL (      58 calls)
     addusd:skk   :      0.02s CPU      0.02s WALL (     116 calls)
     addusd:dgemm :      0.45s CPU      0.49s WALL (     116 calls)
     addusd:qvan2 :      1.22s CPU      1.23s WALL (     116 calls)

     Called by *egterg:
     cdiaghg      :    825.18s CPU    852.63s WALL (  179716 calls)
     cegterg:over :    156.56s CPU    162.81s WALL (  151532 calls)
     cegterg:upda :     82.85s CPU     84.64s WALL (  151532 calls)
     cegterg:last :    142.64s CPU    145.95s WALL (  100216 calls)
     cdiaghg:chol :     42.61s CPU     43.70s WALL (  179716 calls)
     cdiaghg:inve :      8.92s CPU      9.17s WALL (  179716 calls)
     cdiaghg:para :     64.50s CPU     66.09s WALL (  359432 calls)
     h_psi        :   1167.07s CPU   1237.37s WALL (  180192 calls)
     s_psi        :     24.67s CPU     26.97s WALL (  180192 calls)
     g_psi        :      4.63s CPU      4.74s WALL (  151532 calls)

     Called by h_psi:
     h_psi:calbec :     59.91s CPU     68.20s WALL (  180192 calls)
     vloc_psi     :   1077.85s CPU   1136.52s WALL (  180192 calls)
     add_vuspsi   :     25.63s CPU     28.89s WALL (  180192 calls)

     General routines
     calbec       :     72.68s CPU     83.03s WALL (  210180 calls)
     fft          :      0.36s CPU      0.46s WALL (     790 calls)
     ffts         :      0.02s CPU      0.03s WALL (     117 calls)
     fftw         :   1088.42s CPU   1148.08s WALL (10752164 calls)
     interpolate  :      0.05s CPU      0.06s WALL (      59 calls)

     Parallel routines

     PAW routines
     PAW_pot      :      3.97s CPU      4.10s WALL (      59 calls)
     PAW_symme    :      0.03s CPU      0.03s WALL (     117 calls)

     PWSCF        :  44m23.32s CPU  46m34.17s WALL


   This run was terminated on:   2:12:13  19Jul2026            

=------------------------------------------------------------------------------=
   JOB DONE.
=------------------------------------------------------------------------------=
