ITEM: TIMESTEP
0
ITEM: NUMBER OF ATOMS
240
ITEM: BOX BOUNDS xy xz yz pp pp pp
0.0000000000000000e+00 2.7625138723124262e+01 6.9063901264718801e+00
0.0000000000000000e+00 2.1661997842785119e+01 0.0000000000000000e+00
0.0000000000000000e+00 3.0000000000000000e+01 0.0000000000000000e+00
ITEM: ATOMS id type fx fy fz
1 1 -0.383735 0.0487403 0.00224255
2 1 0.0203081 0.0112892 -0.00978684
3 1 0.00271563 -0.000524669 -1.36048e-05
4 1 -3.23366e-10 2.09135e-08 3.13913e-09
5 1 0.00286402 0.00050856 2.42353e-05
6 1 0.0215375 -0.0117003 0.00947156
7 1 0.000159583 0.000453398 -8.64021e-05
8 1 -3.02822e-05 -6.05386e-05 2.75603e-06
9 1 -3.2346e-10 2.09135e-08 3.13914e-09
10 1 -3.23452e-10 2.09135e-08 3.13914e-09
11 1 -3.02471e-05 5.9731e-05 -2.17545e-06
12 1 0.000152185 -0.000440461 9.13678e-05
13 1 -3.23507e-10 2.09135e-08 3.13914e-09
14 1 -3.2352e-10 2.09135e-08 3.13913e-09
15 1 -3.23467e-10 2.09135e-08 3.13913e-09
16 1 -3.23486e-10 2.09135e-08 3.13913e-09
17 1 -3.23516e-10 2.09135e-08 3.13913e-09
18 1 -3.23331e-10 2.09135e-08 3.13913e-09
19 1 2.8701e-05 -0.00109849 0.000243096
20 1 0.000186534 0.00115281 -0.000224345
21 1 -4.26355e-06 5.78382e-06 -2.19304e-06
22 1 -3.23376e-10 2.09135e-08 3.13914e-09
23 1 -3.23524e-10 2.09136e-08 3.13912e-09
24 1 -3.00819e-05 -2.14083e-05 1.43873e-06
25 1 0.0222309 0.0427873 0.0333107
26 1 0.0231185 -0.044172 -0.033952
27 1 0.00236676 -0.00052565 0.000236823
28 1 1.20836e-10 -4.40012e-08 -4.4857e-08
29 1 1.20777e-10 -4.40012e-08 -4.4857e-08
30 1 0.00201776 0.000476921 -4.80764e-05
31 1 0.000765595 4.01723e-05 7.47726e-06
32 1 -0.000933157 0.00139387 -0.00110814
33 1 0.00051323 0.000224506 -0.00015542
34 1 1.20819e-10 -4.40012e-08 -4.4857e-08
35 1 0.000434675 -0.00019106 0.000130433
36 1 -0.0011942 -0.000344116 0.000491748
37 1 6.68773e-10 -3.61263e-07 -8.3197e-08
38 1 1.20857e-10 -4.40012e-08 -4.4857e-08
39 1 1.20897e-10 -4.40012e-08 -4.4857e-08
40 1 1.20888e-10 -4.40012e-08 -4.4857e-08
41 1 1.2084e-10 -4.40012e-08 -4.4857e-08
42 1 -4.27133e-10 2.66528e-07 -8.52092e-09
43 1 -4.61042e-06 -1.04129e-05 -2.6477e-06
44 1 9.26293e-06 4.90253e-08 -2.15052e-08
45 1 -4.65215e-06 1.0419e-05 2.5816e-06
46 1 1.20753e-10 -4.40012e-08 -4.4857e-08
47 1 1.20825e-10 -4.40012e-08 -4.4857e-08
48 1 1.20928e-10 -4.40012e-08 -4.4857e-08
49 1 1.55988e-10 4.49694e-08 4.5562e-08
50 1 1.56015e-10 4.49694e-08 4.5562e-08
51 1 1.56072e-10 4.49694e-08 4.55619e-08
52 1 1.56036e-10 4.49694e-08 4.5562e-08
53 1 1.56021e-10 4.49694e-08 4.55619e-08
54 1 1.56052e-10 4.49694e-08 4.55619e-08
55 1 1.56034e-10 4.49694e-08 4.5562e-08
56 1 1.56015e-10 4.49693e-08 4.5562e-08
57 1 1.56058e-10 4.49694e-08 4.5562e-08
58 1 1.55946e-10 4.49693e-08 4.5562e-08
59 1 1.56016e-10 4.49694e-08 4.55619e-08
60 1 1.56089e-10 4.49693e-08 4.5562e-08
61 1 1.5602e-10 4.49694e-08 4.55619e-08
62 1 1.56046e-10 4.49694e-08 4.5562e-08
63 1 1.56093e-10 4.49694e-08 4.55619e-08
64 1 1.55991e-10 4.49694e-08 4.55619e-08
65 1 1.56061e-10 4.49694e-08 4.55619e-08
66 1 1.56127e-10 4.49694e-08 4.5562e-08
67 1 1.56035e-10 4.49694e-08 4.55619e-08
68 1 1.56062e-10 4.49694e-08 4.55619e-08
69 1 1.56072e-10 4.49694e-08 4.55619e-08
70 1 1.56102e-10 4.49694e-08 4.55619e-08
71 1 1.55985e-10 4.49694e-08 4.55619e-08
72 1 1.56096e-10 4.49694e-08 4.55619e-08
73 1 -3.412e-10 -2.13462e-08 -2.95367e-09
74 1 -3.41096e-10 -2.13463e-08 -2.95365e-09
75 1 -3.41037e-10 -2.13463e-08 -2.95366e-09
76 1 -3.41053e-10 -2.13463e-08 -2.95365e-09
77 1 -3.41059e-10 -2.13463e-08 -2.95365e-09
78 1 -3.41115e-10 -2.13463e-08 -2.95365e-09
79 1 -3.4119e-10 -2.13463e-08 -2.95365e-09
80 1 -3.41105e-10 -2.13463e-08 -2.95365e-09
81 1 -3.41108e-10 -2.13463e-08 -2.95366e-09
82 1 -3.41078e-10 -2.13463e-08 -2.95365e-09
83 1 -3.41021e-10 -2.13463e-08 -2.95367e-09
84 1 -3.41056e-10 -2.13463e-08 -2.95367e-09
85 1 -3.41139e-10 -2.13463e-08 -2.95364e-09
86 1 -3.4112e-10 -2.13463e-08 -2.95366e-09
87 1 -3.41052e-10 -2.13463e-08 -2.95367e-09
88 1 -3.41047e-10 -2.13463e-08 -2.95366e-09
89 1 -3.41088e-10 -2.13463e-08 -2.95366e-09
90 1 -3.41081e-10 -2.13463e-08 -2.95366e-09
91 1 -3.41196e-10 -2.13463e-08 -2.95366e-09
92 1 -3.41174e-10 -2.13464e-08 -2.95366e-09
93 1 -3.41099e-10 -2.13464e-08 -2.95367e-09
94 1 -3.41032e-10 -2.13463e-08 -2.95367e-09
95 1 -3.41118e-10 -2.13463e-08 -2.95366e-09
96 1 -3.41054e-10 -2.13464e-08 -2.95365e-09
97 2 0.100994 0.0362093 -0.052871
98 2 0.113443 -0.0425837 0.0574536
99 2 0.000109941 0.000594913 0.00022
100 2 -1.64526e-11 1.40085e-08 -6.22558e-08
101 2 -1.63948e-11 1.40085e-08 -6.22559e-08
102 2 -6.72396e-05 -0.000555646 -0.000196812
103 2 -0.000554355 6.53789e-05 1.07977e-05
104 2 0.000404358 0.000178977 9.65499e-06
105 2 -4.25304e-06 -4.008e-06 -3.68237e-07
106 2 -1.64657e-11 1.40085e-08 -6.22558e-08
107 2 -4.26024e-06 3.965e-06 2.93785e-07
108 2 0.000437655 -0.000146602 -3.38565e-06
109 2 -1.64961e-11 1.40085e-08 -6.22559e-08
110 2 -1.6382e-11 1.40085e-08 -6.22558e-08
111 2 -1.63922e-11 1.40085e-08 -6.22558e-08
112 2 -1.63982e-11 1.40085e-08 -6.22558e-08
113 2 -1.64358e-11 1.40085e-08 -6.22558e-08
114 2 -1.64627e-11 1.40085e-08 -6.22558e-08
115 2 -1.45545e-05 -5.18166e-06 -6.19056e-06
116 2 7.02406e-05 -7.12523e-05 1.07788e-06
117 2 -6.76952e-05 8.88111e-05 -5.12205e-06
118 2 -1.64398e-11 1.40085e-08 -6.22558e-08
119 2 -1.6483e-11 1.40085e-08 -6.22558e-08
120 2 -1.62695e-11 1.40085e-08 -6.22558e-08
121 2 -0.00110971 -0.00383281 -0.00117586
122 2 0.013539 -0.0268733 0.00193859
123 2 -0.000370318 6.85064e-05 -0.000362968
124 2 3.695e-10 2.38355e-08 9.53311e-08
125 2 3.69481e-10 2.38355e-08 9.53311e-08
126 2 -0.000514563 -0.000147642 0.000354224
127 2 9.3558e-05 -0.000598061 -0.000282234
128 2 0.00516986 -0.00812954 0.00259182
129 2 0.000817412 0.000828693 4.82615e-05
130 2 3.6949e-10 2.38355e-08 9.53311e-08
131 2 0.000663536 -0.000909212 -5.26629e-05
132 2 0.0115985 0.00400559 -0.00190862
133 2 -2.36411e-07 -4.70052e-06 -2.22474e-06
134 2 1.49128e-07 3.67177e-07 1.80105e-07
135 2 3.69501e-10 2.38354e-08 9.53311e-08
136 2 3.69502e-10 2.38354e-08 9.53311e-08
137 2 1.16809e-07 -2.46578e-07 2.88235e-08
138 2 -2.80471e-08 4.26998e-06 2.25187e-06
139 2 3.69496e-10 2.38354e-08 9.53311e-08
140 2 3.69517e-10 2.38354e-08 9.53311e-08
141 2 3.69507e-10 2.38354e-08 9.53311e-08
142 2 3.69486e-10 2.38354e-08 9.53311e-08
143 2 3.69537e-10 2.38354e-08 9.53311e-08
144 2 3.69526e-10 2.38354e-08 9.53311e-08
145 2 0.0239745 -7.3526e-05 -6.15768e-05
146 2 0.0163893 -0.00711096 -0.00393136
147 2 -0.000118192 -0.000257796 -0.000268603
148 2 -1.50398e-10 -1.47563e-08 8.64263e-09
149 2 2.89071e-05 0.000281485 0.000293329
150 2 0.00133147 0.000633518 -0.00260822
151 2 0.000758037 -0.000579116 -0.000133377
152 2 -0.000591273 -0.000688483 0.000448521
153 2 -1.50405e-10 -1.47562e-08 8.64261e-09
154 2 -1.50331e-10 -1.47563e-08 8.64263e-09
155 2 -0.000601035 0.000749503 -0.00051554
156 2 0.000759949 0.000670426 8.22029e-05
157 2 -1.50458e-10 -1.47563e-08 8.64262e-09
158 2 -1.50493e-10 -1.47563e-08 8.64263e-09
159 2 -1.50513e-10 -1.47563e-08 8.64262e-09
160 2 -1.50477e-10 -1.47563e-08 8.64263e-09
161 2 -1.50425e-10 -1.47563e-08 8.64262e-09
162 2 -1.50517e-10 -1.47562e-08 8.64261e-09
163 2 3.82467e-08 -1.2357e-05 -1.16611e-05
164 2 -7.84971e-06 0.000146732 6.80586e-05
165 2 -3.862e-08 2.06638e-08 2.57457e-08
166 2 -1.50421e-10 -1.47563e-08 8.6426e-09
167 2 -1.50459e-10 -1.47563e-08 8.64259e-09
168 2 -3.82459e-08 -4.98314e-08 -8.2939e-09
169 2 -1.32099e-10 1.51554e-08 -8.78188e-09
170 2 -1.32036e-10 1.51553e-08 -8.78184e-09
171 2 -1.32123e-10 1.51554e-08 -8.78183e-09
172 2 -1.32102e-10 1.51553e-08 -8.78184e-09
173 2 -1.32107e-10 1.51554e-08 -8.78183e-09
174 2 -1.32102e-10 1.51554e-08 -8.78183e-09
175 2 -1.32104e-10 1.51554e-08 -8.78185e-09
176 2 -1.32043e-10 1.51554e-08 -8.78184e-09
177 2 -1.321e-10 1.51554e-08 -8.78182e-09
178 2 -1.32037e-10 1.51554e-08 -8.78185e-09
179 2 -1.32082e-10 1.51554e-08 -8.78183e-09
180 2 -1.32074e-10 1.51554e-08 -8.78183e-09
181 2 -1.32161e-10 1.51554e-08 -8.78187e-09
182 2 -1.32078e-10 1.51553e-08 -8.78183e-09
183 2 -1.32135e-10 1.51553e-08 -8.78182e-09
184 2 -1.32059e-10 1.51554e-08 -8.78186e-09
185 2 -1.32081e-10 1.51553e-08 -8.78182e-09
186 2 -1.32077e-10 1.51553e-08 -8.78182e-09
187 2 -1.32097e-10 1.51554e-08 -8.78186e-09
188 2 -1.32133e-10 1.51554e-08 -8.78183e-09
189 2 -1.32089e-10 1.51554e-08 -8.78184e-09
190 2 -1.32143e-10 1.51554e-08 -8.78185e-09
191 2 -1.32049e-10 1.51554e-08 -8.78188e-09
192 2 -1.32086e-10 1.51554e-08 -8.78179e-09
193 2 3.52449e-10 -2.44093e-08 -9.74359e-08
194 2 3.52464e-10 -2.44093e-08 -9.74359e-08
195 2 3.52462e-10 -2.44093e-08 -9.74359e-08
196 2 3.52471e-10 -2.44093e-08 -9.74359e-08
197 2 3.52451e-10 -2.44093e-08 -9.74359e-08
198 2 3.52478e-10 -2.44093e-08 -9.74359e-08
199 2 3.52464e-10 -2.44092e-08 -9.74359e-08
200 2 3.52473e-10 -2.44093e-08 -9.74359e-08
201 2 3.52481e-10 -2.44092e-08 -9.74359e-08
202 2 3.52475e-10 -2.44093e-08 -9.74359e-08
203 2 3.52473e-10 -2.44093e-08 -9.74359e-08
204 2 3.5248e-10 -2.44093e-08 -9.74359e-08
205 2 3.52474e-10 -2.44092e-08 -9.74359e-08
206 2 3.52466e-10 -2.44092e-08 -9.74359e-08
207 2 3.52502e-10 -2.44092e-08 -9.74359e-08
208 2 3.52496e-10 -2.44092e-08 -9.74359e-08
209 2 3.5249e-10 -2.44092e-08 -9.74359e-08
210 2 3.52478e-10 -2.44092e-08 -9.74359e-08
211 2 3.52455e-10 -2.44092e-08 -9.74359e-08
212 2 3.52485e-10 -2.44092e-08 -9.74359e-08
213 2 3.52496e-10 -2.44092e-08 -9.74359e-08
214 2 3.52477e-10 -2.44092e-08 -9.74359e-08
215 2 3.52499e-10 -2.44092e-08 -9.74359e-08
216 2 3.52517e-10 -2.44092e-08 -9.74359e-08
217 2 -3.53424e-11 -1.43692e-08 6.36094e-08
218 2 -3.53719e-11 -1.43692e-08 6.36094e-08
219 2 -3.53525e-11 -1.43692e-08 6.36095e-08
220 2 -3.53645e-11 -1.43692e-08 6.36095e-08
221 2 -3.53172e-11 -1.43692e-08 6.36095e-08
222 2 -3.51261e-11 -1.43692e-08 6.36095e-08
223 2 -3.5274e-11 -1.43692e-08 6.36094e-08
224 2 -3.53492e-11 -1.43692e-08 6.36095e-08
225 2 -3.53209e-11 -1.43692e-08 6.36094e-08
226 2 -3.53402e-11 -1.43692e-08 6.36095e-08
227 2 -3.53788e-11 -1.43692e-08 6.36095e-08
228 2 -3.53415e-11 -1.43692e-08 6.36095e-08
229 2 -3.52933e-11 -1.43692e-08 6.36094e-08
230 2 -3.53443e-11 -1.43692e-08 6.36094e-08
231 2 -3.53947e-11 -1.43692e-08 6.36095e-08
232 2 -3.53991e-11 -1.43692e-08 6.36095e-08
233 2 -3.53784e-11 -1.43692e-08 6.36094e-08
234 2 -3.5342e-11 -1.43692e-08 6.36095e-08
235 2 -3.52596e-11 -1.43692e-08 6.36095e-08
236 2 -3.52822e-11 -1.43692e-08 6.36095e-08
237 2 -3.53341e-11 -1.43692e-08 6.36095e-08
238 2 -3.53635e-11 -1.43692e-08 6.36095e-08
239 2 -3.54666e-11 -1.43692e-08 6.36095e-08
240 2 -3.52229e-11 -1.43692e-08 6.36095e-08
