ITEM: TIMESTEP
0
ITEM: NUMBER OF ATOMS
240
ITEM: BOX BOUNDS xy xz yz pp pp pp
0.0000000000000000e+00 2.7625138723124262e+01 6.9063901264718801e+00
0.0000000000000000e+00 2.1661997842785119e+01 0.0000000000000000e+00
0.0000000000000000e+00 3.0000000000000000e+01 0.0000000000000000e+00
ITEM: ATOMS id type fx fy fz
1 1 -0.0469452 -0.0357069 -0.0148727
2 1 -0.000443987 -0.000551724 -0.00055807
3 1 -3.23465e-10 2.09135e-08 3.13912e-09
4 1 -3.23366e-10 2.09135e-08 3.13913e-09
5 1 -0.00015182 -0.0005371 -0.000193407
6 1 0.0340362 -0.00943132 0.00371703
7 1 1.09873e-05 2.29911e-05 -6.61119e-07
8 1 -3.23467e-10 2.09135e-08 3.13914e-09
9 1 -3.2346e-10 2.09135e-08 3.13914e-09
10 1 -3.23452e-10 2.09135e-08 3.13914e-09
11 1 -8.33466e-06 1.74448e-05 -5.00729e-07
12 1 -2.65389e-06 4.04151e-05 -1.16499e-06
13 1 3.21425e-07 1.46218e-06 -1.85122e-07
14 1 -3.22093e-07 1.28914e-06 -2.04876e-07
15 1 -3.23467e-10 2.09135e-08 3.13913e-09
16 1 -3.23486e-10 2.09135e-08 3.13913e-09
17 1 -3.23516e-10 2.09135e-08 3.13913e-09
18 1 -3.23331e-10 2.09135e-08 3.13913e-09
19 1 -0.000175489 -0.0617484 0.00596605
20 1 0.00076171 -0.00085264 5.77813e-05
21 1 5.37996e-05 -2.69362e-05 -3.03417e-06
22 1 -3.23376e-10 2.09135e-08 3.13914e-09
23 1 -0.000366298 -0.000191744 -1.91044e-05
24 1 -0.000208253 -0.00154211 -5.4833e-05
25 1 0.122949 0.353301 -0.102743
26 1 -0.0170497 0.00250465 -0.00836604
27 1 -0.000392683 -0.000456315 -3.61721e-05
28 1 1.20836e-10 -4.40012e-08 -4.4857e-08
29 1 -0.00125952 -0.000163942 -0.000195302
30 1 0.00454712 -0.00397781 -0.000863494
31 1 -0.000485424 0.00045274 -0.000641693
32 1 2.45912e-05 1.49201e-05 -9.39093e-06
33 1 1.20807e-10 -4.40012e-08 -4.4857e-08
34 1 1.20819e-10 -4.40012e-08 -4.4857e-08
35 1 -1.72872e-05 6.57229e-06 -5.34549e-06
36 1 0.000402498 -8.50849e-05 -0.000450052
37 1 1.20902e-10 -4.40012e-08 -4.4857e-08
38 1 1.20857e-10 -4.40012e-08 -4.4857e-08
39 1 1.20897e-10 -4.40012e-08 -4.4857e-08
40 1 1.20888e-10 -4.40012e-08 -4.4857e-08
41 1 1.2084e-10 -4.40012e-08 -4.4857e-08
42 1 1.20845e-10 -4.40012e-08 -4.4857e-08
43 1 0.000764682 -8.64257e-07 0.000746358
44 1 -0.000850486 0.000286149 0.000683287
45 1 -9.75328e-06 3.98782e-06 3.85911e-06
46 1 1.20753e-10 -4.40012e-08 -4.4857e-08
47 1 1.20825e-10 -4.40012e-08 -4.4857e-08
48 1 1.71929e-05 1.73205e-05 7.67171e-06
49 1 1.55988e-10 4.49694e-08 4.5562e-08
50 1 1.56015e-10 4.49694e-08 4.5562e-08
51 1 1.56072e-10 4.49694e-08 4.55619e-08
52 1 1.56036e-10 4.49694e-08 4.5562e-08
53 1 1.56021e-10 4.49694e-08 4.55619e-08
54 1 1.56052e-10 4.49694e-08 4.55619e-08
55 1 1.56034e-10 4.49694e-08 4.5562e-08
56 1 1.56015e-10 4.49693e-08 4.5562e-08
57 1 1.56058e-10 4.49694e-08 4.5562e-08
58 1 1.55946e-10 4.49693e-08 4.5562e-08
59 1 1.56016e-10 4.49694e-08 4.55619e-08
60 1 1.56089e-10 4.49693e-08 4.5562e-08
61 1 1.5602e-10 4.49694e-08 4.55619e-08
62 1 1.56046e-10 4.49694e-08 4.5562e-08
63 1 1.56093e-10 4.49694e-08 4.55619e-08
64 1 1.55991e-10 4.49694e-08 4.55619e-08
65 1 1.56061e-10 4.49694e-08 4.55619e-08
66 1 1.56127e-10 4.49694e-08 4.5562e-08
67 1 1.56035e-10 4.49694e-08 4.55619e-08
68 1 1.56062e-10 4.49694e-08 4.55619e-08
69 1 1.56072e-10 4.49694e-08 4.55619e-08
70 1 1.56102e-10 4.49694e-08 4.55619e-08
71 1 1.55985e-10 4.49694e-08 4.55619e-08
72 1 1.56096e-10 4.49694e-08 4.55619e-08
73 1 -3.412e-10 -2.13462e-08 -2.95367e-09
74 1 -3.41096e-10 -2.13463e-08 -2.95365e-09
75 1 -3.41037e-10 -2.13463e-08 -2.95366e-09
76 1 -3.41053e-10 -2.13463e-08 -2.95365e-09
77 1 -3.41059e-10 -2.13463e-08 -2.95365e-09
78 1 -3.41115e-10 -2.13463e-08 -2.95365e-09
79 1 -3.4119e-10 -2.13463e-08 -2.95365e-09
80 1 -3.41105e-10 -2.13463e-08 -2.95365e-09
81 1 -3.41108e-10 -2.13463e-08 -2.95366e-09
82 1 -3.41078e-10 -2.13463e-08 -2.95365e-09
83 1 -3.41021e-10 -2.13463e-08 -2.95367e-09
84 1 -3.41056e-10 -2.13463e-08 -2.95367e-09
85 1 -3.41139e-10 -2.13463e-08 -2.95364e-09
86 1 -3.4112e-10 -2.13463e-08 -2.95366e-09
87 1 -3.41052e-10 -2.13463e-08 -2.95367e-09
88 1 -3.41047e-10 -2.13463e-08 -2.95366e-09
89 1 -3.41088e-10 -2.13463e-08 -2.95366e-09
90 1 -3.41081e-10 -2.13463e-08 -2.95366e-09
91 1 -3.41196e-10 -2.13463e-08 -2.95366e-09
92 1 -3.41174e-10 -2.13464e-08 -2.95366e-09
93 1 -3.41099e-10 -2.13464e-08 -2.95367e-09
94 1 -3.41032e-10 -2.13463e-08 -2.95367e-09
95 1 -3.41118e-10 -2.13463e-08 -2.95366e-09
96 1 -3.41054e-10 -2.13464e-08 -2.95365e-09
97 2 -0.00627623 -0.0257337 -0.0347436
98 2 -0.0423378 -0.0149111 -0.0139852
99 2 3.48485e-05 -5.25476e-05 -5.13404e-05
100 2 -1.64526e-11 1.40085e-08 -6.22558e-08
101 2 -0.000323743 0.00010707 0.000108341
102 2 0.00219384 0.00121277 -3.64834e-05
103 2 1.35813e-06 3.92427e-05 6.20721e-06
104 2 1.79016e-06 1.55152e-06 1.65392e-07
105 2 -1.64566e-11 1.40085e-08 -6.22558e-08
106 2 -1.64657e-11 1.40085e-08 -6.22558e-08
107 2 -1.35809e-06 1.18042e-06 1.10446e-07
108 2 -1.79023e-06 3.27604e-05 5.0562e-06
109 2 -1.64961e-11 1.40085e-08 -6.22559e-08
110 2 -1.6382e-11 1.40085e-08 -6.22558e-08
111 2 -1.63922e-11 1.40085e-08 -6.22558e-08
112 2 -1.63982e-11 1.40085e-08 -6.22558e-08
113 2 -1.64358e-11 1.40085e-08 -6.22558e-08
114 2 -1.64627e-11 1.40085e-08 -6.22558e-08
115 2 0.00111378 0.00274641 -0.000808172
116 2 -0.00172989 0.00363211 -0.000642349
117 2 7.25803e-06 1.20163e-05 4.56663e-06
118 2 -1.64398e-11 1.40085e-08 -6.22558e-08
119 2 -1.6483e-11 1.40085e-08 -6.22558e-08
120 2 0.000163009 0.00013902 -3.48332e-05
121 2 0.00409546 -0.172619 0.126013
122 2 -0.00525693 0.00260654 -0.000783572
123 2 -0.00100474 0.000416305 -0.000278927
124 2 3.695e-10 2.38355e-08 9.53311e-08
125 2 0.000506446 -3.27278e-05 9.06796e-06
126 2 -0.00156344 0.00566063 -0.00035017
127 2 0.000634277 -0.000854294 0.00123391
128 2 0.00200137 0.0010017 -4.03172e-05
129 2 3.6949e-10 2.38355e-08 9.53311e-08
130 2 3.6949e-10 2.38355e-08 9.53311e-08
131 2 -0.00122658 0.000612681 -1.01607e-05
132 2 0.000745107 -0.000468298 0.000738735
133 2 3.69498e-10 2.38354e-08 9.53311e-08
134 2 3.69494e-10 2.38354e-08 9.53311e-08
135 2 3.69501e-10 2.38354e-08 9.53311e-08
136 2 3.69502e-10 2.38354e-08 9.53311e-08
137 2 3.6949e-10 2.38354e-08 9.53311e-08
138 2 3.69506e-10 2.38354e-08 9.53311e-08
139 2 -7.51488e-05 -0.000128758 5.82381e-06
140 2 7.51115e-05 -0.000136932 4.5136e-06
141 2 -6.88804e-07 3.18937e-07 2.28183e-07
142 2 3.69486e-10 2.38354e-08 9.53311e-08
143 2 3.69537e-10 2.38354e-08 9.53311e-08
144 2 7.29046e-07 1.65358e-08 2.84437e-07
145 2 -0.0520791 -0.0337353 0.0360106
146 2 -0.000125597 1.57693e-05 0.000408135
147 2 -1.50468e-10 -1.47563e-08 8.64262e-09
148 2 -1.50398e-10 -1.47563e-08 8.64263e-09
149 2 -0.00036599 -1.88328e-05 0.000284886
150 2 0.00568123 -0.014239 0.00432427
151 2 3.67833e-06 -1.46716e-05 -4.38474e-06
152 2 -1.5039e-10 -1.47563e-08 8.64262e-09
153 2 -1.50405e-10 -1.47562e-08 8.64261e-09
154 2 -1.50331e-10 -1.47563e-08 8.64263e-09
155 2 -6.00495e-06 -3.607e-06 -5.98773e-06
156 2 2.32862e-06 -1.8266e-05 -1.03804e-05
157 2 -1.50458e-10 -1.47563e-08 8.64262e-09
158 2 -1.50493e-10 -1.47563e-08 8.64263e-09
159 2 -1.50513e-10 -1.47563e-08 8.64262e-09
160 2 -1.50477e-10 -1.47563e-08 8.64263e-09
161 2 -1.50425e-10 -1.47563e-08 8.64262e-09
162 2 -1.50517e-10 -1.47562e-08 8.64261e-09
163 2 -5.75377e-05 0.00468534 0.00121434
164 2 0.000270935 -0.000277606 -0.000190916
165 2 4.93198e-07 -2.0517e-07 -1.95444e-07
166 2 -1.50421e-10 -1.47563e-08 8.6426e-09
167 2 -1.00633e-06 -3.78384e-07 -4.06163e-07
168 2 -0.00030016 -0.00107682 -0.00056328
169 2 -1.32099e-10 1.51554e-08 -8.78188e-09
170 2 -1.32036e-10 1.51553e-08 -8.78184e-09
171 2 -1.32123e-10 1.51554e-08 -8.78183e-09
172 2 -1.32102e-10 1.51553e-08 -8.78184e-09
173 2 -1.32107e-10 1.51554e-08 -8.78183e-09
174 2 -1.32102e-10 1.51554e-08 -8.78183e-09
175 2 -1.32104e-10 1.51554e-08 -8.78185e-09
176 2 -1.32043e-10 1.51554e-08 -8.78184e-09
177 2 -1.321e-10 1.51554e-08 -8.78182e-09
178 2 -1.32037e-10 1.51554e-08 -8.78185e-09
179 2 -1.32082e-10 1.51554e-08 -8.78183e-09
180 2 -1.32074e-10 1.51554e-08 -8.78183e-09
181 2 -1.32161e-10 1.51554e-08 -8.78187e-09
182 2 -1.32078e-10 1.51553e-08 -8.78183e-09
183 2 -1.32135e-10 1.51553e-08 -8.78182e-09
184 2 -1.32059e-10 1.51554e-08 -8.78186e-09
185 2 -1.32081e-10 1.51553e-08 -8.78182e-09
186 2 -1.32077e-10 1.51553e-08 -8.78182e-09
187 2 -1.32097e-10 1.51554e-08 -8.78186e-09
188 2 -1.32133e-10 1.51554e-08 -8.78183e-09
189 2 -1.32089e-10 1.51554e-08 -8.78184e-09
190 2 -1.32143e-10 1.51554e-08 -8.78185e-09
191 2 -1.32049e-10 1.51554e-08 -8.78188e-09
192 2 -1.32086e-10 1.51554e-08 -8.78179e-09
193 2 3.52449e-10 -2.44093e-08 -9.74359e-08
194 2 3.52464e-10 -2.44093e-08 -9.74359e-08
195 2 3.52462e-10 -2.44093e-08 -9.74359e-08
196 2 3.52471e-10 -2.44093e-08 -9.74359e-08
197 2 3.52451e-10 -2.44093e-08 -9.74359e-08
198 2 3.52478e-10 -2.44093e-08 -9.74359e-08
199 2 3.52464e-10 -2.44092e-08 -9.74359e-08
200 2 3.52473e-10 -2.44093e-08 -9.74359e-08
201 2 3.52481e-10 -2.44092e-08 -9.74359e-08
202 2 3.52475e-10 -2.44093e-08 -9.74359e-08
203 2 3.52473e-10 -2.44093e-08 -9.74359e-08
204 2 3.5248e-10 -2.44093e-08 -9.74359e-08
205 2 3.52474e-10 -2.44092e-08 -9.74359e-08
206 2 3.52466e-10 -2.44092e-08 -9.74359e-08
207 2 3.52502e-10 -2.44092e-08 -9.74359e-08
208 2 3.52496e-10 -2.44092e-08 -9.74359e-08
209 2 3.5249e-10 -2.44092e-08 -9.74359e-08
210 2 3.52478e-10 -2.44092e-08 -9.74359e-08
211 2 3.52455e-10 -2.44092e-08 -9.74359e-08
212 2 3.52485e-10 -2.44092e-08 -9.74359e-08
213 2 3.52496e-10 -2.44092e-08 -9.74359e-08
214 2 3.52477e-10 -2.44092e-08 -9.74359e-08
215 2 3.52499e-10 -2.44092e-08 -9.74359e-08
216 2 3.52517e-10 -2.44092e-08 -9.74359e-08
217 2 -3.53424e-11 -1.43692e-08 6.36094e-08
218 2 -3.53719e-11 -1.43692e-08 6.36094e-08
219 2 -3.53525e-11 -1.43692e-08 6.36095e-08
220 2 -3.53645e-11 -1.43692e-08 6.36095e-08
221 2 -3.53172e-11 -1.43692e-08 6.36095e-08
222 2 -3.51261e-11 -1.43692e-08 6.36095e-08
223 2 -3.5274e-11 -1.43692e-08 6.36094e-08
224 2 -3.53492e-11 -1.43692e-08 6.36095e-08
225 2 -3.53209e-11 -1.43692e-08 6.36094e-08
226 2 -3.53402e-11 -1.43692e-08 6.36095e-08
227 2 -3.53788e-11 -1.43692e-08 6.36095e-08
228 2 -3.53415e-11 -1.43692e-08 6.36095e-08
229 2 -3.52933e-11 -1.43692e-08 6.36094e-08
230 2 -3.53443e-11 -1.43692e-08 6.36094e-08
231 2 -3.53947e-11 -1.43692e-08 6.36095e-08
232 2 -3.53991e-11 -1.43692e-08 6.36095e-08
233 2 -3.53784e-11 -1.43692e-08 6.36094e-08
234 2 -3.5342e-11 -1.43692e-08 6.36095e-08
235 2 -3.52596e-11 -1.43692e-08 6.36095e-08
236 2 -3.52822e-11 -1.43692e-08 6.36095e-08
237 2 -3.53341e-11 -1.43692e-08 6.36095e-08
238 2 -3.53635e-11 -1.43692e-08 6.36095e-08
239 2 -3.54666e-11 -1.43692e-08 6.36095e-08
240 2 -3.52229e-11 -1.43692e-08 6.36095e-08
