Phonopy displacement from POSCAR-008

1440 atoms
2 atom types

0.0 41.4374971933047647 xlo xhi
0.0 64.9859935283553511 ylo yhi
0.0 30.0000000000000000 zlo zhi
20.7191703794156403 0.0 0.0 xy xz yz

Masses

1 69.723
2 15.999

Atoms # atomic

1 1 3.2915628951527571 4.2881698062176064 12.1228203567479973
2 1 6.7446876612614899 4.2881698062176064 12.1228203567479973
3 1 10.1978124273702182 4.2881698062176064 12.1228203567479973
4 1 13.6509371934789439 4.2881698062176064 12.1228203567479973
5 1 17.1040619595876819 4.2881698062176064 12.1228203567479973
6 1 20.5571867256964111 4.2881698062176064 12.1228203567479973
7 1 24.0103114918051332 4.2881698062176064 12.1228203567479973
8 1 27.4634362579138696 4.2881698062176064 12.1228203567479973
9 1 30.9165610240225917 4.2881698062176064 12.1228203567479973
10 1 34.3696857901313138 4.2881698062176064 12.1228203567479973
11 1 37.8228105562400501 4.2881698062176064 12.1228203567479973
12 1 41.2759353223487793 4.2881698062176064 12.1228203567479973
13 1 5.0181604267707280 9.7036692669138898 12.1228203567479973
14 1 8.4712851928794617 9.7036692669138898 12.1228203567479973
15 1 11.9244099589881891 9.7036692669138898 12.1228203567479973
16 1 15.3775347250969183 9.7036692669138898 12.1228203567479973
17 1 18.8306594912056546 9.7036692669138898 12.1228203567479973
18 1 22.2837842573143767 9.7036692669138898 12.1228203567479973
19 1 25.7369090234231095 9.7036692669138898 12.1228203567479973
20 1 29.1900337895318422 9.7036692669138898 12.1228203567479973
21 1 32.6431585556405679 9.7036692669138898 12.1228203567479973
22 1 36.0962833217492900 9.7036692669138898 12.1228203567479973
23 1 39.5494080878580263 9.7036692669138898 12.1228203567479973
24 1 43.0025328539667626 9.7036692669138898 12.1228203567479973
25 1 6.7447579583886981 15.1191687276101678 12.1228203567479973
26 1 10.1978827244974308 15.1191687276101678 12.1228203567479973
27 1 13.6510074906061583 15.1191687276101678 12.1228203567479973
28 1 17.1041322567148875 15.1191687276101678 12.1228203567479973
29 1 20.5572570228236238 15.1191687276101678 12.1228203567479973
30 1 24.0103817889323459 15.1191687276101678 12.1228203567479973
31 1 27.4635065550410786 15.1191687276101678 12.1228203567479973
32 1 30.9166313211498114 15.1191687276101678 12.1228203567479973
33 1 34.3697560872585370 15.1191687276101678 12.1228203567479973
34 1 37.8228808533672662 15.1191687276101678 12.1228203567479973
35 1 41.2760056194760026 15.1191687276101678 12.1228203567479973
36 1 44.7291303855847318 15.1191687276101678 12.1228203567479973
37 1 8.4713554900066672 20.5346681883064441 12.1228203567479973
38 1 11.9244802561154000 20.5346681883064441 12.1228203567479973
39 1 15.3776050222241274 20.5346681883064441 12.1228203567479973
40 1 18.8307297883328530 20.5346681883064441 12.1228203567479973
41 1 22.2838545544415894 20.5346681883064441 12.1228203567479973
42 1 25.7369793205503186 20.5346681883064441 12.1228203567479973
43 1 29.1901040866590442 20.5346681883064441 12.1228203567479973
44 1 32.6432288527677841 20.5346681883064441 12.1228203567479973
45 1 36.0963536188765062 20.5346681883064441 12.1228203567479973
46 1 39.5494783849852354 20.5346681883064441 12.1228203567479973
47 1 43.0026031510939717 20.5346681883064441 12.1228203567479973
48 1 46.4557279172027009 20.5346681883064441 12.1228203567479973
49 1 10.1979530216246381 25.9501676490027293 12.1228203567479973
50 1 13.6510777877333709 25.9501676490027293 12.1228203567479973
51 1 17.1042025538421001 25.9501676490027293 12.1228203567479973
52 1 20.5573273199508293 25.9501676490027293 12.1228203567479973
53 1 24.0104520860595656 25.9501676490027293 12.1228203567479973
54 1 27.4635768521682913 25.9501676490027293 12.1228203567479973
55 1 30.9167016182770205 25.9501676490027293 12.1228203567479973
56 1 34.3698263843857532 25.9501676490027293 12.1228203567479973
57 1 37.8229511504944753 25.9501676490027293 12.1228203567479973
58 1 41.2760759166032045 25.9501676490027293 12.1228203567479973
59 1 44.7292006827119408 25.9501676490027293 12.1228203567479973
60 1 48.1823254488206700 25.9501676490027293 12.1228203567479973
61 1 11.9245505532426073 31.3656671096990038 12.1228203567479973
62 1 15.3776753193513365 31.3656671096990038 12.1228203567479973
63 1 18.8308000854600692 31.3656671096990038 12.1228203567479973
64 1 22.2839248515687949 31.3656671096990038 12.1228203567479973
65 1 25.7370496176775347 31.3656671096990038 12.1228203567479973
66 1 29.1901743837862604 31.3656671096990038 12.1228203567479973
67 1 32.6432991498949860 31.3656671096990038 12.1228203567479973
68 1 36.0964239160037152 31.3656671096990038 12.1228203567479973
69 1 39.5495486821124445 31.3656671096990038 12.1228203567479973
70 1 43.0026734482211737 31.3656671096990038 12.1228203567479973
71 1 46.4557982143299100 31.3656671096990038 12.1228203567479973
72 1 49.9089229804386392 31.3656671096990038 12.1228203567479973
73 1 13.6511480848605800 36.7811665703952713 12.1228203567479973
74 1 17.1042728509693092 36.7811665703952713 12.1228203567479973
75 1 20.5573976170780384 36.7811665703952713 12.1228203567479973
76 1 24.0105223831867711 36.7811665703952713 12.1228203567479973
77 1 27.4636471492955003 36.7811665703952713 12.1228203567479973
78 1 30.9167719154042260 36.7811665703952713 12.1228203567479973
79 1 34.3698966815129552 36.7811665703952713 12.1228203567479973
80 1 37.8230214476216915 36.7811665703952713 12.1228203567479973
81 1 41.2761462137304136 36.7811665703952713 12.1228203567479973
82 1 44.7292709798391428 36.7811665703952713 12.1228203567479973
83 1 48.1823957459478791 36.7811665703952713 12.1228203567479973
84 1 51.6355205120566154 36.7811665703952713 12.1228203567479973
85 1 15.3777456164785509 42.1966660310915529 12.1228203567479973
86 1 18.8308703825872783 42.1966660310915529 12.1228203567479973
87 1 22.2839951486960075 42.1966660310915529 12.1228203567479973
88 1 25.7371199148047367 42.1966660310915529 12.1228203567479973
89 1 29.1902446809134730 42.1966660310915529 12.1228203567479973
90 1 32.6433694470221951 42.1966660310915529 12.1228203567479973
91 1 36.0964942131309314 42.1966660310915529 12.1228203567479973
92 1 39.5496189792396606 42.1966660310915529 12.1228203567479973
93 1 43.0027437453483969 42.1966660310915529 12.1228203567479973
94 1 46.4558685114571119 42.1966660310915529 12.1228203567479973
95 1 49.9089932775658482 42.1966660310915529 12.1228203567479973
96 1 53.3621180436745775 42.1966660310915529 12.1228203567479973
97 1 17.1043431480965182 47.6121654917878345 12.1228203567479973
98 1 20.5574679142052474 47.6121654917878345 12.1228203567479973
99 1 24.0105926803139837 47.6121654917878345 12.1228203567479973
100 1 27.4637174464227130 47.6121654917878345 12.1228203567479973
101 1 30.9168422125314422 47.6121654917878345 12.1228203567479973
102 1 34.3699669786401643 47.6121654917878345 12.1228203567479973
103 1 37.8230917447488935 47.6121654917878345 12.1228203567479973
104 1 41.2762165108576227 47.6121654917878345 12.1228203567479973
105 1 44.7293412769663519 47.6121654917878345 12.1228203567479973
106 1 48.1824660430750811 47.6121654917878345 12.1228203567479973
107 1 51.6355908091838174 47.6121654917878345 12.1228203567479973
108 1 55.0887155752925466 47.6121654917878345 12.1228203567479973
109 1 18.8309406797144874 53.0276649524841091 12.1228203567479973
110 1 22.2840654458232166 53.0276649524841091 12.1228203567479973
111 1 25.7371902119319529 53.0276649524841091 12.1228203567479973
112 1 29.1903149780406821 53.0276649524841091 12.1228203567479973
113 1 32.6434397441494113 53.0276649524841091 12.1228203567479973
114 1 36.0965645102581405 53.0276649524841091 12.1228203567479973
115 1 39.5496892763668626 53.0276649524841091 12.1228203567479973
116 1 43.0028140424755989 53.0276649524841091 12.1228203567479973
117 1 46.4559388085843210 53.0276649524841091 12.1228203567479973
118 1 49.9090635746930431 53.0276649524841091 12.1228203567479973
119 1 53.3621883408017794 53.0276649524841091 12.1228203567479973
120 1 56.8153131069105086 53.0276649524841091 12.1228203567479973
121 1 20.5575382113324672 58.4431644131803907 12.1228203567479973
122 1 24.0106629774411928 58.4431644131803907 12.1228203567479973
123 1 27.4637877435499185 58.4431644131803907 12.1228203567479973
124 1 30.9169125096586477 58.4431644131803907 12.1228203567479973
125 1 34.3700372757673875 58.4431644131803907 12.1228203567479973
126 1 37.8231620418761096 58.4431644131803907 12.1228203567479973
127 1 41.2762868079848388 58.4431644131803907 12.1228203567479973
128 1 44.7294115740935752 58.4431644131803907 12.1228203567479973
129 1 48.1825363402023044 58.4431644131803907 12.1228203567479973
130 1 51.6356611063110336 58.4431644131803907 12.1228203567479973
131 1 55.0887858724197628 58.4431644131803907 12.1228203567479973
132 1 58.5419106385284920 58.4431644131803907 12.1228203567479973
133 1 22.2841357429504363 63.8586638738766723 12.1228203567479973
134 1 25.7372605090591620 63.8586638738766723 12.1228203567479973
135 1 29.1903852751678912 63.8586638738766723 12.1228203567479973
136 1 32.6435100412766204 63.8586638738766723 12.1228203567479973
137 1 36.0966348073853496 63.8586638738766723 12.1228203567479973
138 1 39.5497595734940788 63.8586638738766723 12.1228203567479973
139 1 43.0028843396028080 63.8586638738766723 12.1228203567479973
140 1 46.4560091057115443 63.8586638738766723 12.1228203567479973
141 1 49.9091338718202593 63.8586638738766723 12.1228203567479973
142 1 53.3622586379289885 63.8586638738766723 12.1228203567479973
143 1 56.8153834040377319 63.8586638738766723 12.1228203567479973
144 1 60.2685081701464611 63.8586638738766723 12.1228203567479973
145 1 1.5449954244185922 2.2111307017728863 11.2524742547010010
146 1 5.0181201905273207 2.2111307017728863 11.2524742547010010
147 1 8.4712449566360508 2.2111307017728863 11.2524742547010010
148 1 11.9243697227447782 2.2111307017728863 11.2524742547010010
149 1 15.3774944888535128 2.2111307017728863 11.2524742547010010
150 1 18.8306192549622402 2.2111307017728863 11.2524742547010010
151 1 22.2837440210709730 2.2111307017728863 11.2524742547010010
152 1 25.7368687871796986 2.2111307017728863 11.2524742547010010
153 1 29.1899935532884278 2.2111307017728863 11.2524742547010010
154 1 32.6431183193971606 2.2111307017728863 11.2524742547010010
155 1 36.0962430855058898 2.2111307017728863 11.2524742547010010
156 1 39.5493678516146190 2.2111307017728863 11.2524742547010010
157 1 3.2915929560365611 7.6266301624691639 11.2524742547010010
158 1 6.7447177221452908 7.6266301624691639 11.2524742547010010
159 1 10.1978424882540235 7.6266301624691639 11.2524742547010010
160 1 13.6509672543627474 7.6266301624691639 11.2524742547010010
161 1 17.1040920204714801 7.6266301624691639 11.2524742547010010
162 1 20.5572167865802093 7.6266301624691639 11.2524742547010010
163 1 24.0103415526889421 7.6266301624691639 11.2524742547010010
164 1 27.4634663187976678 7.6266301624691639 11.2524742547010010
165 1 30.9165910849063970 7.6266301624691639 11.2524742547010010
166 1 34.3697158510151226 7.6266301624691639 11.2524742547010010
167 1 37.8228406171238589 7.6266301624691639 11.2524742547010010
168 1 41.2759653832325810 7.6266301624691639 11.2524742547010010
169 1 5.0181904876545325 13.0421296231654473 11.2524742547010010
170 1 8.4713152537632617 13.0421296231654473 11.2524742547010010
171 1 11.9244400198719909 13.0421296231654473 11.2524742547010010
172 1 15.3775647859807236 13.0421296231654473 11.2524742547010010
173 1 18.8306895520894528 13.0421296231654473 11.2524742547010010
174 1 22.2838143181981820 13.0421296231654473 11.2524742547010010
175 1 25.7369390843069148 13.0421296231654473 11.2524742547010010
176 1 29.1900638504156404 13.0421296231654473 11.2524742547010010
177 1 32.6431886165243696 13.0421296231654473 11.2524742547010010
178 1 36.0963133826330989 13.0421296231654473 11.2524742547010010
179 1 39.5494381487418281 13.0421296231654473 11.2524742547010010
180 1 43.0025629148505573 13.0421296231654473 11.2524742547010010
181 1 6.7447880192724989 18.4576290838617147 11.2524742547010010
182 1 10.1979127853812273 18.4576290838617147 11.2524742547010010
183 1 13.6510375514899600 18.4576290838617147 11.2524742547010010
184 1 17.1041623175986857 18.4576290838617147 11.2524742547010010
185 1 20.5572870837074184 18.4576290838617147 11.2524742547010010
186 1 24.0104118498161476 18.4576290838617147 11.2524742547010010
187 1 27.4635366159248804 18.4576290838617147 11.2524742547010010
188 1 30.9166613820336060 18.4576290838617147 11.2524742547010010
189 1 34.3697861481423388 18.4576290838617147 11.2524742547010010
190 1 37.8229109142510680 18.4576290838617147 11.2524742547010010
191 1 41.2760356803597972 18.4576290838617147 11.2524742547010010
192 1 44.7291604464685193 18.4576290838617147 11.2524742547010010
193 1 8.4713855508904690 23.8731285445579928 11.2524742547010010
194 1 11.9245103169991982 23.8731285445579928 11.2524742547010010
195 1 15.3776350831079309 23.8731285445579928 11.2524742547010010
196 1 18.8307598492166619 23.8731285445579928 11.2524742547010010
197 1 22.2838846153253911 23.8731285445579928 11.2524742547010010
198 1 25.7370093814341203 23.8731285445579928 11.2524742547010010
199 1 29.1901341475428495 23.8731285445579928 11.2524742547010010
200 1 32.6432589136515716 23.8731285445579928 11.2524742547010010
201 1 36.0963836797603079 23.8731285445579928 11.2524742547010010
202 1 39.5495084458690371 23.8731285445579928 11.2524742547010010
203 1 43.0026332119777663 23.8731285445579928 11.2524742547010010
204 1 46.4557579780865026 23.8731285445579928 11.2524742547010010
205 1 10.1979830825084417 29.2886280052542780 11.2524742547010010
206 1 13.6511078486171709 29.2886280052542780 11.2524742547010010
207 1 17.1042326147259018 29.2886280052542780 11.2524742547010010
208 1 20.5573573808346310 29.2886280052542780 11.2524742547010010
209 1 24.0104821469433674 29.2886280052542780 11.2524742547010010
210 1 27.4636069130520895 29.2886280052542780 11.2524742547010010
211 1 30.9167316791608258 29.2886280052542780 11.2524742547010010
212 1 34.3698564452695479 29.2886280052542780 11.2524742547010010
213 1 37.8229812113782771 29.2886280052542780 11.2524742547010010
214 1 41.2761059774870134 29.2886280052542780 11.2524742547010010
215 1 44.7292307435957426 29.2886280052542780 11.2524742547010010
216 1 48.1823555097044718 29.2886280052542780 11.2524742547010010
217 1 11.9245806141264108 34.7041274659505561 11.2524742547010010
218 1 15.3777053802351400 34.7041274659505561 11.2524742547010010
219 1 18.8308301463438710 34.7041274659505561 11.2524742547010010
220 1 22.2839549124525966 34.7041274659505561 11.2524742547010010
221 1 25.7370796785613294 34.7041274659505561 11.2524742547010010
222 1 29.1902044446700586 34.7041274659505561 11.2524742547010010
223 1 32.6433292107787949 34.7041274659505561 11.2524742547010010
224 1 36.0964539768875170 34.7041274659505561 11.2524742547010010
225 1 39.5495787429962462 34.7041274659505561 11.2524742547010010
226 1 43.0027035091049825 34.7041274659505561 11.2524742547010010
227 1 46.4558282752137188 34.7041274659505561 11.2524742547010010
228 1 49.9089530413224480 34.7041274659505561 11.2524742547010010
229 1 13.6511781457443817 40.1196269266468377 11.2524742547010010
230 1 17.1043029118531109 40.1196269266468377 11.2524742547010010
231 1 20.5574276779618437 40.1196269266468377 11.2524742547010010
232 1 24.0105524440705693 40.1196269266468377 11.2524742547010010
233 1 27.4636772101793056 40.1196269266468377 11.2524742547010010
234 1 30.9168019762880313 40.1196269266468377 11.2524742547010010
235 1 34.3699267423967640 40.1196269266468377 11.2524742547010010
236 1 37.8230515085054861 40.1196269266468377 11.2524742547010010
237 1 41.2761762746142153 40.1196269266468377 11.2524742547010010
238 1 44.7293010407229517 40.1196269266468377 11.2524742547010010
239 1 48.1824258068316809 40.1196269266468377 11.2524742547010010
240 1 51.6355505729404030 40.1196269266468377 11.2524742547010010
241 1 15.3777756773623473 45.5351263873431051 11.2524742547010010
242 1 18.8309004434710765 45.5351263873431051 11.2524742547010010
243 1 22.2840252095798093 45.5351263873431051 11.2524742547010010
244 1 25.7371499756885385 45.5351263873431051 11.2524742547010010
245 1 29.1902747417972712 45.5351263873431051 11.2524742547010010
246 1 32.6433995079059969 45.5351263873431051 11.2524742547010010
247 1 36.0965242740147261 45.5351263873431051 11.2524742547010010
248 1 39.5496490401234553 45.5351263873431051 11.2524742547010010
249 1 43.0027738062321845 45.5351263873431051 11.2524742547010010
250 1 46.4558985723409208 45.5351263873431051 11.2524742547010010
251 1 49.9090233384496429 45.5351263873431051 11.2524742547010010
252 1 53.3621481045583721 45.5351263873431051 11.2524742547010010
253 1 17.1043732089803235 50.9506258480393868 11.2524742547010010
254 1 20.5574979750890492 50.9506258480393868 11.2524742547010010
255 1 24.0106227411977819 50.9506258480393868 11.2524742547010010
256 1 27.4637475073065147 50.9506258480393868 11.2524742547010010
257 1 30.9168722734152404 50.9506258480393868 11.2524742547010010
258 1 34.3699970395239731 50.9506258480393868 11.2524742547010010
259 1 37.8231218056327094 50.9506258480393868 11.2524742547010010
260 1 41.2762465717414386 50.9506258480393868 11.2524742547010010
261 1 44.7293713378501607 50.9506258480393868 11.2524742547010010
262 1 48.1824961039588899 50.9506258480393868 11.2524742547010010
263 1 51.6356208700676262 50.9506258480393868 11.2524742547010010
264 1 55.0887456361763554 50.9506258480393868 11.2524742547010010
265 1 18.8309707405982891 56.3661253087356613 11.2524742547010010
266 1 22.2840955067070148 56.3661253087356613 11.2524742547010010
267 1 25.7372202728157475 56.3661253087356613 11.2524742547010010
268 1 29.1903450389244696 56.3661253087356613 11.2524742547010010
269 1 32.6434698050332059 56.3661253087356613 11.2524742547010010
270 1 36.0965945711419351 56.3661253087356613 11.2524742547010010
271 1 39.5497193372506715 56.3661253087356613 11.2524742547010010
272 1 43.0028441033593936 56.3661253087356613 11.2524742547010010
273 1 46.4559688694681228 56.3661253087356613 11.2524742547010010
274 1 49.9090936355768591 56.3661253087356613 11.2524742547010010
275 1 53.3622184016855812 56.3661253087356613 11.2524742547010010
276 1 56.8153431677943104 56.3661253087356613 11.2524742547010010
277 1 20.5575682722162618 61.7816247694319429 11.2524742547010010
278 1 24.0106930383249910 61.7816247694319429 11.2524742547010010
279 1 27.4638178044337202 61.7816247694319429 11.2524742547010010
280 1 30.9169425705424494 61.7816247694319429 11.2524742547010010
281 1 34.3700673366511822 61.7816247694319429 11.2524742547010010
282 1 37.8231921027599114 61.7816247694319429 11.2524742547010010
283 1 41.2763168688686406 61.7816247694319429 11.2524742547010010
284 1 44.7294416349773627 61.7816247694319429 11.2524742547010010
285 1 48.1825664010860919 61.7816247694319429 11.2524742547010010
286 1 51.6356911671948353 61.7816247694319429 11.2524742547010010
287 1 55.0888159333035574 61.7816247694319429 11.2524742547010010
288 1 58.5419406994122866 61.7816247694319429 11.2524742547010010
289 1 3.2600401779947279 4.3284501573796375 18.7481752062048024
290 1 6.7131649441034567 4.3284501573796375 18.7481752062048024
291 1 10.1662897102121903 4.3284501573796375 18.7481752062048024
292 1 13.6194144763209195 4.3284501573796375 18.7481752062048024
293 1 17.0725392424296487 4.3284501573796375 18.7481752062048024
294 1 20.5256640085383779 4.3284501573796375 18.7481752062048024
295 1 23.9787887746471107 4.3284501573796375 18.7481752062048024
296 1 27.4319135407558328 4.3284501573796375 18.7481752062048024
297 1 30.8850383068645655 4.3284501573796375 18.7481752062048024
298 1 34.3381630729732947 4.3284501573796375 18.7481752062048024
299 1 37.7912878390820310 4.3284501573796375 18.7481752062048024
300 1 41.2444126051907531 4.3284501573796375 18.7481752062048024
301 1 4.9866377096126975 9.7439496180759164 18.7481752062048024
302 1 8.4397624757214267 9.7439496180759164 18.7481752062048024
303 1 11.8928872418301594 9.7439496180759164 18.7481752062048024
304 1 15.3460120079388886 9.7439496180759164 18.7481752062048024
305 1 18.7991367740476178 9.7439496180759164 18.7481752062048024
306 1 22.2522615401563471 9.7439496180759164 18.7481752062048024
307 1 25.7053863062650763 9.7439496180759164 18.7481752062048024
308 1 29.1585110723738055 9.7439496180759164 18.7481752062048024
309 1 32.6116358384825347 9.7439496180759164 18.7481752062048024
310 1 36.0647606045912568 9.7439496180759164 18.7481752062048024
311 1 39.5178853706999931 9.7439496180759164 18.7481752062048024
312 1 42.9710101368087223 9.7439496180759164 18.7481752062048024
313 1 6.7132352412306711 15.1594490787721927 18.7481752062048024
314 1 10.1663600073393958 15.1594490787721927 18.7481752062048024
315 1 13.6194847734481286 15.1594490787721927 18.7481752062048024
316 1 17.0726095395568578 15.1594490787721927 18.7481752062048024
317 1 20.5257343056655870 15.1594490787721927 18.7481752062048024
318 1 23.9788590717743162 15.1594490787721927 18.7481752062048024
319 1 27.4319838378830454 15.1594490787721927 18.7481752062048024
320 1 30.8851086039917746 15.1594490787721927 18.7481752062048024
321 1 34.3382333701005038 15.1594490787721927 18.7481752062048024
322 1 37.7913581362092330 15.1594490787721927 18.7481752062048024
323 1 41.2444829023179693 15.1594490787721927 18.7481752062048024
324 1 44.6976076684266843 15.1594490787721927 18.7481752062048024
325 1 8.4398327728486393 20.5749485394684690 18.7481752062048024
326 1 11.8929575389573650 20.5749485394684690 18.7481752062048024
327 1 15.3460823050660977 20.5749485394684690 18.7481752062048024
328 1 18.7992070711748305 20.5749485394684690 18.7481752062048024
329 1 22.2523318372835597 20.5749485394684690 18.7481752062048024
330 1 25.7054566033922924 20.5749485394684690 18.7481752062048024
331 1 29.1585813695010216 20.5749485394684690 18.7481752062048024
332 1 32.6117061356097437 20.5749485394684690 18.7481752062048024
333 1 36.0648309017184729 20.5749485394684690 18.7481752062048024
334 1 39.5179556678272021 20.5749485394684690 18.7481752062048024
335 1 42.9710804339359314 20.5749485394684690 18.7481752062048024
336 1 46.4242052000446606 20.5749485394684690 18.7481752062048024
337 1 10.1664303044666084 25.9904480001647435 18.7481752062048024
338 1 13.6195550705753341 25.9904480001647435 18.7481752062048024
339 1 17.0726798366840740 25.9904480001647435 18.7481752062048024
340 1 20.5258046027927961 25.9904480001647435 18.7481752062048024
341 1 23.9789293689015253 25.9904480001647435 18.7481752062048024
342 1 27.4320541350102545 25.9904480001647435 18.7481752062048024
343 1 30.8851789011189908 25.9904480001647435 18.7481752062048024
344 1 34.3383036672277129 25.9904480001647435 18.7481752062048024
345 1 37.7914284333364421 25.9904480001647435 18.7481752062048024
346 1 41.2445531994451713 25.9904480001647435 18.7481752062048024
347 1 44.6976779655539076 25.9904480001647435 18.7481752062048024
348 1 48.1508027316626297 25.9904480001647435 18.7481752062048024
349 1 11.8930278360845776 31.4059474608610216 18.7481752062048024
350 1 15.3461526021933068 31.4059474608610216 18.7481752062048024
351 1 18.7992773683020360 31.4059474608610216 18.7481752062048024
352 1 22.2524021344107652 31.4059474608610216 18.7481752062048024
353 1 25.7055269005194944 31.4059474608610216 18.7481752062048024
354 1 29.1586516666282307 31.4059474608610216 18.7481752062048024
355 1 32.6117764327369599 31.4059474608610216 18.7481752062048024
356 1 36.0649011988456820 31.4059474608610216 18.7481752062048024
357 1 39.5180259649544183 31.4059474608610216 18.7481752062048024
358 1 42.9711507310631404 31.4059474608610216 18.7481752062048024
359 1 46.4242754971718767 31.4059474608610216 18.7481752062048024
360 1 49.8774002632805988 31.4059474608610216 18.7481752062048024
361 1 13.6196253677025467 36.8214469215573104 18.7481752062048024
362 1 17.0727501338112759 36.8214469215573104 18.7481752062048024
363 1 20.5258748999200087 36.8214469215573104 18.7481752062048024
364 1 23.9789996660287379 36.8214469215573104 18.7481752062048024
365 1 27.4321244321374671 36.8214469215573104 18.7481752062048024
366 1 30.8852491982461999 36.8214469215573104 18.7481752062048024
367 1 34.3383739643549291 36.8214469215573104 18.7481752062048024
368 1 37.7914987304636583 36.8214469215573104 18.7481752062048024
369 1 41.2446234965723875 36.8214469215573104 18.7481752062048024
370 1 44.6977482626811167 36.8214469215573104 18.7481752062048024
371 1 48.1508730287898530 36.8214469215573104 18.7481752062048024
372 1 51.6039977948985751 36.8214469215573104 18.7481752062048024
373 1 15.3462228993205230 42.2369463822535920 18.7481752062048024
374 1 18.7993476654292451 42.2369463822535920 18.7481752062048024
375 1 22.2524724315379814 42.2369463822535920 18.7481752062048024
376 1 25.7055971976467106 42.2369463822535920 18.7481752062048024
377 1 29.1587219637554398 42.2369463822535920 18.7481752062048024
378 1 32.6118467298641690 42.2369463822535920 18.7481752062048024
379 1 36.0649714959728982 42.2369463822535920 18.7481752062048024
380 1 39.5180962620816274 42.2369463822535920 18.7481752062048024
381 1 42.9712210281903566 42.2369463822535920 18.7481752062048024
382 1 46.4243457942990858 42.2369463822535920 18.7481752062048024
383 1 49.8774705604078221 42.2369463822535920 18.7481752062048024
384 1 53.3305953265165442 42.2369463822535920 18.7481752062048024
385 1 17.0728204309384886 47.6524458429498665 18.7481752062048024
386 1 20.5259451970472178 47.6524458429498665 18.7481752062048024
387 1 23.9790699631559470 47.6524458429498665 18.7481752062048024
388 1 27.4321947292646762 47.6524458429498665 18.7481752062048024
389 1 30.8853194953734089 47.6524458429498665 18.7481752062048024
390 1 34.3384442614821381 47.6524458429498665 18.7481752062048024
391 1 37.7915690275908673 47.6524458429498665 18.7481752062048024
392 1 41.2446937936995965 47.6524458429498665 18.7481752062048024
393 1 44.6978185598083257 47.6524458429498665 18.7481752062048024
394 1 48.1509433259170549 47.6524458429498665 18.7481752062048024
395 1 51.6040680920257913 47.6524458429498665 18.7481752062048024
396 1 55.0571928581345134 47.6524458429498665 18.7481752062048024
397 1 18.7994179625564612 53.0679453036461481 18.7481752062048024
398 1 22.2525427286651833 53.0679453036461481 18.7481752062048024
399 1 25.7056674947739197 53.0679453036461481 18.7481752062048024
400 1 29.1587922608826489 53.0679453036461481 18.7481752062048024
401 1 32.6119170269913781 53.0679453036461481 18.7481752062048024
402 1 36.0650417931001073 53.0679453036461481 18.7481752062048024
403 1 39.5181665592088365 53.0679453036461481 18.7481752062048024
404 1 42.9712913253175657 53.0679453036461481 18.7481752062048024
405 1 46.4244160914262949 53.0679453036461481 18.7481752062048024
406 1 49.8775408575350241 53.0679453036461481 18.7481752062048024
407 1 53.3306656236437604 53.0679453036461481 18.7481752062048024
408 1 56.7837903897524754 53.0679453036461481 18.7481752062048024
409 1 20.5260154941744339 58.4834447643424298 18.7481752062048024
410 1 23.9791402602831631 58.4834447643424298 18.7481752062048024
411 1 27.4322650263918959 58.4834447643424298 18.7481752062048024
412 1 30.8853897925006251 58.4834447643424298 18.7481752062048024
413 1 34.3385145586093472 58.4834447643424298 18.7481752062048024
414 1 37.7916393247180835 58.4834447643424298 18.7481752062048024
415 1 41.2447640908268198 58.4834447643424298 18.7481752062048024
416 1 44.6978888569355348 58.4834447643424298 18.7481752062048024
417 1 48.1510136230442640 58.4834447643424298 18.7481752062048024
418 1 51.6041383891529932 58.4834447643424298 18.7481752062048024
419 1 55.0572631552617224 58.4834447643424298 18.7481752062048024
420 1 58.5103879213704516 58.4834447643424298 18.7481752062048024
421 1 22.2526130257923960 63.8989442250387043 18.7481752062048024
422 1 25.7057377919011287 63.8989442250387043 18.7481752062048024
423 1 29.1588625580098615 63.8989442250387043 18.7481752062048024
424 1 32.6119873241185871 63.8989442250387043 18.7481752062048024
425 1 36.0651120902273163 63.8989442250387043 18.7481752062048024
426 1 39.5182368563360455 63.8989442250387043 18.7481752062048024
427 1 42.9713616224447748 63.8989442250387043 18.7481752062048024
428 1 46.4244863885535040 63.8989442250387043 18.7481752062048024
429 1 49.8776111546622332 63.8989442250387043 18.7481752062048024
430 1 53.3307359207709624 63.8989442250387043 18.7481752062048024
431 1 56.7838606868796987 63.8989442250387043 18.7481752062048024
432 1 60.2369854529884208 63.8989442250387043 18.7481752062048024
433 1 1.5334727073198051 2.2514110537364620 17.8778291036670005
434 1 4.9865974734285343 2.2514110537364620 17.8778291036670005
435 1 8.4397222395372626 2.2514110537364620 17.8778291036670005
436 1 11.8928470056459901 2.2514110537364620 17.8778291036670005
437 1 15.3459717717547193 2.2514110537364620 17.8778291036670005
438 1 18.7990965378634556 2.2514110537364620 17.8778291036670005
439 1 22.2522213039721883 2.2514110537364620 17.8778291036670005
440 1 25.7053460700809140 2.2514110537364620 17.8778291036670005
441 1 29.1584708361896467 2.2514110537364620 17.8778291036670005
442 1 32.6115956022983795 2.2514110537364620 17.8778291036670005
443 1 36.0647203684071087 2.2514110537364620 17.8778291036670005
444 1 39.5178451345158379 2.2514110537364620 17.8778291036670005
445 1 3.2600702389377743 7.6669105144327396 17.8778291036670005
446 1 6.7131950050465035 7.6669105144327396 17.8778291036670005
447 1 10.1663197711552318 7.6669105144327396 17.8778291036670005
448 1 13.6194445372639592 7.6669105144327396 17.8778291036670005
449 1 17.0725693033726884 7.6669105144327396 17.8778291036670005
450 1 20.5256940694814247 7.6669105144327396 17.8778291036670005
451 1 23.9788188355901539 7.6669105144327396 17.8778291036670005
452 1 27.4319436016988796 7.6669105144327396 17.8778291036670005
453 1 30.8850683678076123 7.6669105144327396 17.8778291036670005
454 1 34.3381931339163415 7.6669105144327396 17.8778291036670005
455 1 37.7913179000250778 7.6669105144327396 17.8778291036670005
456 1 41.2444426661337999 7.6669105144327396 17.8778291036670005
457 1 4.9866677705557434 13.0824099751290159 17.8778291036670005
458 1 8.4397925366644735 13.0824099751290159 17.8778291036670005
459 1 11.8929173027732009 13.0824099751290159 17.8778291036670005
460 1 15.3460420688819283 13.0824099751290159 17.8778291036670005
461 1 18.7991668349906647 13.0824099751290159 17.8778291036670005
462 1 22.2522916010993939 13.0824099751290159 17.8778291036670005
463 1 25.7054163672081231 13.0824099751290159 17.8778291036670005
464 1 29.1585411333168487 13.0824099751290159 17.8778291036670005
465 1 32.6116658994255815 13.0824099751290159 17.8778291036670005
466 1 36.0647906655343178 13.0824099751290159 17.8778291036670005
467 1 39.5179154316430470 13.0824099751290159 17.8778291036670005
468 1 42.9710401977517691 13.0824099751290159 17.8778291036670005
469 1 6.7132653021737152 18.4979094358252993 17.8778291036670005
470 1 10.1663900682824444 18.4979094358252993 17.8778291036670005
471 1 13.6195148343911718 18.4979094358252993 17.8778291036670005
472 1 17.0726396004999010 18.4979094358252993 17.8778291036670005
473 1 20.5257643666086302 18.4979094358252993 17.8778291036670005
474 1 23.9788891327173630 18.4979094358252993 17.8778291036670005
475 1 27.4320138988260922 18.4979094358252993 17.8778291036670005
476 1 30.8851386649348214 18.4979094358252993 17.8778291036670005
477 1 34.3382634310435577 18.4979094358252993 17.8778291036670005
478 1 37.7913881971522869 18.4979094358252993 17.8778291036670005
479 1 41.2445129632610161 18.4979094358252993 17.8778291036670005
480 1 44.6976377293697453 18.4979094358252993 17.8778291036670005
481 1 8.4398628337916861 23.9134088965215774 17.8778291036670005
482 1 11.8929875999004153 23.9134088965215774 17.8778291036670005
483 1 15.3461123660091427 23.9134088965215774 17.8778291036670005
484 1 18.7992371321178773 23.9134088965215774 17.8778291036670005
485 1 22.2523618982266065 23.9134088965215774 17.8778291036670005
486 1 25.7054866643353392 23.9134088965215774 17.8778291036670005
487 1 29.1586114304440649 23.9134088965215774 17.8778291036670005
488 1 32.6117361965527905 23.9134088965215774 17.8778291036670005
489 1 36.0648609626615269 23.9134088965215774 17.8778291036670005
490 1 39.5179857287702561 23.9134088965215774 17.8778291036670005
491 1 42.9711104948789782 23.9134088965215774 17.8778291036670005
492 1 46.4242352609877074 23.9134088965215774 17.8778291036670005
493 1 10.1664603654096553 29.3289083572178555 17.8778291036670005
494 1 13.6195851315183880 29.3289083572178555 17.8778291036670005
495 1 17.0727098976271172 29.3289083572178555 17.8778291036670005
496 1 20.5258346637358429 29.3289083572178555 17.8778291036670005
497 1 23.9789594298445721 29.3289083572178555 17.8778291036670005
498 1 27.4320841959533048 29.3289083572178555 17.8778291036670005
499 1 30.8852089620620376 29.3289083572178555 17.8778291036670005
500 1 34.3383337281707597 29.3289083572178555 17.8778291036670005
501 1 37.7914584942794960 29.3289083572178555 17.8778291036670005
502 1 41.2445832603882252 29.3289083572178555 17.8778291036670005
503 1 44.6977080264969544 29.3289083572178555 17.8778291036670005
504 1 48.1508327926056836 29.3289083572178555 17.8778291036670005
505 1 11.8930578970276244 34.7444078179141371 17.8778291036670005
506 1 15.3461826631363536 34.7444078179141371 17.8778291036670005
507 1 18.7993074292450828 34.7444078179141371 17.8778291036670005
508 1 22.2524321953538120 34.7444078179141371 17.8778291036670005
509 1 25.7055569614625448 34.7444078179141371 17.8778291036670005
510 1 29.1586817275712740 34.7444078179141371 17.8778291036670005
511 1 32.6118064936800067 34.7444078179141371 17.8778291036670005
512 1 36.0649312597887359 34.7444078179141371 17.8778291036670005
513 1 39.5180560258974651 34.7444078179141371 17.8778291036670005
514 1 42.9711807920061943 34.7444078179141371 17.8778291036670005
515 1 46.4243055581149235 34.7444078179141371 17.8778291036670005
516 1 49.8774303242236527 34.7444078179141371 17.8778291036670005
517 1 13.6196554286455935 40.1599072786104117 17.8778291036670005
518 1 17.0727801947543227 40.1599072786104117 17.8778291036670005
519 1 20.5259049608630555 40.1599072786104117 17.8778291036670005
520 1 23.9790297269717811 40.1599072786104117 17.8778291036670005
521 1 27.4321544930805139 40.1599072786104117 17.8778291036670005
522 1 30.8852792591892467 40.1599072786104117 17.8778291036670005
523 1 34.3384040252979759 40.1599072786104117 17.8778291036670005
524 1 37.7915287914067051 40.1599072786104117 17.8778291036670005
525 1 41.2446535575154343 40.1599072786104117 17.8778291036670005
526 1 44.6977783236241706 40.1599072786104117 17.8778291036670005
527 1 48.1509030897328927 40.1599072786104117 17.8778291036670005
528 1 51.6040278558416219 40.1599072786104117 17.8778291036670005
529 1 15.3462529602635644 45.5754067393066933 17.8778291036670005
530 1 18.7993777263722990 45.5754067393066933 17.8778291036670005
531 1 22.2525024924810282 45.5754067393066933 17.8778291036670005
532 1 25.7056272585897574 45.5754067393066933 17.8778291036670005
533 1 29.1587520246984901 45.5754067393066933 17.8778291036670005
534 1 32.6118767908072158 45.5754067393066933 17.8778291036670005
535 1 36.0650015569159450 45.5754067393066933 17.8778291036670005
536 1 39.5181263230246742 45.5754067393066933 17.8778291036670005
537 1 42.9712510891334034 45.5754067393066933 17.8778291036670005
538 1 46.4243758552421397 45.5754067393066933 17.8778291036670005
539 1 49.8775006213508760 45.5754067393066933 17.8778291036670005
540 1 53.3306253874596052 45.5754067393066933 17.8778291036670005
541 1 17.0728504918815389 50.9909062000029749 17.8778291036670005
542 1 20.5259752579902646 50.9909062000029749 17.8778291036670005
543 1 23.9791000240989938 50.9909062000029749 17.8778291036670005
544 1 27.4322247902077194 50.9909062000029749 17.8778291036670005
545 1 30.8853495563164557 50.9909062000029749 17.8778291036670005
546 1 34.3384743224251849 50.9909062000029749 17.8778291036670005
547 1 37.7915990885339141 50.9909062000029749 17.8778291036670005
548 1 41.2447238546426433 50.9909062000029749 17.8778291036670005
549 1 44.6978486207513726 50.9909062000029749 17.8778291036670005
550 1 48.1509733868601089 50.9909062000029749 17.8778291036670005
551 1 51.6040981529688381 50.9909062000029749 17.8778291036670005
552 1 55.0572229190775602 50.9909062000029749 17.8778291036670005
553 1 18.7994480234995045 56.4064056606992494 17.8778291036670005
554 1 22.2525727896082373 56.4064056606992494 17.8778291036670005
555 1 25.7056975557169629 56.4064056606992494 17.8778291036670005
556 1 29.1588223218256957 56.4064056606992494 17.8778291036670005
557 1 32.6119470879344320 56.4064056606992494 17.8778291036670005
558 1 36.0650718540431541 56.4064056606992494 17.8778291036670005
559 1 39.5181966201518833 56.4064056606992494 17.8778291036670005
560 1 42.9713213862606125 56.4064056606992494 17.8778291036670005
561 1 46.4244461523693417 56.4064056606992494 17.8778291036670005
562 1 49.8775709184780851 56.4064056606992494 17.8778291036670005
563 1 53.3306956845868072 56.4064056606992494 17.8778291036670005
564 1 56.7838204506955364 56.4064056606992494 17.8778291036670005
565 1 20.5260455551174736 61.8219051213955311 17.8778291036670005
566 1 23.9791703212262028 61.8219051213955311 17.8778291036670005
567 1 27.4322950873349320 61.8219051213955311 17.8778291036670005
568 1 30.8854198534436577 61.8219051213955311 17.8778291036670005
569 1 34.3385446195523940 61.8219051213955311 17.8778291036670005
570 1 37.7916693856611232 61.8219051213955311 17.8778291036670005
571 1 41.2447941517698524 61.8219051213955311 17.8778291036670005
572 1 44.6979189178785816 61.8219051213955311 17.8778291036670005
573 1 48.1510436839873179 61.8219051213955311 17.8778291036670005
574 1 51.6041684500960471 61.8219051213955311 17.8778291036670005
575 1 55.0572932162047763 61.8219051213955311 17.8778291036670005
576 1 58.5104179823135127 61.8219051213955311 17.8778291036670005
577 2 1.5650009463940289 3.6444307148319273 12.6663219055271998
578 2 5.0181257125027621 3.6444307148319273 12.6663219055271998
579 2 8.4712504786114913 3.6444307148319273 12.6663219055271998
580 2 11.9243752447202205 3.6444307148319273 12.6663219055271998
581 2 15.3775000108289497 3.6444307148319273 12.6663219055271998
582 2 18.8306247769376824 3.6444307148319273 12.6663219055271998
583 2 22.2837495430464045 3.6444307148319273 12.6663219055271998
584 2 25.7368743091551373 3.6444307148319273 12.6663219055271998
585 2 29.1899990752638736 3.6444307148319273 12.6663219055271998
586 2 32.6431238413725922 3.6444307148319273 12.6663219055271998
587 2 36.0962486074813356 3.6444307148319273 12.6663219055271998
588 2 39.5493733735900577 3.6444307148319273 12.6663219055271998
589 2 3.2915984780119980 9.0599301755282049 12.6663219055271998
590 2 6.7447232441207312 9.0599301755282049 12.6663219055271998
591 2 10.1978480102294604 9.0599301755282049 12.6663219055271998
592 2 13.6509727763381896 9.0599301755282049 12.6663219055271998
593 2 17.1040975424469188 9.0599301755282049 12.6663219055271998
594 2 20.5572223085556516 9.0599301755282049 12.6663219055271998
595 2 24.0103470746643772 9.0599301755282049 12.6663219055271998
596 2 27.4634718407731100 9.0599301755282049 12.6663219055271998
597 2 30.9165966068818427 9.0599301755282049 12.6663219055271998
598 2 34.3697213729905613 9.0599301755282049 12.6663219055271998
599 2 37.8228461390993047 9.0599301755282049 12.6663219055271998
600 2 41.2759709052080339 9.0599301755282049 12.6663219055271998
601 2 5.0181960096299676 14.4754296362244830 12.6663219055271998
602 2 8.4713207757387003 14.4754296362244830 12.6663219055271998
603 2 11.9244455418474296 14.4754296362244830 12.6663219055271998
604 2 15.3775703079561534 14.4754296362244830 12.6663219055271998
605 2 18.8306950740648880 14.4754296362244830 12.6663219055271998
606 2 22.2838198401736172 14.4754296362244830 12.6663219055271998
607 2 25.7369446062823464 14.4754296362244830 12.6663219055271998
608 2 29.1900693723910791 14.4754296362244830 12.6663219055271998
609 2 32.6431941384998154 14.4754296362244830 12.6663219055271998
610 2 36.0963189046085375 14.4754296362244830 12.6663219055271998
611 2 39.5494436707172738 14.4754296362244830 12.6663219055271998
612 2 43.0025684368259959 14.4754296362244830 12.6663219055271998
613 2 6.7447935412479429 19.8909290969207646 12.6663219055271998
614 2 10.1979183073566713 19.8909290969207646 12.6663219055271998
615 2 13.6510430734654022 19.8909290969207646 12.6663219055271998
616 2 17.1041678395741314 19.8909290969207646 12.6663219055271998
617 2 20.5572926056828607 19.8909290969207646 12.6663219055271998
618 2 24.0104173717915899 19.8909290969207646 12.6663219055271998
619 2 27.4635421379003191 19.8909290969207646 12.6663219055271998
620 2 30.9166669040090483 19.8909290969207646 12.6663219055271998
621 2 34.3697916701177846 19.8909290969207646 12.6663219055271998
622 2 37.8229164362265067 19.8909290969207646 12.6663219055271998
623 2 41.2760412023352430 19.8909290969207646 12.6663219055271998
624 2 44.7291659684439651 19.8909290969207646 12.6663219055271998
625 2 8.4713910728659059 25.3064285576170356 12.6663219055271998
626 2 11.9245158389746386 25.3064285576170356 12.6663219055271998
627 2 15.3776406050833678 25.3064285576170356 12.6663219055271998
628 2 18.8307653711920935 25.3064285576170356 12.6663219055271998
629 2 22.2838901373008227 25.3064285576170356 12.6663219055271998
630 2 25.7370149034095590 25.3064285576170356 12.6663219055271998
631 2 29.1901396695182811 25.3064285576170356 12.6663219055271998
632 2 32.6432644356270174 25.3064285576170356 12.6663219055271998
633 2 36.0963892017357466 25.3064285576170356 12.6663219055271998
634 2 39.5495139678444758 25.3064285576170356 12.6663219055271998
635 2 43.0026387339532121 25.3064285576170356 12.6663219055271998
636 2 46.4557635000619413 25.3064285576170356 12.6663219055271998
637 2 10.1979886044838786 30.7219280183133208 12.6663219055271998
638 2 13.6511133705926113 30.7219280183133208 12.6663219055271998
639 2 17.1042381367013441 30.7219280183133208 12.6663219055271998
640 2 20.5573629028100697 30.7219280183133208 12.6663219055271998
641 2 24.0104876689188060 30.7219280183133208 12.6663219055271998
642 2 27.4636124350275317 30.7219280183133208 12.6663219055271998
643 2 30.9167372011362573 30.7219280183133208 12.6663219055271998
644 2 34.3698619672449865 30.7219280183133208 12.6663219055271998
645 2 37.8229867333537300 30.7219280183133208 12.6663219055271998
646 2 41.2761114994624450 30.7219280183133208 12.6663219055271998
647 2 44.7292362655711884 30.7219280183133208 12.6663219055271998
648 2 48.1823610316799034 30.7219280183133208 12.6663219055271998
649 2 11.9245861361018495 36.1374274790095953 12.6663219055271998
650 2 15.3777109022105787 36.1374274790095953 12.6663219055271998
651 2 18.8308356683193026 36.1374274790095953 12.6663219055271998
652 2 22.2839604344280389 36.1374274790095953 12.6663219055271998
653 2 25.7370852005367716 36.1374274790095953 12.6663219055271998
654 2 29.1902099666454973 36.1374274790095953 12.6663219055271998
655 2 32.6433347327542265 36.1374274790095953 12.6663219055271998
656 2 36.0964594988629557 36.1374274790095953 12.6663219055271998
657 2 39.5495842649716920 36.1374274790095953 12.6663219055271998
658 2 43.0027090310804141 36.1374274790095953 12.6663219055271998
659 2 46.4558337971891504 36.1374274790095953 12.6663219055271998
660 2 49.9089585632978796 36.1374274790095953 12.6663219055271998
661 2 13.6511836677198204 41.5529269397058769 12.6663219055271998
662 2 17.1043084338285496 41.5529269397058769 12.6663219055271998
663 2 20.5574331999372788 41.5529269397058769 12.6663219055271998
664 2 24.0105579660460116 41.5529269397058769 12.6663219055271998
665 2 27.4636827321547372 41.5529269397058769 12.6663219055271998
666 2 30.9168074982634700 41.5529269397058769 12.6663219055271998
667 2 34.3699322643721956 41.5529269397058769 12.6663219055271998
668 2 37.8230570304809319 41.5529269397058769 12.6663219055271998
669 2 41.2761817965896611 41.5529269397058769 12.6663219055271998
670 2 44.7293065626983832 41.5529269397058769 12.6663219055271998
671 2 48.1824313288071266 41.5529269397058769 12.6663219055271998
672 2 51.6355560949158559 41.5529269397058769 12.6663219055271998
673 2 15.3777811993377913 46.9684264004021585 12.6663219055271998
674 2 18.8309059654465187 46.9684264004021585 12.6663219055271998
675 2 22.2840307315552444 46.9684264004021585 12.6663219055271998
676 2 25.7371554976639842 46.9684264004021585 12.6663219055271998
677 2 29.1902802637727135 46.9684264004021585 12.6663219055271998
678 2 32.6434050298814427 46.9684264004021585 12.6663219055271998
679 2 36.0965297959901648 46.9684264004021585 12.6663219055271998
680 2 39.5496545620989011 46.9684264004021585 12.6663219055271998
681 2 43.0027793282076374 46.9684264004021585 12.6663219055271998
682 2 46.4559040943163666 46.9684264004021585 12.6663219055271998
683 2 49.9090288604251029 46.9684264004021585 12.6663219055271998
684 2 53.3621536265338321 46.9684264004021585 12.6663219055271998
685 2 17.1043787309557587 52.3839258610984331 12.6663219055271998
686 2 20.5575034970644879 52.3839258610984331 12.6663219055271998
687 2 24.0106282631732171 52.3839258610984331 12.6663219055271998
688 2 27.4637530292819463 52.3839258610984331 12.6663219055271998
689 2 30.9168777953906755 52.3839258610984331 12.6663219055271998
690 2 34.3700025614994047 52.3839258610984331 12.6663219055271998
691 2 37.8231273276081339 52.3839258610984331 12.6663219055271998
692 2 41.2762520937168631 52.3839258610984331 12.6663219055271998
693 2 44.7293768598255923 52.3839258610984331 12.6663219055271998
694 2 48.1825016259343215 52.3839258610984331 12.6663219055271998
695 2 51.6356263920430649 52.3839258610984331 12.6663219055271998
696 2 55.0887511581517941 52.3839258610984331 12.6663219055271998
697 2 18.8309762625737278 57.7994253217947147 12.6663219055271998
698 2 22.2841010286824606 57.7994253217947147 12.6663219055271998
699 2 25.7372257947911933 57.7994253217947147 12.6663219055271998
700 2 29.1903505608999225 57.7994253217947147 12.6663219055271998
701 2 32.6434753270086446 57.7994253217947147 12.6663219055271998
702 2 36.0966000931173880 57.7994253217947147 12.6663219055271998
703 2 39.5497248592261030 57.7994253217947147 12.6663219055271998
704 2 43.0028496253348465 57.7994253217947147 12.6663219055271998
705 2 46.4559743914435757 57.7994253217947147 12.6663219055271998
706 2 49.9090991575522978 57.7994253217947147 12.6663219055271998
707 2 53.3622239236610341 57.7994253217947147 12.6663219055271998
708 2 56.8153486897697633 57.7994253217947147 12.6663219055271998
709 2 20.5575737941917005 63.2149247824909963 12.6663219055271998
710 2 24.0106985603004333 63.2149247824909963 12.6663219055271998
711 2 27.4638233264091589 63.2149247824909963 12.6663219055271998
712 2 30.9169480925178881 63.2149247824909963 12.6663219055271998
713 2 34.3700728586266209 63.2149247824909963 12.6663219055271998
714 2 37.8231976247353501 63.2149247824909963 12.6663219055271998
715 2 41.2763223908440722 63.2149247824909963 12.6663219055271998
716 2 44.7294471569528014 63.2149247824909963 12.6663219055271998
717 2 48.1825719230615448 63.2149247824909963 12.6663219055271998
718 2 51.6356966891702669 63.2149247824909963 12.6663219055271998
719 2 55.0888214552790032 63.2149247824909963 12.6663219055271998
720 2 58.5419462213877324 63.2149247824909963 12.6663219055271998
721 2 1.5649789563030410 0.6786497183633092 12.2272015291292959
722 2 5.0181037224117704 0.6786497183633092 12.2272015291292959
723 2 8.4712284885205023 0.6786497183633092 12.2272015291292959
724 2 11.9243532546292297 0.6786497183633092 12.2272015291292959
725 2 15.3774780207379607 0.6786497183633092 12.2272015291292959
726 2 18.8306027868466899 0.6786497183633092 12.2272015291292959
727 2 22.2837275529554226 0.6786497183633092 12.2272015291292959
728 2 25.7368523190641554 0.6786497183633092 12.2272015291292959
729 2 29.1899770851728775 0.6786497183633092 12.2272015291292959
730 2 32.6431018512816138 0.6786497183633092 12.2272015291292959
731 2 36.0962266173903430 0.6786497183633092 12.2272015291292959
732 2 39.5493513834990722 0.6786497183633092 12.2272015291292959
733 2 3.2915764879210121 6.0941491790595927 12.2272015291292959
734 2 6.7447012540297413 6.0941491790595927 12.2272015291292959
735 2 10.1978260201384732 6.0941491790595927 12.2272015291292959
736 2 13.6509507862472024 6.0941491790595927 12.2272015291292959
737 2 17.1040755523559334 6.0941491790595927 12.2272015291292959
738 2 20.5572003184646661 6.0941491790595927 12.2272015291292959
739 2 24.0103250845733953 6.0941491790595927 12.2272015291292959
740 2 27.4634498506821245 6.0941491790595927 12.2272015291292959
741 2 30.9165746167908466 6.0941491790595927 12.2272015291292959
742 2 34.3696993828995829 6.0941491790595927 12.2272015291292959
743 2 37.8228241490083121 6.0941491790595927 12.2272015291292959
744 2 41.2759489151170342 6.0941491790595927 12.2272015291292959
745 2 5.0181740195389821 11.5096486397558682 12.2272015291292959
746 2 8.4712987856477113 11.5096486397558682 12.2272015291292959
747 2 11.9244235517564423 11.5096486397558682 12.2272015291292959
748 2 15.3775483178651715 11.5096486397558682 12.2272015291292959
749 2 18.8306730839739025 11.5096486397558682 12.2272015291292959
750 2 22.2837978500826353 11.5096486397558682 12.2272015291292959
751 2 25.7369226161913645 11.5096486397558682 12.2272015291292959
752 2 29.1900473823000937 11.5096486397558682 12.2272015291292959
753 2 32.6431721484088229 11.5096486397558682 12.2272015291292959
754 2 36.0962969145175521 11.5096486397558682 12.2272015291292959
755 2 39.5494216806262813 11.5096486397558682 12.2272015291292959
756 2 43.0025464467350105 11.5096486397558682 12.2272015291292959
757 2 6.7447715511569504 16.9251481004521445 12.2272015291292959
758 2 10.1978963172656805 16.9251481004521445 12.2272015291292959
759 2 13.6510210833744114 16.9251481004521445 12.2272015291292959
760 2 17.1041458494831389 16.9251481004521445 12.2272015291292959
761 2 20.5572706155918681 16.9251481004521445 12.2272015291292959
762 2 24.0103953817006008 16.9251481004521445 12.2272015291292959
763 2 27.4635201478093336 16.9251481004521445 12.2272015291292959
764 2 30.9166449139180628 16.9251481004521445 12.2272015291292959
765 2 34.3697696800267920 16.9251481004521445 12.2272015291292959
766 2 37.8228944461355212 16.9251481004521445 12.2272015291292959
767 2 41.2760192122442504 16.9251481004521445 12.2272015291292959
768 2 44.7291439783529725 16.9251481004521445 12.2272015291292959
769 2 8.4713690827749204 22.3406475611484225 12.2272015291292959
770 2 11.9244938488836496 22.3406475611484225 12.2272015291292959
771 2 15.3776186149923824 22.3406475611484225 12.2272015291292959
772 2 18.8307433811011116 22.3406475611484225 12.2272015291292959
773 2 22.2838681472098408 22.3406475611484225 12.2272015291292959
774 2 25.7369929133185735 22.3406475611484225 12.2272015291292959
775 2 29.1901176794273027 22.3406475611484225 12.2272015291292959
776 2 32.6432424455360319 22.3406475611484225 12.2272015291292959
777 2 36.0963672116447611 22.3406475611484225 12.2272015291292959
778 2 39.5494919777534832 22.3406475611484225 12.2272015291292959
779 2 43.0026167438622196 22.3406475611484225 12.2272015291292959
780 2 46.4557415099709416 22.3406475611484225 12.2272015291292959
781 2 10.1979666143928931 27.7561470218447077 12.2272015291292959
782 2 13.6510913805016223 27.7561470218447077 12.2272015291292959
783 2 17.1042161466103479 27.7561470218447077 12.2272015291292959
784 2 20.5573409127190843 27.7561470218447077 12.2272015291292959
785 2 24.0104656788278170 27.7561470218447077 12.2272015291292959
786 2 27.4635904449365462 27.7561470218447077 12.2272015291292959
787 2 30.9167152110452754 27.7561470218447077 12.2272015291292959
788 2 34.3698399771540011 27.7561470218447077 12.2272015291292959
789 2 37.8229647432627303 27.7561470218447077 12.2272015291292959
790 2 41.2760895093714595 27.7561470218447077 12.2272015291292959
791 2 44.7292142754801887 27.7561470218447077 12.2272015291292959
792 2 48.1823390415889179 27.7561470218447077 12.2272015291292959
793 2 11.9245641460108622 33.1716464825409858 12.2272015291292959
794 2 15.3776889121195914 33.1716464825409858 12.2272015291292959
795 2 18.8308136782283242 33.1716464825409858 12.2272015291292959
796 2 22.2839384443370534 33.1716464825409858 12.2272015291292959
797 2 25.7370632104457826 33.1716464825409858 12.2272015291292959
798 2 29.1901879765545118 33.1716464825409858 12.2272015291292959
799 2 32.6433127426632481 33.1716464825409858 12.2272015291292959
800 2 36.0964375087719844 33.1716464825409858 12.2272015291292959
801 2 39.5495622748806994 33.1716464825409858 12.2272015291292959
802 2 43.0026870409894428 33.1716464825409858 12.2272015291292959
803 2 46.4558118070981720 33.1716464825409858 12.2272015291292959
804 2 49.9089365732069012 33.1716464825409858 12.2272015291292959
805 2 13.6511616776288367 38.5871459432372674 12.2272015291292959
806 2 17.1042864437375606 38.5871459432372674 12.2272015291292959
807 2 20.5574112098462933 38.5871459432372674 12.2272015291292959
808 2 24.0105359759550225 38.5871459432372674 12.2272015291292959
809 2 27.4636607420637588 38.5871459432372674 12.2272015291292959
810 2 30.9167855081724881 38.5871459432372674 12.2272015291292959
811 2 34.3699102742812173 38.5871459432372674 12.2272015291292959
812 2 37.8230350403899465 38.5871459432372674 12.2272015291292959
813 2 41.2761598064986686 38.5871459432372674 12.2272015291292959
814 2 44.7292845726074049 38.5871459432372674 12.2272015291292959
815 2 48.1824093387161341 38.5871459432372674 12.2272015291292959
816 2 51.6355341048248704 38.5871459432372674 12.2272015291292959
817 2 15.3777592092468005 44.0026454039335420 12.2272015291292959
818 2 18.8308839753555297 44.0026454039335420 12.2272015291292959
819 2 22.2840087414642696 44.0026454039335420 12.2272015291292959
820 2 25.7371335075729917 44.0026454039335420 12.2272015291292959
821 2 29.1902582736817209 44.0026454039335420 12.2272015291292959
822 2 32.6433830397904572 44.0026454039335420 12.2272015291292959
823 2 36.0965078058991864 44.0026454039335420 12.2272015291292959
824 2 39.5496325720079156 44.0026454039335420 12.2272015291292959
825 2 43.0027573381166377 44.0026454039335420 12.2272015291292959
826 2 46.4558821042253811 44.0026454039335420 12.2272015291292959
827 2 49.9090068703341032 44.0026454039335420 12.2272015291292959
828 2 53.3621316364428324 44.0026454039335420 12.2272015291292959
829 2 17.1043567408647768 49.4181448646298236 12.2272015291292959
830 2 20.5574815069735060 49.4181448646298236 12.2272015291292959
831 2 24.0106062730822316 49.4181448646298236 12.2272015291292959
832 2 27.4637310391909608 49.4181448646298236 12.2272015291292959
833 2 30.9168558052996900 49.4181448646298236 12.2272015291292959
834 2 34.3699805714084192 49.4181448646298236 12.2272015291292959
835 2 37.8231053375171555 49.4181448646298236 12.2272015291292959
836 2 41.2762301036258847 49.4181448646298236 12.2272015291292959
837 2 44.7293548697346068 49.4181448646298236 12.2272015291292959
838 2 48.1824796358433503 49.4181448646298236 12.2272015291292959
839 2 51.6356044019520724 49.4181448646298236 12.2272015291292959
840 2 55.0887291680608016 49.4181448646298236 12.2272015291292959
841 2 18.8309542724827459 54.8336443253261052 12.2272015291292959
842 2 22.2840790385914751 54.8336443253261052 12.2272015291292959
843 2 25.7372038047002007 54.8336443253261052 12.2272015291292959
844 2 29.1903285708089300 54.8336443253261052 12.2272015291292959
845 2 32.6434533369176663 54.8336443253261052 12.2272015291292959
846 2 36.0965781030264026 54.8336443253261052 12.2272015291292959
847 2 39.5497028691351247 54.8336443253261052 12.2272015291292959
848 2 43.0028276352438610 54.8336443253261052 12.2272015291292959
849 2 46.4559524013525831 54.8336443253261052 12.2272015291292959
850 2 49.9090771674613123 54.8336443253261052 12.2272015291292959
851 2 53.3622019335700415 54.8336443253261052 12.2272015291292959
852 2 56.8153266996787778 54.8336443253261052 12.2272015291292959
853 2 20.5575518041007150 60.2491437860223726 12.2272015291292959
854 2 24.0106765702094442 60.2491437860223726 12.2272015291292959
855 2 27.4638013363181699 60.2491437860223726 12.2272015291292959
856 2 30.9169261024269062 60.2491437860223726 12.2272015291292959
857 2 34.3700508685356425 60.2491437860223726 12.2272015291292959
858 2 37.8231756346443717 60.2491437860223726 12.2272015291292959
859 2 41.2763004007530938 60.2491437860223726 12.2272015291292959
860 2 44.7294251668618230 60.2491437860223726 12.2272015291292959
861 2 48.1825499329705593 60.2491437860223726 12.2272015291292959
862 2 51.6356746990792885 60.2491437860223726 12.2272015291292959
863 2 55.0887994651880106 60.2491437860223726 12.2272015291292959
864 2 58.5419242312967398 60.2491437860223726 12.2272015291292959
865 2 3.2915588801019378 2.9147786168274954 10.6919961096620995
866 2 6.7446836462106710 2.9147786168274954 10.6919961096620995
867 2 10.1978084123194019 2.9147786168274954 10.6919961096620995
868 2 13.6509331784281294 2.9147786168274954 10.6919961096620995
869 2 17.1040579445368586 2.9147786168274954 10.6919961096620995
870 2 20.5571827106455878 2.9147786168274954 10.6919961096620995
871 2 24.0103074767543205 2.9147786168274954 10.6919961096620995
872 2 27.4634322428630497 2.9147786168274954 10.6919961096620995
873 2 30.9165570089717789 2.9147786168274954 10.6919961096620995
874 2 34.3696817750805153 2.9147786168274954 10.6919961096620995
875 2 37.8228065411892374 2.9147786168274954 10.6919961096620995
876 2 41.2759313072979737 2.9147786168274954 10.6919961096620995
877 2 5.0181564117199073 8.3302780775237721 10.6919961096620995
878 2 8.4712811778286365 8.3302780775237721 10.6919961096620995
879 2 11.9244059439373711 8.3302780775237721 10.6919961096620995
880 2 15.3775307100461038 8.3302780775237721 10.6919961096620995
881 2 18.8306554761548277 8.3302780775237721 10.6919961096620995
882 2 22.2837802422635569 8.3302780775237721 10.6919961096620995
883 2 25.7369050083722861 8.3302780775237721 10.6919961096620995
884 2 29.1900297744810118 8.3302780775237721 10.6919961096620995
885 2 32.6431545405897481 8.3302780775237721 10.6919961096620995
886 2 36.0962793066984844 8.3302780775237721 10.6919961096620995
887 2 39.5494040728072065 8.3302780775237721 10.6919961096620995
888 2 43.0025288389159428 8.3302780775237721 10.6919961096620995
889 2 6.7447539433378765 13.7457775382200484 10.6919961096620995
890 2 10.1978787094466092 13.7457775382200484 10.6919961096620995
891 2 13.6510034755553384 13.7457775382200484 10.6919961096620995
892 2 17.1041282416640712 13.7457775382200484 10.6919961096620995
893 2 20.5572530077728004 13.7457775382200484 10.6919961096620995
894 2 24.0103777738815261 13.7457775382200484 10.6919961096620995
895 2 27.4635025399902588 13.7457775382200484 10.6919961096620995
896 2 30.9166273060989880 13.7457775382200484 10.6919961096620995
897 2 34.3697520722077172 13.7457775382200484 10.6919961096620995
898 2 37.8228768383164535 13.7457775382200484 10.6919961096620995
899 2 41.2760016044251756 13.7457775382200484 10.6919961096620995
900 2 44.7291263705339048 13.7457775382200484 10.6919961096620995
901 2 8.4713514749558527 19.1612769989163354 10.6919961096620995
902 2 11.9244762410645819 19.1612769989163354 10.6919961096620995
903 2 15.3776010071733111 19.1612769989163354 10.6919961096620995
904 2 18.8307257732820439 19.1612769989163354 10.6919961096620995
905 2 22.2838505393907731 19.1612769989163354 10.6919961096620995
906 2 25.7369753054994987 19.1612769989163354 10.6919961096620995
907 2 29.1901000716082279 19.1612769989163354 10.6919961096620995
908 2 32.6432248377169572 19.1612769989163354 10.6919961096620995
909 2 36.0963496038256864 19.1612769989163354 10.6919961096620995
910 2 39.5494743699344156 19.1612769989163354 10.6919961096620995
911 2 43.0025991360431448 19.1612769989163354 10.6919961096620995
912 2 46.4557239021518740 19.1612769989163354 10.6919961096620995
913 2 10.1979490065738165 24.5767764596126099 10.6919961096620995
914 2 13.6510737726825475 24.5767764596126099 10.6919961096620995
915 2 17.1041985387912838 24.5767764596126099 10.6919961096620995
916 2 20.5573233049000095 24.5767764596126099 10.6919961096620995
917 2 24.0104480710087387 24.5767764596126099 10.6919961096620995
918 2 27.4635728371174679 24.5767764596126099 10.6919961096620995
919 2 30.9166976032262006 24.5767764596126099 10.6919961096620995
920 2 34.3698223693349263 24.5767764596126099 10.6919961096620995
921 2 37.8229471354436555 24.5767764596126099 10.6919961096620995
922 2 41.2760719015523847 24.5767764596126099 10.6919961096620995
923 2 44.7291966676611139 24.5767764596126099 10.6919961096620995
924 2 48.1823214337698573 24.5767764596126099 10.6919961096620995
925 2 11.9245465381917910 29.9922759203088880 10.6919961096620995
926 2 15.3776713043005202 29.9922759203088880 10.6919961096620995
927 2 18.8307960704092494 29.9922759203088880 10.6919961096620995
928 2 22.2839208365179786 29.9922759203088880 10.6919961096620995
929 2 25.7370456026267078 29.9922759203088880 10.6919961096620995
930 2 29.1901703687354370 29.9922759203088880 10.6919961096620995
931 2 32.6432951348441804 29.9922759203088880 10.6919961096620995
932 2 36.0964199009529025 29.9922759203088880 10.6919961096620995
933 2 39.5495446670616246 29.9922759203088880 10.6919961096620995
934 2 43.0026694331703681 29.9922759203088880 10.6919961096620995
935 2 46.4557941992790830 29.9922759203088880 10.6919961096620995
936 2 49.9089189653878265 29.9922759203088880 10.6919961096620995
937 2 13.6511440698097548 35.4077753810051661 10.6919961096620995
938 2 17.1042688359184858 35.4077753810051661 10.6919961096620995
939 2 20.5573936020272185 35.4077753810051661 10.6919961096620995
940 2 24.0105183681359478 35.4077753810051661 10.6919961096620995
941 2 27.4636431342446770 35.4077753810051661 10.6919961096620995
942 2 30.9167679003534062 35.4077753810051661 10.6919961096620995
943 2 34.3698926664621496 35.4077753810051661 10.6919961096620995
944 2 37.8230174325708717 35.4077753810051661 10.6919961096620995
945 2 41.2761421986796080 35.4077753810051661 10.6919961096620995
946 2 44.7292669647883372 35.4077753810051661 10.6919961096620995
947 2 48.1823917308970664 35.4077753810051661 10.6919961096620995
948 2 51.6355164970057956 35.4077753810051661 10.6919961096620995
949 2 15.3777416014277293 40.8232748417014477 10.6919961096620995
950 2 18.8308663675364585 40.8232748417014477 10.6919961096620995
951 2 22.2839911336451948 40.8232748417014477 10.6919961096620995
952 2 25.7371158997539240 40.8232748417014477 10.6919961096620995
953 2 29.1902406658626461 40.8232748417014477 10.6919961096620995
954 2 32.6433654319713753 40.8232748417014477 10.6919961096620995
955 2 36.0964901980801116 40.8232748417014477 10.6919961096620995
956 2 39.5496149641888408 40.8232748417014477 10.6919961096620995
957 2 43.0027397302975700 40.8232748417014477 10.6919961096620995
958 2 46.4558644964063063 40.8232748417014477 10.6919961096620995
959 2 49.9089892625150284 40.8232748417014477 10.6919961096620995
960 2 53.3621140286237647 40.8232748417014477 10.6919961096620995
961 2 17.1043391330456949 46.2387743023977222 10.6919961096620995
962 2 20.5574638991544276 46.2387743023977222 10.6919961096620995
963 2 24.0105886652631568 46.2387743023977222 10.6919961096620995
964 2 27.4637134313718931 46.2387743023977222 10.6919961096620995
965 2 30.9168381974806152 46.2387743023977222 10.6919961096620995
966 2 34.3699629635893444 46.2387743023977222 10.6919961096620995
967 2 37.8230877296980808 46.2387743023977222 10.6919961096620995
968 2 41.2762124958068100 46.2387743023977222 10.6919961096620995
969 2 44.7293372619155321 46.2387743023977222 10.6919961096620995
970 2 48.1824620280242755 46.2387743023977222 10.6919961096620995
971 2 51.6355867941329976 46.2387743023977222 10.6919961096620995
972 2 55.0887115602417339 46.2387743023977222 10.6919961096620995
973 2 18.8309366646636676 51.6542737630940039 10.6919961096620995
974 2 22.2840614307724003 51.6542737630940039 10.6919961096620995
975 2 25.7371861968811295 51.6542737630940039 10.6919961096620995
976 2 29.1903109629898623 51.6542737630940039 10.6919961096620995
977 2 32.6434357290985844 51.6542737630940039 10.6919961096620995
978 2 36.0965604952073136 51.6542737630940039 10.6919961096620995
979 2 39.5496852613160428 51.6542737630940039 10.6919961096620995
980 2 43.0028100274247791 51.6542737630940039 10.6919961096620995
981 2 46.4559347935335012 51.6542737630940039 10.6919961096620995
982 2 49.9090595596422446 51.6542737630940039 10.6919961096620995
983 2 53.3621843257509596 51.6542737630940039 10.6919961096620995
984 2 56.8153090918596959 51.6542737630940039 10.6919961096620995
985 2 20.5575341962816402 57.0697732237902784 10.6919961096620995
986 2 24.0106589623903695 57.0697732237902784 10.6919961096620995
987 2 27.4637837284990987 57.0697732237902784 10.6919961096620995
988 2 30.9169084946078314 57.0697732237902784 10.6919961096620995
989 2 34.3700332607165535 57.0697732237902784 10.6919961096620995
990 2 37.8231580268252827 57.0697732237902784 10.6919961096620995
991 2 41.2762827929340190 57.0697732237902784 10.6919961096620995
992 2 44.7294075590427553 57.0697732237902784 10.6919961096620995
993 2 48.1825323251514774 57.0697732237902784 10.6919961096620995
994 2 51.6356570912602137 57.0697732237902784 10.6919961096620995
995 2 55.0887818573689358 57.0697732237902784 10.6919961096620995
996 2 58.5419066234776722 57.0697732237902784 10.6919961096620995
997 2 22.2841317278996058 62.4852726844865600 10.6919961096620995
998 2 25.7372564940083386 62.4852726844865600 10.6919961096620995
999 2 29.1903812601170713 62.4852726844865600 10.6919961096620995
1000 2 32.6435060262258077 62.4852726844865600 10.6919961096620995
1001 2 36.0966307923345298 62.4852726844865600 10.6919961096620995
1002 2 39.5497555584432661 62.4852726844865600 10.6919961096620995
1003 2 43.0028803245519882 62.4852726844865600 10.6919961096620995
1004 2 46.4560050906607174 62.4852726844865600 10.6919961096620995
1005 2 49.9091298567694395 62.4852726844865600 10.6919961096620995
1006 2 53.3622546228781829 62.4852726844865600 10.6919961096620995
1007 2 56.8153793889869050 62.4852726844865600 10.6919961096620995
1008 2 60.2685041550956413 62.4852726844865600 10.6919961096620995
1009 2 1.5334767223351053 3.6248022423747432 19.3086533512413006
1010 2 4.9866014884438341 3.6248022423747432 19.3086533512413006
1011 2 8.4397262545525642 3.6248022423747432 19.3086533512413006
1012 2 11.8928510206612970 3.6248022423747432 19.3086533512413006
1013 2 15.3459757867700262 3.6248022423747432 19.3086533512413006
1014 2 18.7991005528787554 3.6248022423747432 19.3086533512413006
1015 2 22.2522253189874810 3.6248022423747432 19.3086533512413006
1016 2 25.7053500850962138 3.6248022423747432 19.3086533512413006
1017 2 29.1584748512049465 3.6248022423747432 19.3086533512413006
1018 2 32.6115996173136651 3.6248022423747432 19.3086533512413006
1019 2 36.0647243834224014 3.6248022423747432 19.3086533512413006
1020 2 39.5178491495311377 3.6248022423747432 19.3086533512413006
1021 2 3.2600742539530745 9.0403017030710213 19.3086533512413006
1022 2 6.7131990200618041 9.0403017030710213 19.3086533512413006
1023 2 10.1663237861705333 9.0403017030710213 19.3086533512413006
1024 2 13.6194485522792608 9.0403017030710213 19.3086533512413006
1025 2 17.0725733183879953 9.0403017030710213 19.3086533512413006
1026 2 20.5256980844967245 9.0403017030710213 19.3086533512413006
1027 2 23.9788228506054502 9.0403017030710213 19.3086533512413006
1028 2 27.4319476167141865 9.0403017030710213 19.3086533512413006
1029 2 30.8850723828229157 9.0403017030710213 19.3086533512413006
1030 2 34.3381971489316413 9.0403017030710213 19.3086533512413006
1031 2 37.7913219150403705 9.0403017030710213 19.3086533512413006
1032 2 41.2444466811491068 9.0403017030710213 19.3086533512413006
1033 2 4.9866717855710458 14.4558011637673047 19.3086533512413006
1034 2 8.4397965516797750 14.4558011637673047 19.3086533512413006
1035 2 11.8929213177885096 14.4558011637673047 19.3086533512413006
1036 2 15.3460460838972317 14.4558011637673047 19.3086533512413006
1037 2 18.7991708500059644 14.4558011637673047 19.3086533512413006
1038 2 22.2522956161146936 14.4558011637673047 19.3086533512413006
1039 2 25.7054203822234228 14.4558011637673047 19.3086533512413006
1040 2 29.1585451483321592 14.4558011637673047 19.3086533512413006
1041 2 32.6116699144408884 14.4558011637673047 19.3086533512413006
1042 2 36.0647946805496105 14.4558011637673047 19.3086533512413006
1043 2 39.5179194466583397 14.4558011637673047 19.3086533512413006
1044 2 42.9710442127670760 14.4558011637673047 19.3086533512413006
1045 2 6.7132693171890150 19.8713006244635828 19.3086533512413006
1046 2 10.1663940832977442 19.8713006244635828 19.3086533512413006
1047 2 13.6195188494064787 19.8713006244635828 19.3086533512413006
1048 2 17.0726436155152008 19.8713006244635828 19.3086533512413006
1049 2 20.5257683816239336 19.8713006244635828 19.3086533512413006
1050 2 23.9788931477326628 19.8713006244635828 19.3086533512413006
1051 2 27.4320179138413920 19.8713006244635828 19.3086533512413006
1052 2 30.8851426799501283 19.8713006244635828 19.3086533512413006
1053 2 34.3382674460588575 19.8713006244635828 19.3086533512413006
1054 2 37.7913922121675796 19.8713006244635828 19.3086533512413006
1055 2 41.2445169782763017 19.8713006244635828 19.3086533512413006
1056 2 44.6976417443850380 19.8713006244635828 19.3086533512413006
1057 2 8.4398668488069841 25.2868000851598609 19.3086533512413006
1058 2 11.8929916149157133 25.2868000851598609 19.3086533512413006
1059 2 15.3461163810244425 25.2868000851598609 19.3086533512413006
1060 2 18.7992411471331700 25.2868000851598609 19.3086533512413006
1061 2 22.2523659132419027 25.2868000851598609 19.3086533512413006
1062 2 25.7054906793506390 25.2868000851598609 19.3086533512413006
1063 2 29.1586154454593611 25.2868000851598609 19.3086533512413006
1064 2 32.6117402115680974 25.2868000851598609 19.3086533512413006
1065 2 36.0648649776768266 25.2868000851598609 19.3086533512413006
1066 2 39.5179897437855487 25.2868000851598609 19.3086533512413006
1067 2 42.9711145098942779 25.2868000851598609 19.3086533512413006
1068 2 46.4242392760030143 25.2868000851598609 19.3086533512413006
1069 2 10.1664643804249550 30.7022995458561390 19.3086533512413006
1070 2 13.6195891465336842 30.7022995458561390 19.3086533512413006
1071 2 17.0727139126424134 30.7022995458561390 19.3086533512413006
1072 2 20.5258386787511427 30.7022995458561390 19.3086533512413006
1073 2 23.9789634448598754 30.7022995458561390 19.3086533512413006
1074 2 27.4320882109686046 30.7022995458561390 19.3086533512413006
1075 2 30.8852129770773338 30.7022995458561390 19.3086533512413006
1076 2 34.3383377431860666 30.7022995458561390 19.3086533512413006
1077 2 37.7914625092948029 30.7022995458561390 19.3086533512413006
1078 2 41.2445872754035179 30.7022995458561390 19.3086533512413006
1079 2 44.6977120415122471 30.7022995458561390 19.3086533512413006
1080 2 48.1508368076209763 30.7022995458561390 19.3086533512413006
1081 2 11.8930619120429224 36.1177990065524099 19.3086533512413006
1082 2 15.3461866781516516 36.1177990065524099 19.3086533512413006
1083 2 18.7993114442603861 36.1177990065524099 19.3086533512413006
1084 2 22.2524362103691118 36.1177990065524099 19.3086533512413006
1085 2 25.7055609764778481 36.1177990065524099 19.3086533512413006
1086 2 29.1586857425865702 36.1177990065524099 19.3086533512413006
1087 2 32.6118105086952994 36.1177990065524099 19.3086533512413006
1088 2 36.0649352748040357 36.1177990065524099 19.3086533512413006
1089 2 39.5180600409127649 36.1177990065524099 19.3086533512413006
1090 2 42.9711848070214941 36.1177990065524099 19.3086533512413006
1091 2 46.4243095731302162 36.1177990065524099 19.3086533512413006
1092 2 49.8774343392389525 36.1177990065524099 19.3086533512413006
1093 2 13.6196594436608915 41.5332984672486845 19.3086533512413006
1094 2 17.0727842097696225 41.5332984672486845 19.3086533512413006
1095 2 20.5259089758783553 41.5332984672486845 19.3086533512413006
1096 2 23.9790337419870880 41.5332984672486845 19.3086533512413006
1097 2 27.4321585080958101 41.5332984672486845 19.3086533512413006
1098 2 30.8852832742045393 41.5332984672486845 19.3086533512413006
1099 2 34.3384080403132685 41.5332984672486845 19.3086533512413006
1100 2 37.7915328064220049 41.5332984672486845 19.3086533512413006
1101 2 41.2446575725307341 41.5332984672486845 19.3086533512413006
1102 2 44.6977823386394562 41.5332984672486845 19.3086533512413006
1103 2 48.1509071047481854 41.5332984672486845 19.3086533512413006
1104 2 51.6040318708569217 41.5332984672486845 19.3086533512413006
1105 2 15.3462569752788625 46.9487979279449661 19.3086533512413006
1106 2 18.7993817413875917 46.9487979279449661 19.3086533512413006
1107 2 22.2525065074963244 46.9487979279449661 19.3086533512413006
1108 2 25.7056312736050536 46.9487979279449661 19.3086533512413006
1109 2 29.1587560397137864 46.9487979279449661 19.3086533512413006
1110 2 32.6118808058225085 46.9487979279449661 19.3086533512413006
1111 2 36.0650055719312519 46.9487979279449661 19.3086533512413006
1112 2 39.5181303380399740 46.9487979279449661 19.3086533512413006
1113 2 42.9712551041487103 46.9487979279449661 19.3086533512413006
1114 2 46.4243798702574324 46.9487979279449661 19.3086533512413006
1115 2 49.8775046363661545 46.9487979279449661 19.3086533512413006
1116 2 53.3306294024748979 46.9487979279449661 19.3086533512413006
1117 2 17.0728545068968351 52.3642973886412477 19.3086533512413006
1118 2 20.5259792730055644 52.3642973886412477 19.3086533512413006
1119 2 23.9791040391142936 52.3642973886412477 19.3086533512413006
1120 2 27.4322288052230263 52.3642973886412477 19.3086533512413006
1121 2 30.8853535713317520 52.3642973886412477 19.3086533512413006
1122 2 34.3384783374404847 52.3642973886412477 19.3086533512413006
1123 2 37.7916031035492068 52.3642973886412477 19.3086533512413006
1124 2 41.2447278696579502 52.3642973886412477 19.3086533512413006
1125 2 44.6978526357666794 52.3642973886412477 19.3086533512413006
1126 2 48.1509774018754015 52.3642973886412477 19.3086533512413006
1127 2 51.6041021679841236 52.3642973886412477 19.3086533512413006
1128 2 55.0572269340928671 52.3642973886412477 19.3086533512413006
1129 2 18.7994520385148043 57.7797968493375222 19.3086533512413006
1130 2 22.2525768046235335 57.7797968493375222 19.3086533512413006
1131 2 25.7057015707322627 57.7797968493375222 19.3086533512413006
1132 2 29.1588263368409883 57.7797968493375222 19.3086533512413006
1133 2 32.6119511029497176 57.7797968493375222 19.3086533512413006
1134 2 36.0650758690584539 57.7797968493375222 19.3086533512413006
1135 2 39.5182006351671760 57.7797968493375222 19.3086533512413006
1136 2 42.9713254012759123 57.7797968493375222 19.3086533512413006
1137 2 46.4244501673846415 57.7797968493375222 19.3086533512413006
1138 2 49.8775749334933636 57.7797968493375222 19.3086533512413006
1139 2 53.3306996996020928 57.7797968493375222 19.3086533512413006
1140 2 56.7838244657108362 57.7797968493375222 19.3086533512413006
1141 2 20.5260495701327770 63.1952963100338039 19.3086533512413006
1142 2 23.9791743362415062 63.1952963100338039 19.3086533512413006
1143 2 27.4322991023502354 63.1952963100338039 19.3086533512413006
1144 2 30.8854238684589646 63.1952963100338039 19.3086533512413006
1145 2 34.3385486345677009 63.1952963100338039 19.3086533512413006
1146 2 37.7916734006764230 63.1952963100338039 19.3086533512413006
1147 2 41.2447981667851522 63.1952963100338039 19.3086533512413006
1148 2 44.6979229328938885 63.1952963100338039 19.3086533512413006
1149 2 48.1510476990026177 63.1952963100338039 19.3086533512413006
1150 2 51.6041724651113469 63.1952963100338039 19.3086533512413006
1151 2 55.0572972312200690 63.1952963100338039 19.3086533512413006
1152 2 58.5104219973288053 63.1952963100338039 19.3086533512413006
1153 2 1.5334591143450897 0.4454316809104036 17.7734479332698996
1154 2 4.9865838804538187 0.4454316809104036 17.7734479332698996
1155 2 8.4397086465625524 0.4454316809104036 17.7734479332698996
1156 2 11.8928334126712798 0.4454316809104036 17.7734479332698996
1157 2 15.3459581787800090 0.4454316809104036 17.7734479332698996
1158 2 18.7990829448887418 0.4454316809104036 17.7734479332698996
1159 2 22.2522077109974674 0.4454316809104036 17.7734479332698996
1160 2 25.7053324771061966 0.4454316809104036 17.7734479332698996
1161 2 29.1584572432149258 0.4454316809104036 17.7734479332698996
1162 2 32.6115820093236621 0.4454316809104036 17.7734479332698996
1163 2 36.0647067754323913 0.4454316809104036 17.7734479332698996
1164 2 39.5178315415411134 0.4454316809104036 17.7734479332698996
1165 2 3.2600566459630591 5.8609311416066809 17.7734479332698996
1166 2 6.7131814120717888 5.8609311416066809 17.7734479332698996
1167 2 10.1663061781805162 5.8609311416066809 17.7734479332698996
1168 2 13.6194309442892454 5.8609311416066809 17.7734479332698996
1169 2 17.0725557103979746 5.8609311416066809 17.7734479332698996
1170 2 20.5256804765067109 5.8609311416066809 17.7734479332698996
1171 2 23.9788052426154401 5.8609311416066809 17.7734479332698996
1172 2 27.4319300087241729 5.8609311416066809 17.7734479332698996
1173 2 30.8850547748328985 5.8609311416066809 17.7734479332698996
1174 2 34.3381795409416313 5.8609311416066809 17.7734479332698996
1175 2 37.7913043070503605 5.8609311416066809 17.7734479332698996
1176 2 41.2444290731590897 5.8609311416066809 17.7734479332698996
1177 2 4.9866541775810287 11.2764306023029572 17.7734479332698996
1178 2 8.4397789436897579 11.2764306023029572 17.7734479332698996
1179 2 11.8929037097984853 11.2764306023029572 17.7734479332698996
1180 2 15.3460284759072181 11.2764306023029572 17.7734479332698996
1181 2 18.7991532420159473 11.2764306023029572 17.7734479332698996
1182 2 22.2522780081246800 11.2764306023029572 17.7734479332698996
1183 2 25.7054027742334092 11.2764306023029572 17.7734479332698996
1184 2 29.1585275403421420 11.2764306023029572 17.7734479332698996
1185 2 32.6116523064508641 11.2764306023029572 17.7734479332698996
1186 2 36.0647770725596004 11.2764306023029572 17.7734479332698996
1187 2 39.5179018386683296 11.2764306023029572 17.7734479332698996
1188 2 42.9710266047770588 11.2764306023029572 17.7734479332698996
1189 2 6.7132517091989978 16.6919300629992371 17.7734479332698996
1190 2 10.1663764753077270 16.6919300629992371 17.7734479332698996
1191 2 13.6195012414164616 16.6919300629992371 17.7734479332698996
1192 2 17.0726260075251837 16.6919300629992371 17.7734479332698996
1193 2 20.5257507736339129 16.6919300629992371 17.7734479332698996
1194 2 23.9788755397426492 16.6919300629992371 17.7734479332698996
1195 2 27.4320003058513784 16.6919300629992371 17.7734479332698996
1196 2 30.8851250719601111 16.6919300629992371 17.7734479332698996
1197 2 34.3382498380688332 16.6919300629992371 17.7734479332698996
1198 2 37.7913746041775624 16.6919300629992371 17.7734479332698996
1199 2 41.2444993702862988 16.6919300629992371 17.7734479332698996
1200 2 44.6976241363950280 16.6919300629992371 17.7734479332698996
1201 2 8.4398492408169687 22.1074295236955187 17.7734479332698996
1202 2 11.8929740069256979 22.1074295236955187 17.7734479332698996
1203 2 15.3460987730344307 22.1074295236955187 17.7734479332698996
1204 2 18.7992235391431599 22.1074295236955187 17.7734479332698996
1205 2 22.2523483052518891 22.1074295236955187 17.7734479332698996
1206 2 25.7054730713606183 22.1074295236955187 17.7734479332698996
1207 2 29.1585978374693475 22.1074295236955187 17.7734479332698996
1208 2 32.6117226035780803 22.1074295236955187 17.7734479332698996
1209 2 36.0648473696868095 22.1074295236955187 17.7734479332698996
1210 2 39.5179721357955387 22.1074295236955187 17.7734479332698996
1211 2 42.9710969019042679 22.1074295236955187 17.7734479332698996
1212 2 46.4242216680129900 22.1074295236955187 17.7734479332698996
1213 2 10.1664467724349379 27.5229289843917968 17.7734479332698996
1214 2 13.6195715385436706 27.5229289843917968 17.7734479332698996
1215 2 17.0726963046524034 27.5229289843917968 17.7734479332698996
1216 2 20.5258210707611291 27.5229289843917968 17.7734479332698996
1217 2 23.9789458368698547 27.5229289843917968 17.7734479332698996
1218 2 27.4320706029785910 27.5229289843917968 17.7734479332698996
1219 2 30.8851953690873202 27.5229289843917968 17.7734479332698996
1220 2 34.3383201351960494 27.5229289843917968 17.7734479332698996
1221 2 37.7914449013047786 27.5229289843917968 17.7734479332698996
1222 2 41.2445696674135078 27.5229289843917968 17.7734479332698996
1223 2 44.6976944335222370 27.5229289843917968 17.7734479332698996
1224 2 48.1508191996309662 27.5229289843917968 17.7734479332698996
1225 2 11.8930443040529106 32.9384284450880642 17.7734479332698996
1226 2 15.3461690701616398 32.9384284450880642 17.7734479332698996
1227 2 18.7992938362703690 32.9384284450880642 17.7734479332698996
1228 2 22.2524186023790946 32.9384284450880642 17.7734479332698996
1229 2 25.7055433684878309 32.9384284450880642 17.7734479332698996
1230 2 29.1586681345965566 32.9384284450880642 17.7734479332698996
1231 2 32.6117929007052894 32.9384284450880642 17.7734479332698996
1232 2 36.0649176668140186 32.9384284450880642 17.7734479332698996
1233 2 39.5180424329227478 32.9384284450880642 17.7734479332698996
1234 2 42.9711671990314770 32.9384284450880642 17.7734479332698996
1235 2 46.4242919651402062 32.9384284450880642 17.7734479332698996
1236 2 49.8774167312489283 32.9384284450880642 17.7734479332698996
1237 2 13.6196418356708815 38.3539279057843459 17.7734479332698996
1238 2 17.0727666017796089 38.3539279057843459 17.7734479332698996
1239 2 20.5258913678883417 38.3539279057843459 17.7734479332698996
1240 2 23.9790161339970673 38.3539279057843459 17.7734479332698996
1241 2 27.4321409001058001 38.3539279057843459 17.7734479332698996
1242 2 30.8852656662145293 38.3539279057843459 17.7734479332698996
1243 2 34.3383904323232585 38.3539279057843459 17.7734479332698996
1244 2 37.7915151984319948 38.3539279057843459 17.7734479332698996
1245 2 41.2446399645407169 38.3539279057843459 17.7734479332698996
1246 2 44.6977647306494461 38.3539279057843459 17.7734479332698996
1247 2 48.1508894967581824 38.3539279057843459 17.7734479332698996
1248 2 51.6040142628669116 38.3539279057843459 17.7734479332698996
1249 2 15.3462393672888453 43.7694273664806204 17.7734479332698996
1250 2 18.7993641333975781 43.7694273664806204 17.7734479332698996
1251 2 22.2524888995063073 43.7694273664806204 17.7734479332698996
1252 2 25.7056136656150329 43.7694273664806204 17.7734479332698996
1253 2 29.1587384317237621 43.7694273664806204 17.7734479332698996
1254 2 32.6118631978324913 43.7694273664806204 17.7734479332698996
1255 2 36.0649879639412276 43.7694273664806204 17.7734479332698996
1256 2 39.5181127300499568 43.7694273664806204 17.7734479332698996
1257 2 42.9712374961586789 43.7694273664806204 17.7734479332698996
1258 2 46.4243622622674081 43.7694273664806204 17.7734479332698996
1259 2 49.8774870283761373 43.7694273664806204 17.7734479332698996
1260 2 53.3306117944848737 43.7694273664806204 17.7734479332698996
1261 2 17.0728368989068180 49.1849268271769020 17.7734479332698996
1262 2 20.5259616650155436 49.1849268271769020 17.7734479332698996
1263 2 23.9790864311242800 49.1849268271769020 17.7734479332698996
1264 2 27.4322111972330092 49.1849268271769020 17.7734479332698996
1265 2 30.8853359633417384 49.1849268271769020 17.7734479332698996
1266 2 34.3384607294504676 49.1849268271769020 17.7734479332698996
1267 2 37.7915854955591968 49.1849268271769020 17.7734479332698996
1268 2 41.2447102616679331 49.1849268271769020 17.7734479332698996
1269 2 44.6978350277766552 49.1849268271769020 17.7734479332698996
1270 2 48.1509597938853915 49.1849268271769020 17.7734479332698996
1271 2 51.6040845599941136 49.1849268271769020 17.7734479332698996
1272 2 55.0572093261028428 49.1849268271769020 17.7734479332698996
1273 2 18.7994344305247907 54.6004262878731836 17.7734479332698996
1274 2 22.2525591966335199 54.6004262878731836 17.7734479332698996
1275 2 25.7056839627422526 54.6004262878731836 17.7734479332698996
1276 2 29.1588087288509783 54.6004262878731836 17.7734479332698996
1277 2 32.6119334949597075 54.6004262878731836 17.7734479332698996
1278 2 36.0650582610684367 54.6004262878731836 17.7734479332698996
1279 2 39.5181830271771659 54.6004262878731836 17.7734479332698996
1280 2 42.9713077932859022 54.6004262878731836 17.7734479332698996
1281 2 46.4244325593946172 54.6004262878731836 17.7734479332698996
1282 2 49.8775573255033606 54.6004262878731836 17.7734479332698996
1283 2 53.3306820916120898 54.6004262878731836 17.7734479332698996
1284 2 56.7838068577208190 54.6004262878731836 17.7734479332698996
1285 2 20.5260319621427563 60.0159257485694582 17.7734479332698996
1286 2 23.9791567282514890 60.0159257485694582 17.7734479332698996
1287 2 27.4322814943602218 60.0159257485694582 17.7734479332698996
1288 2 30.8854062604689474 60.0159257485694582 17.7734479332698996
1289 2 34.3385310265776766 60.0159257485694582 17.7734479332698996
1290 2 37.7916557926864058 60.0159257485694582 17.7734479332698996
1291 2 41.2447805587951351 60.0159257485694582 17.7734479332698996
1292 2 44.6979053249038714 60.0159257485694582 17.7734479332698996
1293 2 48.1510300910125935 60.0159257485694582 17.7734479332698996
1294 2 51.6041548571213298 60.0159257485694582 17.7734479332698996
1295 2 55.0572796232300590 60.0159257485694582 17.7734479332698996
1296 2 58.5104043893387882 60.0159257485694582 17.7734479332698996
1297 2 3.2600346560520816 2.8951501451497665 17.3343275544965998
1298 2 6.7131594221608113 2.8951501451497665 17.3343275544965998
1299 2 10.1662841882695432 2.8951501451497665 17.3343275544965998
1300 2 13.6194089543782741 2.8951501451497665 17.3343275544965998
1301 2 17.0725337204870016 2.8951501451497665 17.3343275544965998
1302 2 20.5256584865957308 2.8951501451497665 17.3343275544965998
1303 2 23.9787832527044600 2.8951501451497665 17.3343275544965998
1304 2 27.4319080188131963 2.8951501451497665 17.3343275544965998
1305 2 30.8850327849219184 2.8951501451497665 17.3343275544965998
1306 2 34.3381575510306547 2.8951501451497665 17.3343275544965998
1307 2 37.7912823171393839 2.8951501451497665 17.3343275544965998
1308 2 41.2444070832481131 2.8951501451497665 17.3343275544965998
1309 2 4.9866321876700503 8.3106496058460433 17.3343275544965998
1310 2 8.4397569537787831 8.3106496058460433 17.3343275544965998
1311 2 11.8928817198875123 8.3106496058460433 17.3343275544965998
1312 2 15.3460064859962433 8.3106496058460433 17.3343275544965998
1313 2 18.7991312521049707 8.3106496058460433 17.3343275544965998
1314 2 22.2522560182136999 8.3106496058460433 17.3343275544965998
1315 2 25.7053807843224291 8.3106496058460433 17.3343275544965998
1316 2 29.1585055504311654 8.3106496058460433 17.3343275544965998
1317 2 32.6116303165398875 8.3106496058460433 17.3343275544965998
1318 2 36.0647550826486238 8.3106496058460433 17.3343275544965998
1319 2 39.5178798487573530 8.3106496058460433 17.3343275544965998
1320 2 42.9710046148660822 8.3106496058460433 17.3343275544965998
1321 2 6.7132297192880195 13.7261490665423196 17.3343275544965998
1322 2 10.1663544853967522 13.7261490665423196 17.3343275544965998
1323 2 13.6194792515054814 13.7261490665423196 17.3343275544965998
1324 2 17.0726040176142142 13.7261490665423196 17.3343275544965998
1325 2 20.5257287837229470 13.7261490665423196 17.3343275544965998
1326 2 23.9788535498316762 13.7261490665423196 17.3343275544965998
1327 2 27.4319783159403983 13.7261490665423196 17.3343275544965998
1328 2 30.8851030820491346 13.7261490665423196 17.3343275544965998
1329 2 34.3382278481578567 13.7261490665423196 17.3343275544965998
1330 2 37.7913526142665930 13.7261490665423196 17.3343275544965998
1331 2 41.2444773803753222 13.7261490665423196 17.3343275544965998
1332 2 44.6976021464840514 13.7261490665423196 17.3343275544965998
1333 2 8.4398272509059922 19.1416485272386048 17.3343275544965998
1334 2 11.8929520170147214 19.1416485272386048 17.3343275544965998
1335 2 15.3460767831234541 19.1416485272386048 17.3343275544965998
1336 2 18.7992015492321833 19.1416485272386048 17.3343275544965998
1337 2 22.2523263153409161 19.1416485272386048 17.3343275544965998
1338 2 25.7054510814496382 19.1416485272386048 17.3343275544965998
1339 2 29.1585758475583710 19.1416485272386048 17.3343275544965998
1340 2 32.6117006136671037 19.1416485272386048 17.3343275544965998
1341 2 36.0648253797758258 19.1416485272386048 17.3343275544965998
1342 2 39.5179501458845621 19.1416485272386048 17.3343275544965998
1343 2 42.9710749119932913 19.1416485272386048 17.3343275544965998
1344 2 46.4241996781020205 19.1416485272386048 17.3343275544965998
1345 2 10.1664247825239613 24.5571479879348793 17.3343275544965998
1346 2 13.6195495486326941 24.5571479879348793 17.3343275544965998
1347 2 17.0726743147414233 24.5571479879348793 17.3343275544965998
1348 2 20.5257990808501525 24.5571479879348793 17.3343275544965998
1349 2 23.9789238469588781 24.5571479879348793 17.3343275544965998
1350 2 27.4320486130676073 24.5571479879348793 17.3343275544965998
1351 2 30.8851733791763365 24.5571479879348793 17.3343275544965998
1352 2 34.3382981452850728 24.5571479879348793 17.3343275544965998
1353 2 37.7914229113938021 24.5571479879348793 17.3343275544965998
1354 2 41.2445476775025242 24.5571479879348793 17.3343275544965998
1355 2 44.6976724436112605 24.5571479879348793 17.3343275544965998
1356 2 48.1507972097199897 24.5571479879348793 17.3343275544965998
1357 2 11.8930223141419358 29.9726474486311574 17.3343275544965998
1358 2 15.3461470802506632 29.9726474486311574 17.3343275544965998
1359 2 18.7992718463593960 29.9726474486311574 17.3343275544965998
1360 2 22.2523966124681252 29.9726474486311574 17.3343275544965998
1361 2 25.7055213785768473 29.9726474486311574 17.3343275544965998
1362 2 29.1586461446855765 29.9726474486311574 17.3343275544965998
1363 2 32.6117709107943128 29.9726474486311574 17.3343275544965998
1364 2 36.0648956769030420 29.9726474486311574 17.3343275544965998
1365 2 39.5180204430117712 29.9726474486311574 17.3343275544965998
1366 2 42.9711452091204933 29.9726474486311574 17.3343275544965998
1367 2 46.4242699752292225 29.9726474486311574 17.3343275544965998
1368 2 49.8773947413379588 29.9726474486311574 17.3343275544965998
1369 2 13.6196198457599049 35.3881469093274390 17.3343275544965998
1370 2 17.0727446118686323 35.3881469093274390 17.3343275544965998
1371 2 20.5258693779773616 35.3881469093274390 17.3343275544965998
1372 2 23.9789941440860943 35.3881469093274390 17.3343275544965998
1373 2 27.4321189101948164 35.3881469093274390 17.3343275544965998
1374 2 30.8852436763035456 35.3881469093274390 17.3343275544965998
1375 2 34.3383684424122819 35.3881469093274390 17.3343275544965998
1376 2 37.7914932085210111 35.3881469093274390 17.3343275544965998
1377 2 41.2446179746297332 35.3881469093274390 17.3343275544965998
1378 2 44.6977427407384624 35.3881469093274390 17.3343275544965998
1379 2 48.1508675068471916 35.3881469093274390 17.3343275544965998
1380 2 51.6039922729559208 35.3881469093274390 17.3343275544965998
1381 2 15.3462173773778758 40.8036463700237206 17.3343275544965998
1382 2 18.7993421434866050 40.8036463700237206 17.3343275544965998
1383 2 22.2524669095953342 40.8036463700237206 17.3343275544965998
1384 2 25.7055916757040634 40.8036463700237206 17.3343275544965998
1385 2 29.1587164418127891 40.8036463700237206 17.3343275544965998
1386 2 32.6118412079215290 40.8036463700237206 17.3343275544965998
1387 2 36.0649659740302511 40.8036463700237206 17.3343275544965998
1388 2 39.5180907401389803 40.8036463700237206 17.3343275544965998
1389 2 42.9712155062477024 40.8036463700237206 17.3343275544965998
1390 2 46.4243402723564458 40.8036463700237206 17.3343275544965998
1391 2 49.8774650384651750 40.8036463700237206 17.3343275544965998
1392 2 53.3305898045739042 40.8036463700237206 17.3343275544965998
1393 2 17.0728149089958414 46.2191458307200023 17.3343275544965998
1394 2 20.5259396751045742 46.2191458307200023 17.3343275544965998
1395 2 23.9790644412133034 46.2191458307200023 17.3343275544965998
1396 2 27.4321892073220326 46.2191458307200023 17.3343275544965998
1397 2 30.8853139734307618 46.2191458307200023 17.3343275544965998
1398 2 34.3384387395394910 46.2191458307200023 17.3343275544965998
1399 2 37.7915635056482202 46.2191458307200023 17.3343275544965998
1400 2 41.2446882717569565 46.2191458307200023 17.3343275544965998
1401 2 44.6978130378656786 46.2191458307200023 17.3343275544965998
1402 2 48.1509378039744149 46.2191458307200023 17.3343275544965998
1403 2 51.6040625700831441 46.2191458307200023 17.3343275544965998
1404 2 55.0571873361918733 46.2191458307200023 17.3343275544965998
1405 2 18.7994124406138141 51.6346452914162839 17.3343275544965998
1406 2 22.2525372067225433 51.6346452914162839 17.3343275544965998
1407 2 25.7056619728312725 51.6346452914162839 17.3343275544965998
1408 2 29.1587867389400088 51.6346452914162839 17.3343275544965998
1409 2 32.6119115050487309 51.6346452914162839 17.3343275544965998
1410 2 36.0650362711574601 51.6346452914162839 17.3343275544965998
1411 2 39.5181610372661893 51.6346452914162839 17.3343275544965998
1412 2 42.9712858033749256 51.6346452914162839 17.3343275544965998
1413 2 46.4244105694836549 51.6346452914162839 17.3343275544965998
1414 2 49.8775353355923912 51.6346452914162839 17.3343275544965998
1415 2 53.3306601017011133 51.6346452914162839 17.3343275544965998
1416 2 56.7837848678098425 51.6346452914162839 17.3343275544965998
1417 2 20.5260099722317868 57.0501447521125584 17.3343275544965998
1418 2 23.9791347383405125 57.0501447521125584 17.3343275544965998
1419 2 27.4322595044492417 57.0501447521125584 17.3343275544965998
1420 2 30.8853842705579744 57.0501447521125584 17.3343275544965998
1421 2 34.3385090366667001 57.0501447521125584 17.3343275544965998
1422 2 37.7916338027754222 57.0501447521125584 17.3343275544965998
1423 2 41.2447585688841656 57.0501447521125584 17.3343275544965998
1424 2 44.6978833349928948 57.0501447521125584 17.3343275544965998
1425 2 48.1510081011016169 57.0501447521125584 17.3343275544965998
1426 2 51.6041328672103532 57.0501447521125584 17.3343275544965998
1427 2 55.0572576333190824 57.0501447521125584 17.3343275544965998
1428 2 58.5103823994278187 57.0501447521125584 17.3343275544965998
1429 2 22.2526075038497559 62.4656442128088401 17.3343275544965998
1430 2 25.7057322699584816 62.4656442128088401 17.3343275544965998
1431 2 29.1588570360672108 62.4656442128088401 17.3343275544965998
1432 2 32.6119818021759471 62.4656442128088401 17.3343275544965998
1433 2 36.0651065682846763 62.4656442128088401 17.3343275544965998
1434 2 39.5182313343934055 62.4656442128088401 17.3343275544965998
1435 2 42.9713561005021347 62.4656442128088401 17.3343275544965998
1436 2 46.4244808666108639 62.4656442128088401 17.3343275544965998
1437 2 49.8776056327195931 62.4656442128088401 17.3343275544965998
1438 2 53.3307303988283223 62.4656442128088401 17.3343275544965998
1439 2 56.7838551649370515 62.4656442128088401 17.3343275544965998
1440 2 60.2369799310457807 62.4656442128088401 17.3343275544965998
