ITEM: TIMESTEP
0
ITEM: NUMBER OF ATOMS
480
ITEM: BOX BOUNDS xy xz yz pp pp pp
0.0000000000000000e+00 3.7984583318577663e+01 1.0359585189707820e+01
0.0000000000000000e+00 3.2492996764177676e+01 0.0000000000000000e+00
0.0000000000000000e+00 3.0000000000000000e+01 0.0000000000000000e+00
ITEM: ATOMS id type fx fy fz
1 1 -0.0267193 -0.00938201 0.00502545
2 1 2.22523e-05 2.15383e-05 -0.000209262
3 1 -3.23527e-10 2.09134e-08 3.13912e-09
4 1 -3.23455e-10 2.09134e-08 3.13913e-09
5 1 -3.23409e-10 2.09134e-08 3.13915e-09
6 1 -3.23546e-10 2.09135e-08 3.13911e-09
7 1 -1.7267e-05 4.52405e-06 0.000206153
8 1 -0.0275255 0.00978026 -0.00526258
9 1 3.67365e-06 1.15603e-05 -2.67337e-06
10 1 -3.23495e-10 2.09134e-08 3.13912e-09
11 1 -3.23394e-10 2.09134e-08 3.13914e-09
12 1 -3.23456e-10 2.09133e-08 3.13911e-09
13 1 -3.23396e-10 2.09134e-08 3.13913e-09
14 1 -3.23514e-10 2.09133e-08 3.13913e-09
15 1 3.65969e-06 -1.1514e-05 2.69431e-06
16 1 -7.33431e-06 2.67049e-08 1.77188e-08
17 1 -3.23462e-10 2.09134e-08 3.13914e-09
18 1 -3.23491e-10 2.09134e-08 3.13913e-09
19 1 -3.23504e-10 2.09134e-08 3.13913e-09
20 1 -3.23536e-10 2.09134e-08 3.13913e-09
21 1 -3.23486e-10 2.09134e-08 3.13914e-09
22 1 -3.23304e-10 2.09134e-08 3.13911e-09
23 1 -3.23435e-10 2.09134e-08 3.13915e-09
24 1 -3.23388e-10 2.09134e-08 3.13914e-09
25 1 -3.23548e-10 2.09133e-08 3.13912e-09
26 1 -3.23455e-10 2.09133e-08 3.13913e-09
27 1 -3.23479e-10 2.09133e-08 3.13913e-09
28 1 -3.23494e-10 2.09133e-08 3.13913e-09
29 1 -3.23517e-10 2.09133e-08 3.13912e-09
30 1 -3.2326e-10 2.09132e-08 3.13912e-09
31 1 -3.23373e-10 2.09133e-08 3.13911e-09
32 1 -3.23449e-10 2.09133e-08 3.13914e-09
33 1 -3.23382e-10 2.09132e-08 3.13912e-09
34 1 -3.23395e-10 2.09132e-08 3.13912e-09
35 1 -3.23531e-10 2.09132e-08 3.13912e-09
36 1 -3.23439e-10 2.09132e-08 3.13911e-09
37 1 -3.2331e-10 2.09132e-08 3.13911e-09
38 1 -3.23451e-10 2.09132e-08 3.13912e-09
39 1 -3.2357e-10 2.09132e-08 3.13912e-09
40 1 -3.23308e-10 2.09132e-08 3.13914e-09
41 1 0.000138601 -1.66689e-06 -9.12116e-09
42 1 -0.000104906 7.97874e-05 -1.36901e-05
43 1 1.05472e-06 -4.48886e-07 -8.09004e-08
44 1 -3.23331e-10 2.09134e-08 3.13914e-09
45 1 -3.23565e-10 2.09134e-08 3.13915e-09
46 1 -3.23292e-10 2.09134e-08 3.13913e-09
47 1 1.07448e-06 5.00426e-07 8.81677e-08
48 1 -0.000105053 -8.95888e-05 1.57233e-05
49 1 -0.00493801 -3.23075e-05 -3.06595e-05
50 1 -0.0403551 0.0174178 0.0177931
51 1 5.3539e-05 -8.30778e-05 -8.28383e-05
52 1 1.20751e-10 -4.40012e-08 -4.4857e-08
53 1 1.20809e-10 -4.40012e-08 -4.4857e-08
54 1 1.2086e-10 -4.40011e-08 -4.4857e-08
55 1 1.49319e-05 9.06406e-05 9.03106e-05
56 1 0.000957169 -0.000295599 -0.00106465
57 1 -0.000255195 0.000336148 -0.000605396
58 1 7.07706e-05 2.16128e-05 -2.25698e-05
59 1 1.20833e-10 -4.40012e-08 -4.4857e-08
60 1 1.20879e-10 -4.40012e-08 -4.4857e-08
61 1 1.2071e-10 -4.40012e-08 -4.4857e-08
62 1 1.20784e-10 -4.40012e-08 -4.4857e-08
63 1 6.6641e-05 -1.97647e-05 2.13076e-05
64 1 -0.000254212 -0.000335994 0.000606625
65 1 1.2081e-10 -4.40012e-08 -4.48569e-08
66 1 1.2084e-10 -4.40012e-08 -4.4857e-08
67 1 1.20787e-10 -4.40012e-08 -4.4857e-08
68 1 1.20839e-10 -4.40012e-08 -4.4857e-08
69 1 1.20797e-10 -4.40012e-08 -4.4857e-08
70 1 1.20837e-10 -4.40013e-08 -4.4857e-08
71 1 1.2075e-10 -4.40012e-08 -4.4857e-08
72 1 1.208e-10 -4.40012e-08 -4.48569e-08
73 1 1.20925e-10 -4.4001e-08 -4.48571e-08
74 1 1.20875e-10 -4.40009e-08 -4.48571e-08
75 1 1.20858e-10 -4.40009e-08 -4.48571e-08
76 1 1.20833e-10 -4.40009e-08 -4.48571e-08
77 1 1.20818e-10 -4.40009e-08 -4.48571e-08
78 1 1.20814e-10 -4.40009e-08 -4.48571e-08
79 1 1.20824e-10 -4.40009e-08 -4.48571e-08
80 1 1.20785e-10 -4.40009e-08 -4.48571e-08
81 1 1.20971e-10 -4.40011e-08 -4.4857e-08
82 1 1.20902e-10 -4.4001e-08 -4.48571e-08
83 1 1.20905e-10 -4.4001e-08 -4.48571e-08
84 1 1.20826e-10 -4.4001e-08 -4.48571e-08
85 1 1.20813e-10 -4.4001e-08 -4.48571e-08
86 1 1.20776e-10 -4.4001e-08 -4.4857e-08
87 1 1.20881e-10 -4.4001e-08 -4.4857e-08
88 1 1.20725e-10 -4.4001e-08 -4.4857e-08
89 1 -1.93484e-07 3.75177e-07 6.06111e-08
90 1 -1.83621e-07 -4.73471e-07 -1.52419e-07
91 1 1.87197e-07 -4.64738e-07 -1.50472e-07
92 1 1.20896e-10 -4.4001e-08 -4.4857e-08
93 1 1.20839e-10 -4.4001e-08 -4.4857e-08
94 1 1.20867e-10 -4.40011e-08 -4.4857e-08
95 1 1.20809e-10 -4.40009e-08 -4.4857e-08
96 1 1.90391e-07 3.8391e-07 6.25585e-08
97 1 1.56028e-10 4.49694e-08 4.55619e-08
98 1 1.56029e-10 4.49694e-08 4.5562e-08
99 1 1.56029e-10 4.49694e-08 4.55619e-08
100 1 1.56088e-10 4.49694e-08 4.55619e-08
101 1 1.55998e-10 4.49694e-08 4.55619e-08
102 1 1.56172e-10 4.49694e-08 4.55619e-08
103 1 1.56025e-10 4.49694e-08 4.55619e-08
104 1 1.55961e-10 4.49694e-08 4.55619e-08
105 1 1.56029e-10 4.49692e-08 4.5562e-08
106 1 1.5601e-10 4.49692e-08 4.55621e-08
107 1 1.55996e-10 4.49692e-08 4.5562e-08
108 1 1.56042e-10 4.49692e-08 4.5562e-08
109 1 1.56008e-10 4.49692e-08 4.5562e-08
110 1 1.56006e-10 4.49692e-08 4.5562e-08
111 1 1.55979e-10 4.49692e-08 4.5562e-08
112 1 1.56129e-10 4.49692e-08 4.5562e-08
113 1 1.56049e-10 4.49694e-08 4.5562e-08
114 1 1.56034e-10 4.49694e-08 4.55619e-08
115 1 1.56097e-10 4.49693e-08 4.5562e-08
116 1 1.56003e-10 4.49694e-08 4.55619e-08
117 1 1.56004e-10 4.49693e-08 4.55619e-08
118 1 1.55945e-10 4.49694e-08 4.5562e-08
119 1 1.56162e-10 4.49693e-08 4.5562e-08
120 1 1.56092e-10 4.49693e-08 4.55619e-08
121 1 1.56087e-10 4.49697e-08 4.55618e-08
122 1 1.56083e-10 4.49697e-08 4.55618e-08
123 1 1.56143e-10 4.49697e-08 4.55618e-08
124 1 1.56095e-10 4.49697e-08 4.55618e-08
125 1 1.56054e-10 4.49697e-08 4.55618e-08
126 1 1.56103e-10 4.49697e-08 4.55618e-08
127 1 1.5616e-10 4.49697e-08 4.55619e-08
128 1 1.56008e-10 4.49697e-08 4.55618e-08
129 1 1.55987e-10 4.49696e-08 4.55619e-08
130 1 1.56005e-10 4.49696e-08 4.55619e-08
131 1 1.55963e-10 4.49696e-08 4.55619e-08
132 1 1.55896e-10 4.49696e-08 4.55619e-08
133 1 1.5605e-10 4.49696e-08 4.55619e-08
134 1 1.56096e-10 4.49696e-08 4.55619e-08
135 1 1.56015e-10 4.49696e-08 4.55619e-08
136 1 1.56101e-10 4.49696e-08 4.55619e-08
137 1 1.56062e-10 4.49697e-08 4.55618e-08
138 1 1.56093e-10 4.49697e-08 4.55618e-08
139 1 1.56003e-10 4.49697e-08 4.55618e-08
140 1 1.56034e-10 4.49697e-08 4.55618e-08
141 1 1.56164e-10 4.49697e-08 4.55618e-08
142 1 1.56153e-10 4.49697e-08 4.55618e-08
143 1 1.56154e-10 4.49697e-08 4.55618e-08
144 1 1.56104e-10 4.49697e-08 4.55618e-08
145 1 -3.41013e-10 -2.13464e-08 -2.95365e-09
146 1 -3.4111e-10 -2.13464e-08 -2.95365e-09
147 1 -3.41038e-10 -2.13464e-08 -2.95366e-09
148 1 -3.41018e-10 -2.13464e-08 -2.95367e-09
149 1 -3.40974e-10 -2.13464e-08 -2.95365e-09
150 1 -3.41053e-10 -2.13464e-08 -2.95369e-09
151 1 -3.41147e-10 -2.13464e-08 -2.95365e-09
152 1 -3.41084e-10 -2.13464e-08 -2.95364e-09
153 1 -3.41045e-10 -2.13463e-08 -2.95364e-09
154 1 -3.41132e-10 -2.13464e-08 -2.95365e-09
155 1 -3.40993e-10 -2.13464e-08 -2.95365e-09
156 1 -3.41061e-10 -2.13464e-08 -2.95368e-09
157 1 -3.41043e-10 -2.13464e-08 -2.95367e-09
158 1 -3.41096e-10 -2.13464e-08 -2.95368e-09
159 1 -3.41084e-10 -2.13464e-08 -2.95365e-09
160 1 -3.41022e-10 -2.13464e-08 -2.95366e-09
161 1 -3.41214e-10 -2.13463e-08 -2.95368e-09
162 1 -3.41093e-10 -2.13463e-08 -2.95364e-09
163 1 -3.41034e-10 -2.13463e-08 -2.95367e-09
164 1 -3.40974e-10 -2.13463e-08 -2.95364e-09
165 1 -3.4093e-10 -2.13463e-08 -2.95366e-09
166 1 -3.41146e-10 -2.13464e-08 -2.95364e-09
167 1 -3.40962e-10 -2.13463e-08 -2.95367e-09
168 1 -3.40966e-10 -2.13463e-08 -2.95366e-09
169 1 -3.4116e-10 -2.13464e-08 -2.95369e-09
170 1 -3.4114e-10 -2.13464e-08 -2.95367e-09
171 1 -3.41064e-10 -2.13464e-08 -2.95367e-09
172 1 -3.41034e-10 -2.13464e-08 -2.95367e-09
173 1 -3.41104e-10 -2.13464e-08 -2.95367e-09
174 1 -3.40958e-10 -2.13464e-08 -2.95368e-09
175 1 -3.41089e-10 -2.13464e-08 -2.95367e-09
176 1 -3.41077e-10 -2.13464e-08 -2.95365e-09
177 1 -3.4097e-10 -2.13464e-08 -2.95365e-09
178 1 -3.41123e-10 -2.13464e-08 -2.95367e-09
179 1 -3.41011e-10 -2.13464e-08 -2.95365e-09
180 1 -3.41025e-10 -2.13464e-08 -2.95365e-09
181 1 -3.40949e-10 -2.13464e-08 -2.95366e-09
182 1 -3.41093e-10 -2.13464e-08 -2.95368e-09
183 1 -3.41193e-10 -2.13464e-08 -2.95365e-09
184 1 -3.40925e-10 -2.13464e-08 -2.95366e-09
185 1 -3.41126e-10 -2.13461e-08 -2.95366e-09
186 1 -3.41086e-10 -2.13461e-08 -2.95365e-09
187 1 -3.40969e-10 -2.13461e-08 -2.95364e-09
188 1 -3.40932e-10 -2.13461e-08 -2.95365e-09
189 1 -3.40982e-10 -2.13461e-08 -2.95366e-09
190 1 -3.41125e-10 -2.13461e-08 -2.95366e-09
191 1 -3.411e-10 -2.13461e-08 -2.95364e-09
192 1 -3.41028e-10 -2.13461e-08 -2.95362e-09
193 2 0.115244 -0.017369 -0.0164962
194 2 0.00309333 -0.0012305 0.00177873
195 2 -0.000242301 1.87038e-06 1.71087e-06
196 2 -1.63754e-11 1.40085e-08 -6.22558e-08
197 2 -1.64252e-11 1.40085e-08 -6.22558e-08
198 2 -1.64629e-11 1.40085e-08 -6.22559e-08
199 2 -0.000255889 -4.66297e-06 -4.6167e-06
200 2 0.00277916 0.00122777 -0.00182805
201 2 -1.00132e-05 -0.000212937 -2.57236e-05
202 2 6.32414e-07 8.56514e-07 -1.72225e-07
203 2 -1.63997e-11 1.40085e-08 -6.22558e-08
204 2 -1.64945e-11 1.40085e-08 -6.22559e-08
205 2 -1.64553e-11 1.40085e-08 -6.22558e-08
206 2 -1.64101e-11 1.40085e-08 -6.22559e-08
207 2 6.30516e-07 -8.28772e-07 4.91569e-08
208 2 -1.00883e-05 0.000213635 2.56344e-05
209 2 -1.65041e-11 1.40085e-08 -6.22559e-08
210 2 -1.64629e-11 1.40085e-08 -6.22559e-08
211 2 -1.64272e-11 1.40085e-08 -6.22558e-08
212 2 -1.63954e-11 1.40085e-08 -6.22559e-08
213 2 -1.64519e-11 1.40085e-08 -6.22558e-08
214 2 -1.6533e-11 1.40085e-08 -6.22558e-08
215 2 -1.64283e-11 1.40085e-08 -6.22559e-08
216 2 -1.65034e-11 1.40085e-08 -6.22558e-08
217 2 -1.64828e-11 1.40085e-08 -6.22559e-08
218 2 -1.64372e-11 1.40084e-08 -6.22559e-08
219 2 -1.64787e-11 1.40084e-08 -6.22559e-08
220 2 -1.65036e-11 1.40084e-08 -6.22559e-08
221 2 -1.64976e-11 1.40084e-08 -6.22559e-08
222 2 -1.65551e-11 1.40084e-08 -6.22558e-08
223 2 -1.66664e-11 1.40085e-08 -6.22559e-08
224 2 -1.64811e-11 1.40084e-08 -6.22559e-08
225 2 -1.66827e-11 1.40085e-08 -6.22559e-08
226 2 -1.65286e-11 1.40085e-08 -6.22559e-08
227 2 -1.64592e-11 1.40085e-08 -6.22559e-08
228 2 -1.6503e-11 1.40084e-08 -6.22558e-08
229 2 -1.65114e-11 1.40085e-08 -6.22558e-08
230 2 -1.65365e-11 1.40084e-08 -6.22559e-08
231 2 -1.63659e-11 1.40085e-08 -6.22559e-08
232 2 -1.64441e-11 1.40084e-08 -6.22558e-08
233 2 -1.00318e-05 3.197e-05 1.44687e-05
234 2 -1.00722e-05 -3.16963e-05 -1.46939e-05
235 2 6.23154e-07 -2.72031e-07 -2.84207e-07
236 2 -1.65995e-11 1.40085e-08 -6.22559e-08
237 2 -1.64767e-11 1.40085e-08 -6.22559e-08
238 2 -1.65026e-11 1.40085e-08 -6.22558e-08
239 2 -1.64324e-11 1.40086e-08 -6.22559e-08
240 2 6.39823e-07 3.18834e-07 1.58552e-07
241 2 -6.9624e-05 3.9188e-05 3.26915e-06
242 2 -0.000413824 0.00072346 3.45416e-05
243 2 9.29131e-06 -4.15419e-06 -2.33039e-06
244 2 3.69512e-10 2.38354e-08 9.53311e-08
245 2 3.69515e-10 2.38354e-08 9.53311e-08
246 2 3.69502e-10 2.38354e-08 9.53311e-08
247 2 1.84414e-05 8.17957e-06 2.03421e-06
248 2 -0.000378697 -0.000800199 2.47673e-05
249 2 -0.00439726 -0.00541358 0.00165868
250 2 0.00068991 0.000247841 1.01303e-06
251 2 3.69502e-10 2.38355e-08 9.53311e-08
252 2 3.69485e-10 2.38355e-08 9.53311e-08
253 2 3.69484e-10 2.38355e-08 9.53311e-08
254 2 3.69495e-10 2.38355e-08 9.53311e-08
255 2 0.000675946 -0.000241138 -8.8409e-07
256 2 -0.00434386 0.00534208 -0.00165321
257 2 -1.2559e-07 -2.59442e-07 2.42219e-08
258 2 3.69504e-10 2.38357e-08 9.53311e-08
259 2 3.69503e-10 2.38357e-08 9.53311e-08
260 2 3.69496e-10 2.38357e-08 9.5331e-08
261 2 3.69503e-10 2.38357e-08 9.53311e-08
262 2 3.69491e-10 2.38357e-08 9.53311e-08
263 2 -1.26387e-07 3.08913e-07 1.66892e-07
264 2 2.53085e-07 2.5607e-08 9.57757e-08
265 2 3.69493e-10 2.38354e-08 9.53312e-08
266 2 3.69492e-10 2.38354e-08 9.53312e-08
267 2 3.69491e-10 2.38354e-08 9.53312e-08
268 2 3.695e-10 2.38354e-08 9.53312e-08
269 2 3.69507e-10 2.38354e-08 9.53312e-08
270 2 3.69492e-10 2.38354e-08 9.53312e-08
271 2 3.69481e-10 2.38354e-08 9.53312e-08
272 2 3.69531e-10 2.38354e-08 9.53312e-08
273 2 3.69507e-10 2.38356e-08 9.53311e-08
274 2 3.69527e-10 2.38356e-08 9.53311e-08
275 2 3.69524e-10 2.38356e-08 9.53311e-08
276 2 3.69526e-10 2.38356e-08 9.53311e-08
277 2 3.6951e-10 2.38356e-08 9.53311e-08
278 2 3.69512e-10 2.38356e-08 9.53311e-08
279 2 3.6953e-10 2.38356e-08 9.53311e-08
280 2 3.69514e-10 2.38356e-08 9.53311e-08
281 2 4.62305e-10 2.40297e-08 9.53255e-08
282 2 2.76749e-10 2.40297e-08 9.53255e-08
283 2 3.69544e-10 2.38357e-08 9.53311e-08
284 2 3.69543e-10 2.38357e-08 9.53311e-08
285 2 3.69502e-10 2.38357e-08 9.53311e-08
286 2 3.69538e-10 2.38357e-08 9.53311e-08
287 2 3.69521e-10 2.38357e-08 9.53311e-08
288 2 3.69589e-10 2.38357e-08 9.53311e-08
289 2 -0.00649633 0.00370891 0.00730841
290 2 -9.88428e-05 -1.93721e-05 0.000102672
291 2 -1.50374e-10 -1.47563e-08 8.64264e-09
292 2 -1.50442e-10 -1.47562e-08 8.64262e-09
293 2 -1.50446e-10 -1.47562e-08 8.64262e-09
294 2 -1.50371e-10 -1.47563e-08 8.64263e-09
295 2 -0.00012551 4.20049e-05 -0.000111984
296 2 -0.00657629 -0.00376981 -0.00728688
297 2 -0.000107922 -0.000202612 0.000169902
298 2 -1.50473e-10 -1.47563e-08 8.64261e-09
299 2 -1.50466e-10 -1.47562e-08 8.64264e-09
300 2 -1.50418e-10 -1.47563e-08 8.64265e-09
301 2 -1.50346e-10 -1.47562e-08 8.64262e-09
302 2 -1.50373e-10 -1.47563e-08 8.64264e-09
303 2 -0.000106553 0.000200455 -0.000168268
304 2 1.79736e-05 3.60966e-09 5.72709e-09
305 2 -1.50366e-10 -1.47563e-08 8.64263e-09
306 2 -1.50378e-10 -1.47563e-08 8.64263e-09
307 2 -1.50355e-10 -1.47563e-08 8.64263e-09
308 2 -1.50415e-10 -1.47563e-08 8.64265e-09
309 2 -1.50401e-10 -1.47563e-08 8.64262e-09
310 2 -1.50399e-10 -1.47563e-08 8.64263e-09
311 2 -1.50489e-10 -1.47563e-08 8.64263e-09
312 2 -1.50386e-10 -1.47562e-08 8.64261e-09
313 2 -1.50371e-10 -1.47563e-08 8.64265e-09
314 2 -1.50406e-10 -1.47563e-08 8.64265e-09
315 2 -1.50383e-10 -1.47563e-08 8.64267e-09
316 2 -1.50383e-10 -1.47563e-08 8.64265e-09
317 2 -1.50278e-10 -1.47563e-08 8.64265e-09
318 2 -1.5038e-10 -1.47563e-08 8.64268e-09
319 2 -1.50442e-10 -1.47563e-08 8.64265e-09
320 2 -1.50482e-10 -1.47563e-08 8.6426e-09
321 2 -1.50438e-10 -1.47563e-08 8.64265e-09
322 2 -1.50489e-10 -1.47563e-08 8.64267e-09
323 2 -1.50456e-10 -1.47563e-08 8.64268e-09
324 2 -1.50434e-10 -1.47563e-08 8.64266e-09
325 2 -1.50353e-10 -1.47563e-08 8.64268e-09
326 2 -1.50462e-10 -1.47563e-08 8.64264e-09
327 2 -1.5043e-10 -1.47563e-08 8.64269e-09
328 2 -1.50517e-10 -1.47562e-08 8.64262e-09
329 2 7.07802e-05 -7.0079e-08 -1.03713e-07
330 2 -3.08999e-10 -5.46374e-07 -4.68983e-07
331 2 1.39644e-09 -1.61806e-08 7.95491e-09
332 2 -1.50479e-10 -1.47563e-08 8.64267e-09
333 2 -1.50467e-10 -1.47563e-08 8.64265e-09
334 2 -1.50334e-10 -1.47563e-08 8.64268e-09
335 2 1.42166e-09 -1.33088e-08 9.34161e-09
336 2 8.14726e-12 5.31416e-07 4.95206e-07
337 2 -1.32114e-10 1.51554e-08 -8.78182e-09
338 2 -1.3202e-10 1.51554e-08 -8.78183e-09
339 2 -1.32113e-10 1.51554e-08 -8.78182e-09
340 2 -1.32095e-10 1.51554e-08 -8.78181e-09
341 2 -1.32095e-10 1.51554e-08 -8.78184e-09
342 2 -1.32135e-10 1.51554e-08 -8.78179e-09
343 2 -1.32137e-10 1.51554e-08 -8.78183e-09
344 2 -1.31978e-10 1.51554e-08 -8.78185e-09
345 2 -1.32147e-10 1.51554e-08 -8.78186e-09
346 2 -1.32028e-10 1.51553e-08 -8.78183e-09
347 2 -1.32057e-10 1.51554e-08 -8.78182e-09
348 2 -1.32111e-10 1.51553e-08 -8.78182e-09
349 2 -1.32084e-10 1.51554e-08 -8.78182e-09
350 2 -1.32077e-10 1.51553e-08 -8.78182e-09
351 2 -1.31987e-10 1.51554e-08 -8.78182e-09
352 2 -1.32086e-10 1.51553e-08 -8.78181e-09
353 2 -1.32103e-10 1.51553e-08 -8.78188e-09
354 2 -1.32114e-10 1.51553e-08 -8.78185e-09
355 2 -1.32131e-10 1.51553e-08 -8.78184e-09
356 2 -1.32135e-10 1.51554e-08 -8.78187e-09
357 2 -1.32118e-10 1.51553e-08 -8.78185e-09
358 2 -1.32047e-10 1.51554e-08 -8.78183e-09
359 2 -1.32117e-10 1.51553e-08 -8.78182e-09
360 2 -1.32231e-10 1.51553e-08 -8.78187e-09
361 2 -1.32108e-10 1.51553e-08 -8.78183e-09
362 2 -1.32122e-10 1.51553e-08 -8.78179e-09
363 2 -1.32144e-10 1.51553e-08 -8.78179e-09
364 2 -1.32145e-10 1.51553e-08 -8.7818e-09
365 2 -1.32075e-10 1.51553e-08 -8.7818e-09
366 2 -1.32124e-10 1.51553e-08 -8.78178e-09
367 2 -1.32148e-10 1.51553e-08 -8.78179e-09
368 2 -1.32166e-10 1.51553e-08 -8.78182e-09
369 2 -1.32047e-10 1.51553e-08 -8.78182e-09
370 2 -1.32012e-10 1.51553e-08 -8.78182e-09
371 2 -1.31997e-10 1.51553e-08 -8.78182e-09
372 2 -1.31903e-10 1.51553e-08 -8.7818e-09
373 2 -1.32025e-10 1.51553e-08 -8.78178e-09
374 2 -1.32108e-10 1.51553e-08 -8.78179e-09
375 2 -1.31991e-10 1.51553e-08 -8.78181e-09
376 2 -1.32195e-10 1.51553e-08 -8.7818e-09
377 2 -1.32125e-10 1.51553e-08 -8.78185e-09
378 2 -1.32117e-10 1.51553e-08 -8.78182e-09
379 2 -1.32082e-10 1.51553e-08 -8.78185e-09
380 2 -1.3208e-10 1.51553e-08 -8.78183e-09
381 2 -1.32155e-10 1.51553e-08 -8.7818e-09
382 2 -1.32179e-10 1.51553e-08 -8.78182e-09
383 2 -1.32104e-10 1.51553e-08 -8.78184e-09
384 2 -1.32199e-10 1.51553e-08 -8.78185e-09
385 2 3.52472e-10 -2.44095e-08 -9.74358e-08
386 2 3.52476e-10 -2.44094e-08 -9.74358e-08
387 2 3.52472e-10 -2.44094e-08 -9.74358e-08
388 2 3.52472e-10 -2.44094e-08 -9.74358e-08
389 2 3.52478e-10 -2.44094e-08 -9.74358e-08
390 2 3.5249e-10 -2.44094e-08 -9.74358e-08
391 2 3.52494e-10 -2.44095e-08 -9.74358e-08
392 2 3.52469e-10 -2.44094e-08 -9.74358e-08
393 2 3.52479e-10 -2.44092e-08 -9.74359e-08
394 2 3.52477e-10 -2.44092e-08 -9.74359e-08
395 2 3.52478e-10 -2.44092e-08 -9.74359e-08
396 2 3.52475e-10 -2.44092e-08 -9.74359e-08
397 2 3.52466e-10 -2.44093e-08 -9.74359e-08
398 2 3.52475e-10 -2.44092e-08 -9.74359e-08
399 2 3.52464e-10 -2.44092e-08 -9.74359e-08
400 2 3.52496e-10 -2.44092e-08 -9.74359e-08
401 2 3.52487e-10 -2.4409e-08 -9.7436e-08
402 2 3.52477e-10 -2.4409e-08 -9.7436e-08
403 2 3.52488e-10 -2.4409e-08 -9.7436e-08
404 2 3.52491e-10 -2.4409e-08 -9.7436e-08
405 2 3.52509e-10 -2.4409e-08 -9.7436e-08
406 2 3.52503e-10 -2.4409e-08 -9.7436e-08
407 2 3.52488e-10 -2.4409e-08 -9.7436e-08
408 2 3.5248e-10 -2.4409e-08 -9.7436e-08
409 2 3.5249e-10 -2.44092e-08 -9.74359e-08
410 2 3.525e-10 -2.44092e-08 -9.74359e-08
411 2 3.52509e-10 -2.44092e-08 -9.74359e-08
412 2 3.52496e-10 -2.44092e-08 -9.74359e-08
413 2 3.52485e-10 -2.44092e-08 -9.74359e-08
414 2 3.52463e-10 -2.44092e-08 -9.74359e-08
415 2 3.52518e-10 -2.44092e-08 -9.74359e-08
416 2 3.52488e-10 -2.44092e-08 -9.74359e-08
417 2 3.5248e-10 -2.44094e-08 -9.74358e-08
418 2 3.52483e-10 -2.44094e-08 -9.74358e-08
419 2 3.5251e-10 -2.44094e-08 -9.74358e-08
420 2 3.52447e-10 -2.44094e-08 -9.74358e-08
421 2 3.52508e-10 -2.44094e-08 -9.74358e-08
422 2 3.52479e-10 -2.44094e-08 -9.74358e-08
423 2 3.52535e-10 -2.44094e-08 -9.74358e-08
424 2 3.52487e-10 -2.44094e-08 -9.74358e-08
425 2 3.52472e-10 -2.44095e-08 -9.74358e-08
426 2 3.52471e-10 -2.44095e-08 -9.74358e-08
427 2 3.52489e-10 -2.44095e-08 -9.74358e-08
428 2 3.52463e-10 -2.44095e-08 -9.74358e-08
429 2 3.52496e-10 -2.44095e-08 -9.74358e-08
430 2 3.5249e-10 -2.44095e-08 -9.74358e-08
431 2 3.52533e-10 -2.44095e-08 -9.74358e-08
432 2 3.52478e-10 -2.44095e-08 -9.74359e-08
433 2 -3.53528e-11 -1.43692e-08 6.36095e-08
434 2 -3.53565e-11 -1.43692e-08 6.36094e-08
435 2 -3.53798e-11 -1.43692e-08 6.36094e-08
436 2 -3.54549e-11 -1.43692e-08 6.36095e-08
437 2 -3.53785e-11 -1.43692e-08 6.36095e-08
438 2 -3.53768e-11 -1.43692e-08 6.36095e-08
439 2 -3.53172e-11 -1.43692e-08 6.36094e-08
440 2 -3.54006e-11 -1.43691e-08 6.36094e-08
441 2 -3.53624e-11 -1.43692e-08 6.36095e-08
442 2 -3.53823e-11 -1.43692e-08 6.36094e-08
443 2 -3.53494e-11 -1.43692e-08 6.36095e-08
444 2 -3.5395e-11 -1.43692e-08 6.36094e-08
445 2 -3.53364e-11 -1.43692e-08 6.36095e-08
446 2 -3.54152e-11 -1.43692e-08 6.36094e-08
447 2 -3.53504e-11 -1.43692e-08 6.36095e-08
448 2 -3.54485e-11 -1.43692e-08 6.36095e-08
449 2 -3.5415e-11 -1.43692e-08 6.36095e-08
450 2 -3.53417e-11 -1.43692e-08 6.36095e-08
451 2 -3.5424e-11 -1.43692e-08 6.36095e-08
452 2 -3.54397e-11 -1.43692e-08 6.36095e-08
453 2 -3.54112e-11 -1.43692e-08 6.36095e-08
454 2 -3.52705e-11 -1.43692e-08 6.36094e-08
455 2 -3.54256e-11 -1.43692e-08 6.36095e-08
456 2 -3.52229e-11 -1.43692e-08 6.36095e-08
457 2 -3.53761e-11 -1.43692e-08 6.36094e-08
458 2 -3.53636e-11 -1.43692e-08 6.36094e-08
459 2 -3.54326e-11 -1.43692e-08 6.36094e-08
460 2 -3.53815e-11 -1.43692e-08 6.36094e-08
461 2 -3.54226e-11 -1.43692e-08 6.36094e-08
462 2 -3.54181e-11 -1.43692e-08 6.36094e-08
463 2 -3.53798e-11 -1.43692e-08 6.36094e-08
464 2 -3.52443e-11 -1.43692e-08 6.36094e-08
465 2 -3.53433e-11 -1.43692e-08 6.36094e-08
466 2 -3.54373e-11 -1.43692e-08 6.36094e-08
467 2 -3.54828e-11 -1.43692e-08 6.36094e-08
468 2 -3.54365e-11 -1.43692e-08 6.36094e-08
469 2 -3.5427e-11 -1.43692e-08 6.36095e-08
470 2 -3.53988e-11 -1.43692e-08 6.36094e-08
471 2 -3.53606e-11 -1.43692e-08 6.36094e-08
472 2 -3.55467e-11 -1.43692e-08 6.36094e-08
473 2 -3.54219e-11 -1.43692e-08 6.36095e-08
474 2 -3.54285e-11 -1.43692e-08 6.36094e-08
475 2 -3.54499e-11 -1.43692e-08 6.36095e-08
476 2 -3.54863e-11 -1.43692e-08 6.36095e-08
477 2 -3.54095e-11 -1.43692e-08 6.36095e-08
478 2 -3.54051e-11 -1.43692e-08 6.36095e-08
479 2 -3.5421e-11 -1.43692e-08 6.36095e-08
480 2 -3.52767e-11 -1.43693e-08 6.36095e-08
