
     Program PWSCF v.7.0 starts on 29Jul2026 at 16:26:41 

     This program is part of the open-source Quantum ESPRESSO suite
     for quantum simulation of materials; please cite
         "P. Giannozzi et al., J. Phys.:Condens. Matter 21 395502 (2009);
         "P. Giannozzi et al., J. Phys.:Condens. Matter 29 465901 (2017);
         "P. Giannozzi et al., J. Chem. Phys. 152 154105 (2020);
          URL http://www.quantum-espresso.org", 
     in publications or presentations arising from this work. More details at
     http://www.quantum-espresso.org/quote

     Parallel version (MPI), running on    38 processors

     MPI processes distributed on     1 nodes
     R & G space division:  proc/nbgrp/npool/nimage =      38
     371229 MiB available memory on the printing compute node when the environment starts

     Reading input from Ga2O3-BL-001.md.in

     Current dimensions of program PWSCF are:
     Max number of different atomic species (ntypx) = 10
     Max number of k-points (npk) =  40000
     Max angular momentum in pseudopotentials (lmaxx) =  4
     file Ga.pbe-dn-kjpaw_psl.1.0.0.UPF: wavefunction(s)  4S renormalized
     file O.pbe-n-kjpaw_psl.1.0.0.UPF: wavefunction(s)  2S 2P renormalized

     IMPORTANT: XC functional enforced from input :
     Exchange-correlation= PBE
                           (   1   4   3   4   0   0   0)
     Any further DFT definition will be discarded
     Please, verify this is what you really want


     Subspace diagonalization in iterative solution of the eigenvalue problem:
     one sub-group per band group will be used
     scalapack distributed-memory algorithm (size of sub-group:  6*  6 procs)


     Parallelization info
     --------------------
     sticks:   dense  smooth     PW     G-vecs:    dense   smooth      PW
     Min          88      44     12                26844     9463    1422
     Max          89      45     13                26869     9502    1453
     Sum        3357    1673    479              1020421   360755   54493

     Using Slab Decomposition



     bravais-lattice index     =            0
     lattice parameter (alat)  =       6.1410  a.u.
     unit-cell volume          =    3731.1183 (a.u.)^3
     number of atoms/cell      =           10
     number of atomic types    =            2
     number of electrons       =        88.00
     number of Kohn-Sham states=           44
     kinetic-energy cutoff     =      80.0000  Ry
     charge density cutoff     =     640.0000  Ry
     scf convergence threshold =      1.0E-08
     mixing beta               =       0.2000
     number of iterations used =            8  plain     mixing
     energy convergence thresh.=      0.0E+00
     force convergence thresh. =      0.0E+00
     Exchange-correlation= PBE
                           (   1   4   3   4   0   0   0)
     nstep                     =        10000


     celldm(1)=   6.140965  celldm(2)=   0.000000  celldm(3)=   0.000000
     celldm(4)=   0.000000  celldm(5)=   0.000000  celldm(6)=   0.000000

     crystal axes: (cart. coord. in units of alat)
               a(1) = (   0.999067   0.043189   0.000000 )  
               a(2) = (   0.385620   1.763502   0.000000 )  
               a(3) = (   0.000000   0.000000   9.231739 )  

     reciprocal axes: (cart. coord. in units 2 pi/alat)
               b(1) = (  1.010486 -0.220960  0.000000 )  
               b(2) = ( -0.024747  0.572465  0.000000 )  
               b(3) = (  0.000000  0.000000  0.108322 )  


     PseudoPot. # 1 for Ga read from file:
     ../../pseudo/Ga.pbe-dn-kjpaw_psl.1.0.0.UPF
     MD5 check sum: 50ce49cbf7e0a40ad8623bf41840a268
     Pseudo is Projector augmented-wave + core cor, Zval = 13.0
     Generated using &quot;atomic&quot; code by A. Dal Corso  v.6.3
     Shape of augmentation charge: PSQ
     Using radial grid of 1205 points,  6 beta functions with: 
                l(1) =   0
                l(2) =   0
                l(3) =   1
                l(4) =   1
                l(5) =   2
                l(6) =   2
     Q(r) pseudized with 0 coefficients 


     PseudoPot. # 2 for O  read from file:
     ../../pseudo/O.pbe-n-kjpaw_psl.1.0.0.UPF
     MD5 check sum: e99d9cef9b487d1ca56f5b95ecd0fd7a
     Pseudo is Projector augmented-wave + core cor, Zval =  6.0
     Generated using &quot;atomic&quot; code by A. Dal Corso  v.6.3
     Shape of augmentation charge: PSQ
     Using radial grid of 1095 points,  4 beta functions with: 
                l(1) =   0
                l(2) =   0
                l(3) =   1
                l(4) =   1
     Q(r) pseudized with 0 coefficients 


     atomic species   valence    mass     pseudopotential
        Ga            13.00    69.72300     Ga( 1.00)
        O              6.00    15.99900     O ( 1.00)

     No symmetry found


                                    s                        frac. trans.

      isym =  1     identity                                     

 cryst.   s( 1) = (     1          0          0      )
                  (     0          1          0      )
                  (     0          0          1      )

 cart.    s( 1) = (  1.0000000  0.0000000  0.0000000 )
                  (  0.0000000  1.0000000  0.0000000 )
                  (  0.0000000  0.0000000  1.0000000 )


   Cartesian axes

     site n.     atom                  positions (alat units)
         1           Ga  tau(   1) = (   1.1048926   1.3042724   3.9371171  )
         2           Ga  tau(   2) = (   0.6351345   0.5560499   3.6965297  )
         3           O   tau(   3) = (   0.6045845   1.0099645   4.1542824  )
         4           O   tau(   4) = (   0.4273461   0.0275707   3.8149823  )
         5           O   tau(   5) = (   1.1133571   0.8443572   3.4801270  )
         6           Ga  tau(   6) = (   1.1048926   1.3042724   5.5344464  )
         7           Ga  tau(   7) = (   0.6351345   0.5560499   5.2938589  )
         8           O   tau(   8) = (   0.6045845   1.0099645   5.7516116  )
         9           O   tau(   9) = (   0.4273461   0.0275707   5.4123115  )
        10           O   tau(  10) = (   1.1133571   0.8443572   5.0774562  )

   Crystallographic axes

     site n.     atom                  positions (cryst. coord.)
         1           Ga  tau(   1) = (  0.8282862  0.7193071  0.4264762  )
         2           Ga  tau(   2) = (  0.5189296  0.3026012  0.4004153  )
         3           O   tau(   3) = (  0.3877622  0.5632074  0.4500000  )
         4           O   tau(   4) = (  0.4257352  0.0052076  0.4132464  )
         5           O   tau(   5) = (  0.9384624  0.4558123  0.3769742  )
         6           Ga  tau(   6) = (  0.8282862  0.7193071  0.5995021  )
         7           Ga  tau(   7) = (  0.5189296  0.3026012  0.5734412  )
         8           O   tau(   8) = (  0.3877622  0.5632074  0.6230258  )
         9           O   tau(   9) = (  0.4257352  0.0052076  0.5862722  )
        10           O   tau(  10) = (  0.9384624  0.4558123  0.5500000  )

     number of k points=    14
                       cart. coord. in units 2pi/alat
        k(    1) = (   0.0000000   0.0000000   0.0000000), wk =   0.0833333
        k(    2) = (  -0.0061868   0.1431162   0.0000000), wk =   0.1666667
        k(    3) = (   0.0123737  -0.2862325   0.0000000), wk =   0.0833333
        k(    4) = (   0.1684143  -0.0368267   0.0000000), wk =   0.1666667
        k(    5) = (   0.1622275   0.1062895   0.0000000), wk =   0.1666667
        k(    6) = (   0.1807880  -0.3230592   0.0000000), wk =   0.1666667
        k(    7) = (   0.1746012  -0.1799429   0.0000000), wk =   0.1666667
        k(    8) = (   0.3368287  -0.0736534   0.0000000), wk =   0.1666667
        k(    9) = (   0.3306418   0.0694629   0.0000000), wk =   0.1666667
        k(   10) = (   0.3492023  -0.3598859   0.0000000), wk =   0.1666667
        k(   11) = (   0.3430155  -0.2167696   0.0000000), wk =   0.1666667
        k(   12) = (  -0.5052430   0.1104801   0.0000000), wk =   0.0833333
        k(   13) = (  -0.5114298   0.2535963   0.0000000), wk =   0.1666667
        k(   14) = (  -0.4928693  -0.1757524   0.0000000), wk =   0.0833333

                       cryst. coord.
        k(    1) = (   0.0000000   0.0000000   0.0000000), wk =   0.0833333
        k(    2) = (   0.0000000   0.2500000   0.0000000), wk =   0.1666667
        k(    3) = (   0.0000000  -0.5000000   0.0000000), wk =   0.0833333
        k(    4) = (   0.1666667   0.0000000   0.0000000), wk =   0.1666667
        k(    5) = (   0.1666667   0.2500000   0.0000000), wk =   0.1666667
        k(    6) = (   0.1666667  -0.5000000   0.0000000), wk =   0.1666667
        k(    7) = (   0.1666667  -0.2500000   0.0000000), wk =   0.1666667
        k(    8) = (   0.3333333   0.0000000   0.0000000), wk =   0.1666667
        k(    9) = (   0.3333333   0.2500000   0.0000000), wk =   0.1666667
        k(   10) = (   0.3333333  -0.5000000   0.0000000), wk =   0.1666667
        k(   11) = (   0.3333333  -0.2500000   0.0000000), wk =   0.1666667
        k(   12) = (  -0.5000000   0.0000000   0.0000000), wk =   0.0833333
        k(   13) = (  -0.5000000   0.2500000   0.0000000), wk =   0.1666667
        k(   14) = (  -0.5000000  -0.5000000   0.0000000), wk =   0.0833333

     Dense  grid:  1020421 G-vectors     FFT dimensions: (  50,  90, 480)

     Smooth grid:   360755 G-vectors     FFT dimensions: (  36,  64, 324)

     Dynamical RAM for                 wfc:       0.80 MB

     Dynamical RAM for     wfc (w. buffer):      11.94 MB

     Dynamical RAM for           str. fact:       0.82 MB

     Dynamical RAM for           local pot:       0.00 MB

     Dynamical RAM for          nlocal pot:       2.17 MB

     Dynamical RAM for                qrad:       4.06 MB

     Dynamical RAM for          rho,v,vnew:       2.57 MB

     Dynamical RAM for               rhoin:       0.86 MB

     Dynamical RAM for            rho*nmix:       6.55 MB

     Dynamical RAM for           G-vectors:       1.61 MB

     Dynamical RAM for          h,s,v(r/c):       0.01 MB

     Dynamical RAM for          <psi|beta>:       0.08 MB

     Dynamical RAM for                 psi:       1.59 MB

     Dynamical RAM for                hpsi:       1.59 MB

     Dynamical RAM for                spsi:       1.59 MB

     Dynamical RAM for      wfcinit/wfcrot:       2.25 MB

     Dynamical RAM for           addusdens:      78.66 MB

     Dynamical RAM for          addusforce:      82.98 MB

     Dynamical RAM for         addusstress:      82.34 MB

     Estimated static dynamical RAM per process >      27.49 MB

     Estimated max dynamical RAM per process >     117.02 MB

     Estimated total dynamical RAM >       4.34 GB
 ----2D----2D----2D----2D----2D----2D----2D----2D----2D----2D----2D----2D
  The code is running with the 2D cutoff
  Please refer to:
  Sohier, T., Calandra, M., & Mauri, F. (2017), 
  Density functional perturbation theory for gated two-dimensional heterostructures:
  Theoretical developments and application to flexural phonons in graphene.
  Physical Review B, 96(7), 75448. https://doi.org/10.1103/PhysRevB.96.075448
 ----2D----2D----2D----2D----2D----2D----2D----2D----2D----2D----2D----2D

     Initial potential from superposition of free atoms

     starting charge      87.9882, renormalised to      88.0000

     negative rho (up, down):  3.946E-04 0.000E+00
     Starting wfcs are   60 randomized atomic wfcs
     Checking if some PAW data can be deallocated... 
       PAW data deallocated on   22 nodes for type:  1
       PAW data deallocated on   16 nodes for type:  2

     total cpu time spent up to now is        3.1 secs

     Self-consistent Calculation

     iteration #  1     ecut=    80.00 Ry     beta= 0.20
     Davidson diagonalization with overlap

---- Real-time Memory Report at c_bands before calling an iterative solver
           221 MiB given to the printing process from OS
             0 MiB allocation reported by mallinfo(arena+hblkhd)
        369296 MiB available memory on the node where the printing process lives
------------------
     ethr =  1.00E-02,  avg # of iterations =  1.9

     negative rho (up, down):  1.384E-04 0.000E+00

     total cpu time spent up to now is        4.9 secs

     total energy              =   -1361.25164926 Ry
     estimated scf accuracy    <       3.15519417 Ry

     iteration #  2     ecut=    80.00 Ry     beta= 0.20
     Davidson diagonalization with overlap

---- Real-time Memory Report at c_bands before calling an iterative solver
           276 MiB given to the printing process from OS
             0 MiB allocation reported by mallinfo(arena+hblkhd)
        368459 MiB available memory on the node where the printing process lives
------------------
     ethr =  3.59E-03,  avg # of iterations =  2.0

     negative rho (up, down):  9.740E-05 0.000E+00

     total cpu time spent up to now is        6.9 secs

     total energy              =   -1361.16944413 Ry
     estimated scf accuracy    <       0.87625049 Ry

     iteration #  3     ecut=    80.00 Ry     beta= 0.20
     Davidson diagonalization with overlap

---- Real-time Memory Report at c_bands before calling an iterative solver
           278 MiB given to the printing process from OS
             0 MiB allocation reported by mallinfo(arena+hblkhd)
        368410 MiB available memory on the node where the printing process lives
------------------
     ethr =  9.96E-04,  avg # of iterations =  6.1

     negative rho (up, down):  1.222E-04 0.000E+00

     total cpu time spent up to now is       10.1 secs

     total energy              =   -1361.61739103 Ry
     estimated scf accuracy    <       0.30705786 Ry

     iteration #  4     ecut=    80.00 Ry     beta= 0.20
     Davidson diagonalization with overlap

---- Real-time Memory Report at c_bands before calling an iterative solver
           278 MiB given to the printing process from OS
             0 MiB allocation reported by mallinfo(arena+hblkhd)
        368401 MiB available memory on the node where the printing process lives
------------------
     ethr =  3.49E-04,  avg # of iterations =  7.4

     negative rho (up, down):  1.820E-04 0.000E+00

     total cpu time spent up to now is       13.4 secs

     total energy              =   -1361.82744685 Ry
     estimated scf accuracy    <       0.07093055 Ry

     iteration #  5     ecut=    80.00 Ry     beta= 0.20
     Davidson diagonalization with overlap

---- Real-time Memory Report at c_bands before calling an iterative solver
           279 MiB given to the printing process from OS
             0 MiB allocation reported by mallinfo(arena+hblkhd)
        368387 MiB available memory on the node where the printing process lives
------------------
     c_bands:  1 eigenvalues not converged
     ethr =  8.06E-05,  avg # of iterations = 15.6

     negative rho (up, down):  1.843E-04 0.000E+00

     total cpu time spent up to now is       18.9 secs

     total energy              =   -1361.92211191 Ry
     estimated scf accuracy    <       0.28323762 Ry

     iteration #  6     ecut=    80.00 Ry     beta= 0.20
     Davidson diagonalization with overlap

---- Real-time Memory Report at c_bands before calling an iterative solver
           279 MiB given to the printing process from OS
             0 MiB allocation reported by mallinfo(arena+hblkhd)
        368382 MiB available memory on the node where the printing process lives
------------------
     ethr =  8.06E-05,  avg # of iterations =  4.1

     negative rho (up, down):  3.961E-04 0.000E+00

     total cpu time spent up to now is       21.1 secs

     total energy              =   -1361.80404046 Ry
     estimated scf accuracy    <       0.17891323 Ry

     iteration #  7     ecut=    80.00 Ry     beta= 0.20
     Davidson diagonalization with overlap

---- Real-time Memory Report at c_bands before calling an iterative solver
           279 MiB given to the printing process from OS
             0 MiB allocation reported by mallinfo(arena+hblkhd)
        368371 MiB available memory on the node where the printing process lives
------------------
     ethr =  8.06E-05,  avg # of iterations = 15.3

     negative rho (up, down):  5.284E-04 0.000E+00

     total cpu time spent up to now is       26.9 secs

     total energy              =   -1362.15551335 Ry
     estimated scf accuracy    <       1.62083480 Ry

     iteration #  8     ecut=    80.00 Ry     beta= 0.20
     Davidson diagonalization with overlap

---- Real-time Memory Report at c_bands before calling an iterative solver
           280 MiB given to the printing process from OS
             0 MiB allocation reported by mallinfo(arena+hblkhd)
        368357 MiB available memory on the node where the printing process lives
------------------
     ethr =  8.06E-05,  avg # of iterations =  5.1

     negative rho (up, down):  8.661E-04 0.000E+00

     total cpu time spent up to now is       29.4 secs

     total energy              =   -1361.83527919 Ry
     estimated scf accuracy    <       1.21521041 Ry

     iteration #  9     ecut=    80.00 Ry     beta= 0.20
     Davidson diagonalization with overlap

---- Real-time Memory Report at c_bands before calling an iterative solver
           280 MiB given to the printing process from OS
             0 MiB allocation reported by mallinfo(arena+hblkhd)
        368345 MiB available memory on the node where the printing process lives
------------------
     ethr =  8.06E-05,  avg # of iterations =  8.3

     negative rho (up, down):  6.085E-04 0.000E+00

     total cpu time spent up to now is       33.0 secs

     total energy              =   -1361.93802124 Ry
     estimated scf accuracy    <       0.14905274 Ry

     iteration # 10     ecut=    80.00 Ry     beta= 0.20
     Davidson diagonalization with overlap

---- Real-time Memory Report at c_bands before calling an iterative solver
           280 MiB given to the printing process from OS
             0 MiB allocation reported by mallinfo(arena+hblkhd)
        368337 MiB available memory on the node where the printing process lives
------------------
     ethr =  8.06E-05,  avg # of iterations =  2.3

     negative rho (up, down):  5.522E-04 0.000E+00

     total cpu time spent up to now is       34.9 secs

     total energy              =   -1361.93149180 Ry
     estimated scf accuracy    <       0.09621519 Ry

     iteration # 11     ecut=    80.00 Ry     beta= 0.20
     Davidson diagonalization with overlap

---- Real-time Memory Report at c_bands before calling an iterative solver
           281 MiB given to the printing process from OS
             0 MiB allocation reported by mallinfo(arena+hblkhd)
        368325 MiB available memory on the node where the printing process lives
------------------
     ethr =  8.06E-05,  avg # of iterations =  2.0

     negative rho (up, down):  5.170E-04 0.000E+00

     total cpu time spent up to now is       36.9 secs

     total energy              =   -1361.93295898 Ry
     estimated scf accuracy    <       0.04981006 Ry

     iteration # 12     ecut=    80.00 Ry     beta= 0.20
     Davidson diagonalization with overlap

---- Real-time Memory Report at c_bands before calling an iterative solver
           281 MiB given to the printing process from OS
             0 MiB allocation reported by mallinfo(arena+hblkhd)
        368326 MiB available memory on the node where the printing process lives
------------------
     ethr =  5.66E-05,  avg # of iterations =  4.0

     negative rho (up, down):  5.278E-04 0.000E+00

     total cpu time spent up to now is       39.0 secs

     total energy              =   -1361.93698393 Ry
     estimated scf accuracy    <       0.02600721 Ry

     iteration # 13     ecut=    80.00 Ry     beta= 0.20
     Davidson diagonalization with overlap

---- Real-time Memory Report at c_bands before calling an iterative solver
           281 MiB given to the printing process from OS
             0 MiB allocation reported by mallinfo(arena+hblkhd)
        368330 MiB available memory on the node where the printing process lives
------------------
     ethr =  2.96E-05,  avg # of iterations =  5.3

     negative rho (up, down):  5.052E-04 0.000E+00

     total cpu time spent up to now is       41.3 secs

     total energy              =   -1361.93991014 Ry
     estimated scf accuracy    <       0.01372860 Ry

     iteration # 14     ecut=    80.00 Ry     beta= 0.20
     Davidson diagonalization with overlap

---- Real-time Memory Report at c_bands before calling an iterative solver
           281 MiB given to the printing process from OS
             0 MiB allocation reported by mallinfo(arena+hblkhd)
        368331 MiB available memory on the node where the printing process lives
------------------
     ethr =  1.56E-05,  avg # of iterations =  5.6

     negative rho (up, down):  4.751E-04 0.000E+00

     total cpu time spent up to now is       43.7 secs

     total energy              =   -1361.94131443 Ry
     estimated scf accuracy    <       0.00764426 Ry

     iteration # 15     ecut=    80.00 Ry     beta= 0.20
     Davidson diagonalization with overlap

---- Real-time Memory Report at c_bands before calling an iterative solver
           281 MiB given to the printing process from OS
             0 MiB allocation reported by mallinfo(arena+hblkhd)
        368331 MiB available memory on the node where the printing process lives
------------------
     ethr =  8.69E-06,  avg # of iterations =  5.7

     negative rho (up, down):  4.403E-04 0.000E+00

     total cpu time spent up to now is       46.1 secs

     total energy              =   -1361.94086930 Ry
     estimated scf accuracy    <       0.00382943 Ry

     iteration # 16     ecut=    80.00 Ry     beta= 0.20
     Davidson diagonalization with overlap

---- Real-time Memory Report at c_bands before calling an iterative solver
           281 MiB given to the printing process from OS
             0 MiB allocation reported by mallinfo(arena+hblkhd)
        368337 MiB available memory on the node where the printing process lives
------------------
     ethr =  4.35E-06,  avg # of iterations =  8.7

     negative rho (up, down):  4.449E-04 0.000E+00

     total cpu time spent up to now is       49.7 secs

     total energy              =   -1361.94482448 Ry
     estimated scf accuracy    <       0.00145698 Ry

     iteration # 17     ecut=    80.00 Ry     beta= 0.20
     Davidson diagonalization with overlap

---- Real-time Memory Report at c_bands before calling an iterative solver
           281 MiB given to the printing process from OS
             0 MiB allocation reported by mallinfo(arena+hblkhd)
        368336 MiB available memory on the node where the printing process lives
------------------
     ethr =  1.66E-06,  avg # of iterations = 10.7

     negative rho (up, down):  4.463E-04 0.000E+00

     total cpu time spent up to now is       53.5 secs

     total energy              =   -1361.94502430 Ry
     estimated scf accuracy    <       0.00446767 Ry

     iteration # 18     ecut=    80.00 Ry     beta= 0.20
     Davidson diagonalization with overlap

---- Real-time Memory Report at c_bands before calling an iterative solver
           281 MiB given to the printing process from OS
             0 MiB allocation reported by mallinfo(arena+hblkhd)
        368335 MiB available memory on the node where the printing process lives
------------------
     ethr =  1.66E-06,  avg # of iterations =  2.7

     negative rho (up, down):  4.493E-04 0.000E+00

     total cpu time spent up to now is       55.7 secs

     total energy              =   -1361.94359688 Ry
     estimated scf accuracy    <       0.00263544 Ry

     iteration # 19     ecut=    80.00 Ry     beta= 0.20
     Davidson diagonalization with overlap

---- Real-time Memory Report at c_bands before calling an iterative solver
           281 MiB given to the printing process from OS
             0 MiB allocation reported by mallinfo(arena+hblkhd)
        368337 MiB available memory on the node where the printing process lives
------------------
     ethr =  1.66E-06,  avg # of iterations =  8.1

     negative rho (up, down):  4.563E-04 0.000E+00

     total cpu time spent up to now is       59.2 secs

     total energy              =   -1361.94470068 Ry
     estimated scf accuracy    <       0.00176227 Ry

     iteration # 20     ecut=    80.00 Ry     beta= 0.20
     Davidson diagonalization with overlap

---- Real-time Memory Report at c_bands before calling an iterative solver
           281 MiB given to the printing process from OS
             0 MiB allocation reported by mallinfo(arena+hblkhd)
        368338 MiB available memory on the node where the printing process lives
------------------
     ethr =  1.66E-06,  avg # of iterations =  4.0

     negative rho (up, down):  4.447E-04 0.000E+00

     total cpu time spent up to now is       61.6 secs

     total energy              =   -1361.94494130 Ry
     estimated scf accuracy    <       0.00029222 Ry

     iteration # 21     ecut=    80.00 Ry     beta= 0.20
     Davidson diagonalization with overlap

---- Real-time Memory Report at c_bands before calling an iterative solver
           281 MiB given to the printing process from OS
             0 MiB allocation reported by mallinfo(arena+hblkhd)
        368337 MiB available memory on the node where the printing process lives
------------------
     ethr =  3.32E-07,  avg # of iterations =  7.1

     negative rho (up, down):  4.398E-04 0.000E+00

     total cpu time spent up to now is       65.0 secs

     total energy              =   -1361.94510384 Ry
     estimated scf accuracy    <       0.00042532 Ry

     iteration # 22     ecut=    80.00 Ry     beta= 0.20
     Davidson diagonalization with overlap

---- Real-time Memory Report at c_bands before calling an iterative solver
           281 MiB given to the printing process from OS
             0 MiB allocation reported by mallinfo(arena+hblkhd)
        368337 MiB available memory on the node where the printing process lives
------------------
     ethr =  3.32E-07,  avg # of iterations =  6.0

     negative rho (up, down):  4.496E-04 0.000E+00

     total cpu time spent up to now is       67.6 secs

     total energy              =   -1361.94518087 Ry
     estimated scf accuracy    <       0.00028249 Ry

     iteration # 23     ecut=    80.00 Ry     beta= 0.20
     Davidson diagonalization with overlap

---- Real-time Memory Report at c_bands before calling an iterative solver
           281 MiB given to the printing process from OS
             0 MiB allocation reported by mallinfo(arena+hblkhd)
        368337 MiB available memory on the node where the printing process lives
------------------
     ethr =  3.21E-07,  avg # of iterations =  2.0

     negative rho (up, down):  4.405E-04 0.000E+00

     total cpu time spent up to now is       69.5 secs

     total energy              =   -1361.94507145 Ry
     estimated scf accuracy    <       0.00022109 Ry

     iteration # 24     ecut=    80.00 Ry     beta= 0.20
     Davidson diagonalization with overlap

---- Real-time Memory Report at c_bands before calling an iterative solver
           281 MiB given to the printing process from OS
             0 MiB allocation reported by mallinfo(arena+hblkhd)
        368338 MiB available memory on the node where the printing process lives
------------------
     ethr =  2.51E-07,  avg # of iterations =  8.8

     negative rho (up, down):  4.293E-04 0.000E+00

     total cpu time spent up to now is       73.2 secs

     total energy              =   -1361.94522909 Ry
     estimated scf accuracy    <       0.00032264 Ry

     iteration # 25     ecut=    80.00 Ry     beta= 0.20
     Davidson diagonalization with overlap

---- Real-time Memory Report at c_bands before calling an iterative solver
           281 MiB given to the printing process from OS
             0 MiB allocation reported by mallinfo(arena+hblkhd)
        368339 MiB available memory on the node where the printing process lives
------------------
     ethr =  2.51E-07,  avg # of iterations =  3.8

     negative rho (up, down):  4.299E-04 0.000E+00

     total cpu time spent up to now is       75.5 secs

     total energy              =   -1361.94512499 Ry
     estimated scf accuracy    <       0.00039398 Ry

     iteration # 26     ecut=    80.00 Ry     beta= 0.20
     Davidson diagonalization with overlap

---- Real-time Memory Report at c_bands before calling an iterative solver
           281 MiB given to the printing process from OS
             0 MiB allocation reported by mallinfo(arena+hblkhd)
        368340 MiB available memory on the node where the printing process lives
------------------
     ethr =  2.51E-07,  avg # of iterations =  2.8

     negative rho (up, down):  4.285E-04 0.000E+00

     total cpu time spent up to now is       77.7 secs

     total energy              =   -1361.94513924 Ry
     estimated scf accuracy    <       0.00010527 Ry

     iteration # 27     ecut=    80.00 Ry     beta= 0.20
     Davidson diagonalization with overlap

---- Real-time Memory Report at c_bands before calling an iterative solver
           281 MiB given to the printing process from OS
             0 MiB allocation reported by mallinfo(arena+hblkhd)
        368340 MiB available memory on the node where the printing process lives
------------------
     ethr =  1.20E-07,  avg # of iterations =  7.5

     negative rho (up, down):  4.295E-04 0.000E+00

     total cpu time spent up to now is       80.6 secs

     total energy              =   -1361.94517570 Ry
     estimated scf accuracy    <       0.00000949 Ry

     iteration # 28     ecut=    80.00 Ry     beta= 0.20
     Davidson diagonalization with overlap

---- Real-time Memory Report at c_bands before calling an iterative solver
           281 MiB given to the printing process from OS
             0 MiB allocation reported by mallinfo(arena+hblkhd)
        368338 MiB available memory on the node where the printing process lives
------------------
     c_bands:  3 eigenvalues not converged
     ethr =  1.08E-08,  avg # of iterations = 17.4

     negative rho (up, down):  4.299E-04 0.000E+00

     total cpu time spent up to now is       88.0 secs

     total energy              =   -1361.94520464 Ry
     estimated scf accuracy    <       0.00001058 Ry

     iteration # 29     ecut=    80.00 Ry     beta= 0.20
     Davidson diagonalization with overlap

---- Real-time Memory Report at c_bands before calling an iterative solver
           281 MiB given to the printing process from OS
             0 MiB allocation reported by mallinfo(arena+hblkhd)
        368340 MiB available memory on the node where the printing process lives
------------------
     ethr =  1.08E-08,  avg # of iterations =  3.7

     negative rho (up, down):  4.306E-04 0.000E+00

     total cpu time spent up to now is       90.3 secs

     total energy              =   -1361.94520549 Ry
     estimated scf accuracy    <       0.00000639 Ry

     iteration # 30     ecut=    80.00 Ry     beta= 0.20
     Davidson diagonalization with overlap

---- Real-time Memory Report at c_bands before calling an iterative solver
           281 MiB given to the printing process from OS
             0 MiB allocation reported by mallinfo(arena+hblkhd)
        368340 MiB available memory on the node where the printing process lives
------------------
     ethr =  7.26E-09,  avg # of iterations =  6.1

     negative rho (up, down):  4.299E-04 0.000E+00

     total cpu time spent up to now is       93.4 secs

     total energy              =   -1361.94520468 Ry
     estimated scf accuracy    <       0.00000943 Ry

     iteration # 31     ecut=    80.00 Ry     beta= 0.20
     Davidson diagonalization with overlap

---- Real-time Memory Report at c_bands before calling an iterative solver
           281 MiB given to the printing process from OS
             0 MiB allocation reported by mallinfo(arena+hblkhd)
        368341 MiB available memory on the node where the printing process lives
------------------
     ethr =  7.26E-09,  avg # of iterations =  5.0

     negative rho (up, down):  4.294E-04 0.000E+00

     total cpu time spent up to now is       96.3 secs

     total energy              =   -1361.94520717 Ry
     estimated scf accuracy    <       0.00000129 Ry

     iteration # 32     ecut=    80.00 Ry     beta= 0.20
     Davidson diagonalization with overlap

---- Real-time Memory Report at c_bands before calling an iterative solver
           281 MiB given to the printing process from OS
             0 MiB allocation reported by mallinfo(arena+hblkhd)
        368342 MiB available memory on the node where the printing process lives
------------------
     ethr =  1.47E-09,  avg # of iterations = 12.4

     negative rho (up, down):  4.288E-04 0.000E+00

     total cpu time spent up to now is      100.7 secs

     total energy              =   -1361.94520845 Ry
     estimated scf accuracy    <       0.00000088 Ry

     iteration # 33     ecut=    80.00 Ry     beta= 0.20
     Davidson diagonalization with overlap

---- Real-time Memory Report at c_bands before calling an iterative solver
           281 MiB given to the printing process from OS
             0 MiB allocation reported by mallinfo(arena+hblkhd)
        368342 MiB available memory on the node where the printing process lives
------------------
     ethr =  9.98E-10,  avg # of iterations =  4.7

     negative rho (up, down):  4.265E-04 0.000E+00

     total cpu time spent up to now is      103.1 secs

     total energy              =   -1361.94520826 Ry
     estimated scf accuracy    <       0.00000069 Ry

     iteration # 34     ecut=    80.00 Ry     beta= 0.20
     Davidson diagonalization with overlap

---- Real-time Memory Report at c_bands before calling an iterative solver
           281 MiB given to the printing process from OS
             0 MiB allocation reported by mallinfo(arena+hblkhd)
        368342 MiB available memory on the node where the printing process lives
------------------
     ethr =  7.86E-10,  avg # of iterations = 10.2

     negative rho (up, down):  4.266E-04 0.000E+00

     total cpu time spent up to now is      106.9 secs

     total energy              =   -1361.94520879 Ry
     estimated scf accuracy    <       0.00000032 Ry

     iteration # 35     ecut=    80.00 Ry     beta= 0.20
     Davidson diagonalization with overlap

---- Real-time Memory Report at c_bands before calling an iterative solver
           281 MiB given to the printing process from OS
             0 MiB allocation reported by mallinfo(arena+hblkhd)
        368342 MiB available memory on the node where the printing process lives
------------------
     ethr =  3.59E-10,  avg # of iterations =  9.4

     negative rho (up, down):  4.270E-04 0.000E+00

     total cpu time spent up to now is      110.3 secs

     total energy              =   -1361.94520878 Ry
     estimated scf accuracy    <       0.00000028 Ry

     iteration # 36     ecut=    80.00 Ry     beta= 0.20
     Davidson diagonalization with overlap

---- Real-time Memory Report at c_bands before calling an iterative solver
           281 MiB given to the printing process from OS
             0 MiB allocation reported by mallinfo(arena+hblkhd)
        368329 MiB available memory on the node where the printing process lives
------------------
     ethr =  3.20E-10,  avg # of iterations =  8.7

     negative rho (up, down):  4.263E-04 0.000E+00

     total cpu time spent up to now is      113.6 secs

     total energy              =   -1361.94520894 Ry
     estimated scf accuracy    <       0.00000008 Ry

     iteration # 37     ecut=    80.00 Ry     beta= 0.20
     Davidson diagonalization with overlap

---- Real-time Memory Report at c_bands before calling an iterative solver
           281 MiB given to the printing process from OS
             0 MiB allocation reported by mallinfo(arena+hblkhd)
        368329 MiB available memory on the node where the printing process lives
------------------
     ethr =  8.68E-11,  avg # of iterations =  9.8

     negative rho (up, down):  4.262E-04 0.000E+00

     total cpu time spent up to now is      118.1 secs

     total energy              =   -1361.94520898 Ry
     estimated scf accuracy    <       0.00000017 Ry

     iteration # 38     ecut=    80.00 Ry     beta= 0.20
     Davidson diagonalization with overlap

---- Real-time Memory Report at c_bands before calling an iterative solver
           281 MiB given to the printing process from OS
             0 MiB allocation reported by mallinfo(arena+hblkhd)
        368329 MiB available memory on the node where the printing process lives
------------------
     ethr =  8.68E-11,  avg # of iterations =  4.0

     negative rho (up, down):  4.262E-04 0.000E+00

     total cpu time spent up to now is      120.6 secs

     total energy              =   -1361.94520898 Ry
     estimated scf accuracy    <       0.00000005 Ry

     iteration # 39     ecut=    80.00 Ry     beta= 0.20
     Davidson diagonalization with overlap

---- Real-time Memory Report at c_bands before calling an iterative solver
           281 MiB given to the printing process from OS
             0 MiB allocation reported by mallinfo(arena+hblkhd)
        368329 MiB available memory on the node where the printing process lives
------------------
     ethr =  5.26E-11,  avg # of iterations = 10.0

     negative rho (up, down):  4.262E-04 0.000E+00

     total cpu time spent up to now is      124.7 secs

     total energy              =   -1361.94520901 Ry
     estimated scf accuracy    <       0.00000007 Ry

     iteration # 40     ecut=    80.00 Ry     beta= 0.20
     Davidson diagonalization with overlap

---- Real-time Memory Report at c_bands before calling an iterative solver
           281 MiB given to the printing process from OS
             0 MiB allocation reported by mallinfo(arena+hblkhd)
        368333 MiB available memory on the node where the printing process lives
------------------
     ethr =  5.26E-11,  avg # of iterations =  6.1

     negative rho (up, down):  4.262E-04 0.000E+00

     total cpu time spent up to now is      127.6 secs

     End of self-consistent calculation

          k = 0.0000 0.0000 0.0000 ( 45065 PWs)   bands (ev):

   -24.6359 -24.6180 -23.7831 -23.7674 -23.7081 -23.6947 -20.3175 -20.3114
   -20.2522 -20.2453 -20.2082 -20.1962 -20.1892 -20.1854 -20.1852 -20.1785
   -20.1612 -20.1594 -20.1288 -20.1236 -20.0462 -20.0428 -19.7001 -19.6948
   -19.6583 -19.6488 -12.6949 -12.6788 -10.4919 -10.4049  -9.5218  -9.4985
    -8.9579  -8.9401  -8.4113  -8.3143  -8.2609  -8.2331  -8.1324  -8.1120
    -7.9411  -7.9262  -7.6790  -7.4136

     occupation numbers 
     1.0000   1.0000   1.0000   1.0000   1.0000   1.0000   1.0000   1.0000
     1.0000   1.0000   1.0000   1.0000   1.0000   1.0000   1.0000   1.0000
     1.0000   1.0000   1.0000   1.0000   1.0000   1.0000   1.0000   1.0000
     1.0000   1.0000   1.0000   1.0000   1.0000   1.0000   1.0000   1.0000
     1.0000   1.0000   1.0000   1.0000   1.0000   1.0000   1.0000   1.0000
     1.0000   1.0000   1.0000   1.0000

          k =-0.0062 0.1431 0.0000 ( 45113 PWs)   bands (ev):

   -24.5627 -24.5439 -23.9562 -23.9437 -23.6180 -23.6004 -20.2984 -20.2917
   -20.2520 -20.2450 -20.2184 -20.2115 -20.2066 -20.1994 -20.1806 -20.1761
   -20.1405 -20.1363 -20.1193 -20.1148 -20.0378 -20.0342 -19.7614 -19.7565
   -19.6566 -19.6465 -12.3369 -12.3206 -10.5695 -10.4977  -9.8936  -9.8443
    -9.1903  -9.1768  -8.5418  -8.5161  -8.2326  -8.1710  -7.9200  -7.8868
    -7.8508  -7.8059  -7.6736  -7.4364

     occupation numbers 
     1.0000   1.0000   1.0000   1.0000   1.0000   1.0000   1.0000   1.0000
     1.0000   1.0000   1.0000   1.0000   1.0000   1.0000   1.0000   1.0000
     1.0000   1.0000   1.0000   1.0000   1.0000   1.0000   1.0000   1.0000
     1.0000   1.0000   1.0000   1.0000   1.0000   1.0000   1.0000   1.0000
     1.0000   1.0000   1.0000   1.0000   1.0000   1.0000   1.0000   1.0000
     1.0000   1.0000   1.0000   1.0000

          k = 0.0124-0.2862 0.0000 ( 45174 PWs)   bands (ev):

   -24.4528 -24.4307 -24.1121 -24.1035 -23.5811 -23.5624 -20.2822 -20.2746
   -20.2493 -20.2423 -20.2284 -20.2229 -20.2122 -20.2061 -20.1810 -20.1762
   -20.1210 -20.1157 -20.1048 -20.1005 -20.0290 -20.0252 -19.8352 -19.8303
   -19.6526 -19.6427 -11.7640 -11.7476 -10.7725 -10.7300 -10.3976 -10.3925
    -9.2514  -9.2255  -8.6956  -8.6567  -8.1626  -8.1551  -7.8760  -7.8496
    -7.7486  -7.5812  -7.5603  -7.4538

     occupation numbers 
     1.0000   1.0000   1.0000   1.0000   1.0000   1.0000   1.0000   1.0000
     1.0000   1.0000   1.0000   1.0000   1.0000   1.0000   1.0000   1.0000
     1.0000   1.0000   1.0000   1.0000   1.0000   1.0000   1.0000   1.0000
     1.0000   1.0000   1.0000   1.0000   1.0000   1.0000   1.0000   1.0000
     1.0000   1.0000   1.0000   1.0000   1.0000   1.0000   1.0000   1.0000
     1.0000   1.0000   1.0000   1.0000

          k = 0.1684-0.0368 0.0000 ( 45086 PWs)   bands (ev):

   -24.5069 -24.4906 -23.7953 -23.7821 -23.6922 -23.6786 -20.3118 -20.3062
   -20.2475 -20.2402 -20.2241 -20.2149 -20.1938 -20.1902 -20.1674 -20.1618
   -20.1309 -20.1229 -20.1138 -20.1127 -20.0424 -20.0387 -19.6437 -19.6390
   -19.6140 -19.6054 -12.5503 -12.5313 -10.6974 -10.6778 -10.2241 -10.1867
    -9.3155  -9.2772  -8.6925  -8.6276  -8.3764  -8.3442  -8.1464  -8.1072
    -8.0291  -8.0210  -7.5357  -7.3599

     occupation numbers 
     1.0000   1.0000   1.0000   1.0000   1.0000   1.0000   1.0000   1.0000
     1.0000   1.0000   1.0000   1.0000   1.0000   1.0000   1.0000   1.0000
     1.0000   1.0000   1.0000   1.0000   1.0000   1.0000   1.0000   1.0000
     1.0000   1.0000   1.0000   1.0000   1.0000   1.0000   1.0000   1.0000
     1.0000   1.0000   1.0000   1.0000   1.0000   1.0000   1.0000   1.0000
     1.0000   1.0000   1.0000   1.0000

          k = 0.1622 0.1063 0.0000 ( 45049 PWs)   bands (ev):

   -24.4816 -24.4650 -23.8563 -23.8445 -23.6590 -23.6440 -20.3082 -20.3000
   -20.2428 -20.2370 -20.2220 -20.2157 -20.1907 -20.1877 -20.1761 -20.1680
   -20.1309 -20.1240 -20.1117 -20.1089 -20.0318 -20.0284 -19.7135 -19.7074
   -19.5729 -19.5654 -12.4290 -12.4101 -10.7480 -10.7255 -10.2059 -10.1703
    -9.4508  -9.3828  -8.7837  -8.7128  -8.4269  -8.4074  -8.0787  -8.0176
    -7.9682  -7.9413  -7.5389  -7.3646

     occupation numbers 
     1.0000   1.0000   1.0000   1.0000   1.0000   1.0000   1.0000   1.0000
     1.0000   1.0000   1.0000   1.0000   1.0000   1.0000   1.0000   1.0000
     1.0000   1.0000   1.0000   1.0000   1.0000   1.0000   1.0000   1.0000
     1.0000   1.0000   1.0000   1.0000   1.0000   1.0000   1.0000   1.0000
     1.0000   1.0000   1.0000   1.0000   1.0000   1.0000   1.0000   1.0000
     1.0000   1.0000   1.0000   1.0000

          k = 0.1808-0.3231 0.0000 ( 45092 PWs)   bands (ev):

   -24.3673 -24.3482 -24.0238 -24.0153 -23.6155 -23.5994 -20.2893 -20.2809
   -20.2433 -20.2353 -20.2289 -20.2256 -20.1913 -20.1863 -20.1632 -20.1573
   -20.1237 -20.1156 -20.1048 -20.1031 -19.9987 -19.9943 -19.8340 -19.8289
   -19.5552 -19.5465 -11.8550 -11.8436 -11.0561 -11.0224 -10.2741 -10.2601
    -9.7122  -9.6628  -9.0542  -9.0262  -8.3775  -8.3082  -8.1684  -8.1028
    -7.6282  -7.6099  -7.5453  -7.3733

     occupation numbers 
     1.0000   1.0000   1.0000   1.0000   1.0000   1.0000   1.0000   1.0000
     1.0000   1.0000   1.0000   1.0000   1.0000   1.0000   1.0000   1.0000
     1.0000   1.0000   1.0000   1.0000   1.0000   1.0000   1.0000   1.0000
     1.0000   1.0000   1.0000   1.0000   1.0000   1.0000   1.0000   1.0000
     1.0000   1.0000   1.0000   1.0000   1.0000   1.0000   1.0000   1.0000
     1.0000   1.0000   1.0000   1.0000

          k = 0.1746-0.1799 0.0000 ( 45085 PWs)   bands (ev):

   -24.4096 -24.3918 -23.9676 -23.9574 -23.6271 -23.6113 -20.2903 -20.2851
   -20.2455 -20.2379 -20.2330 -20.2252 -20.1936 -20.1880 -20.1628 -20.1574
   -20.1242 -20.1180 -20.1050 -20.1030 -20.0203 -20.0157 -19.7786 -19.7742
   -19.5683 -19.5594 -12.0747 -12.0587 -10.9254 -10.8982 -10.2517 -10.2301
    -9.6505  -9.5840  -8.9578  -8.9202  -8.3857  -8.3229  -8.1457  -8.0897
    -7.7312  -7.7085  -7.5412  -7.3698

     occupation numbers 
     1.0000   1.0000   1.0000   1.0000   1.0000   1.0000   1.0000   1.0000
     1.0000   1.0000   1.0000   1.0000   1.0000   1.0000   1.0000   1.0000
     1.0000   1.0000   1.0000   1.0000   1.0000   1.0000   1.0000   1.0000
     1.0000   1.0000   1.0000   1.0000   1.0000   1.0000   1.0000   1.0000
     1.0000   1.0000   1.0000   1.0000   1.0000   1.0000   1.0000   1.0000
     1.0000   1.0000   1.0000   1.0000

          k = 0.3368-0.0737 0.0000 ( 45074 PWs)   bands (ev):

   -24.2029 -24.1918 -23.7960 -23.7859 -23.7199 -23.7117 -20.2788 -20.2744
   -20.2437 -20.2328 -20.2249 -20.2210 -20.2102 -20.2036 -20.1269 -20.1210
   -20.0970 -20.0936 -20.0837 -20.0782 -19.9968 -19.9931 -19.6548 -19.6505
   -19.4349 -19.4277 -12.4793 -12.4662 -11.6875 -11.6411 -10.7412 -10.6852
    -9.6489  -9.6327  -8.9892  -8.9626  -8.7210  -8.6575  -8.1954  -8.1091
    -7.8677  -7.8480  -7.5587  -7.5312

     occupation numbers 
     1.0000   1.0000   1.0000   1.0000   1.0000   1.0000   1.0000   1.0000
     1.0000   1.0000   1.0000   1.0000   1.0000   1.0000   1.0000   1.0000
     1.0000   1.0000   1.0000   1.0000   1.0000   1.0000   1.0000   1.0000
     1.0000   1.0000   1.0000   1.0000   1.0000   1.0000   1.0000   1.0000
     1.0000   1.0000   1.0000   1.0000   1.0000   1.0000   1.0000   1.0000
     1.0000   1.0000   1.0000   1.0000

          k = 0.3306 0.0695 0.0000 ( 45046 PWs)   bands (ev):

   -24.2145 -24.2034 -23.7915 -23.7825 -23.7117 -23.7013 -20.2884 -20.2803
   -20.2449 -20.2343 -20.2213 -20.2188 -20.1992 -20.1971 -20.1293 -20.1241
   -20.1064 -20.0953 -20.0799 -20.0791 -20.0035 -19.9994 -19.6303 -19.6240
   -19.4461 -19.4407 -12.5295 -12.5194 -11.6438 -11.5966 -10.7640 -10.7084
    -9.6835  -9.6731  -8.9514  -8.9186  -8.5778  -8.5333  -8.2843  -8.1694
    -7.8979  -7.8720  -7.5564  -7.5321

     occupation numbers 
     1.0000   1.0000   1.0000   1.0000   1.0000   1.0000   1.0000   1.0000
     1.0000   1.0000   1.0000   1.0000   1.0000   1.0000   1.0000   1.0000
     1.0000   1.0000   1.0000   1.0000   1.0000   1.0000   1.0000   1.0000
     1.0000   1.0000   1.0000   1.0000   1.0000   1.0000   1.0000   1.0000
     1.0000   1.0000   1.0000   1.0000   1.0000   1.0000   1.0000   1.0000
     1.0000   1.0000   1.0000   1.0000

          k = 0.3492-0.3599 0.0000 ( 45085 PWs)   bands (ev):

   -24.1480 -24.1360 -23.8651 -23.8585 -23.7070 -23.6967 -20.2735 -20.2635
   -20.2443 -20.2347 -20.2193 -20.2160 -20.1929 -20.1926 -20.1274 -20.1222
   -20.1055 -20.0950 -20.0767 -20.0757 -19.9564 -19.9512 -19.7831 -19.7776
   -19.3950 -19.3891 -12.2849 -12.2602 -11.8444 -11.8053 -10.4719 -10.4278
    -9.8287  -9.8095  -9.1065  -9.0882  -8.7867  -8.7745  -8.2761  -8.1563
    -7.7244  -7.6985  -7.5661  -7.5340

     occupation numbers 
     1.0000   1.0000   1.0000   1.0000   1.0000   1.0000   1.0000   1.0000
     1.0000   1.0000   1.0000   1.0000   1.0000   1.0000   1.0000   1.0000
     1.0000   1.0000   1.0000   1.0000   1.0000   1.0000   1.0000   1.0000
     1.0000   1.0000   1.0000   1.0000   1.0000   1.0000   1.0000   1.0000
     1.0000   1.0000   1.0000   1.0000   1.0000   1.0000   1.0000   1.0000
     1.0000   1.0000   1.0000   1.0000

          k = 0.3430-0.2168 0.0000 ( 45092 PWs)   bands (ev):

   -24.1301 -24.1182 -23.8797 -23.8715 -23.7123 -23.7028 -20.2640 -20.2571
   -20.2387 -20.2307 -20.2242 -20.2192 -20.2101 -20.2048 -20.1261 -20.1201
   -20.0930 -20.0891 -20.0766 -20.0720 -19.9374 -19.9319 -19.8163 -19.8127
   -19.3898 -19.3830 -12.1924 -12.1626 -11.9206 -11.8880 -10.3749 -10.3404
    -9.9309  -9.9101  -9.1780  -9.1624  -8.7110  -8.6937  -8.3292  -8.2074
    -7.6663  -7.6418  -7.5875  -7.5529

     occupation numbers 
     1.0000   1.0000   1.0000   1.0000   1.0000   1.0000   1.0000   1.0000
     1.0000   1.0000   1.0000   1.0000   1.0000   1.0000   1.0000   1.0000
     1.0000   1.0000   1.0000   1.0000   1.0000   1.0000   1.0000   1.0000
     1.0000   1.0000   1.0000   1.0000   1.0000   1.0000   1.0000   1.0000
     1.0000   1.0000   1.0000   1.0000   1.0000   1.0000   1.0000   1.0000
     1.0000   1.0000   1.0000   1.0000

          k =-0.5052 0.1105 0.0000 ( 45134 PWs)   bands (ev):

   -23.9408 -23.9365 -23.8804 -23.8643 -23.7563 -23.7518 -20.2689 -20.2610
   -20.2395 -20.2367 -20.2335 -20.2287 -20.1991 -20.1888 -20.1198 -20.1122
   -20.0801 -20.0762 -20.0544 -20.0415 -19.9186 -19.9168 -19.7246 -19.7212
   -19.3349 -19.3281 -12.5920 -12.5638 -12.2638 -12.2292 -10.5853 -10.5443
    -9.9039  -9.8924  -9.1258  -9.0866  -8.5592  -8.5472  -8.2286  -8.1486
    -7.9896  -7.8862  -7.6358  -7.6148

     occupation numbers 
     1.0000   1.0000   1.0000   1.0000   1.0000   1.0000   1.0000   1.0000
     1.0000   1.0000   1.0000   1.0000   1.0000   1.0000   1.0000   1.0000
     1.0000   1.0000   1.0000   1.0000   1.0000   1.0000   1.0000   1.0000
     1.0000   1.0000   1.0000   1.0000   1.0000   1.0000   1.0000   1.0000
     1.0000   1.0000   1.0000   1.0000   1.0000   1.0000   1.0000   1.0000
     1.0000   1.0000   1.0000   1.0000

          k =-0.5114 0.2536 0.0000 ( 45094 PWs)   bands (ev):

   -23.9324 -23.9307 -23.8883 -23.8777 -23.7531 -23.7462 -20.2669 -20.2579
   -20.2461 -20.2372 -20.2351 -20.2322 -20.1875 -20.1841 -20.1251 -20.1192
   -20.0792 -20.0747 -20.0395 -20.0342 -19.9295 -19.9247 -19.7280 -19.7241
   -19.3359 -19.3301 -12.5982 -12.5694 -12.2605 -12.2249 -10.4449 -10.4145
   -10.1355 -10.1205  -8.8577  -8.8341  -8.6925  -8.6751  -8.1711  -8.1014
    -8.0837  -7.9812  -7.6199  -7.6023

     occupation numbers 
     1.0000   1.0000   1.0000   1.0000   1.0000   1.0000   1.0000   1.0000
     1.0000   1.0000   1.0000   1.0000   1.0000   1.0000   1.0000   1.0000
     1.0000   1.0000   1.0000   1.0000   1.0000   1.0000   1.0000   1.0000
     1.0000   1.0000   1.0000   1.0000   1.0000   1.0000   1.0000   1.0000
     1.0000   1.0000   1.0000   1.0000   1.0000   1.0000   1.0000   1.0000
     1.0000   1.0000   1.0000   1.0000

          k =-0.4929-0.1758 0.0000 ( 45008 PWs)   bands (ev):

   -23.9220 -23.9157 -23.8995 -23.8984 -23.7501 -23.7412 -20.2712 -20.2615
   -20.2513 -20.2405 -20.2331 -20.2301 -20.1686 -20.1671 -20.1129 -20.1110
   -20.1004 -20.0869 -20.0364 -20.0351 -19.9403 -19.9316 -19.7273 -19.7227
   -19.3372 -19.3326 -12.6026 -12.5734 -12.2559 -12.2208 -10.5500 -10.5080
    -9.9317  -9.9210  -9.0368  -9.0013  -8.6114  -8.6005  -8.2178  -8.1420
    -8.0606  -7.9452  -7.6131  -7.5903

     occupation numbers 
     1.0000   1.0000   1.0000   1.0000   1.0000   1.0000   1.0000   1.0000
     1.0000   1.0000   1.0000   1.0000   1.0000   1.0000   1.0000   1.0000
     1.0000   1.0000   1.0000   1.0000   1.0000   1.0000   1.0000   1.0000
     1.0000   1.0000   1.0000   1.0000   1.0000   1.0000   1.0000   1.0000
     1.0000   1.0000   1.0000   1.0000   1.0000   1.0000   1.0000   1.0000
     1.0000   1.0000   1.0000   1.0000

     highest occupied level (ev):    -7.3599

!    total energy              =   -1361.94520903 Ry
     estimated scf accuracy    <          1.8E-09 Ry

     convergence has been achieved in  40 iterations

     negative rho (up, down):  4.262E-04 0.000E+00

     Forces acting on atoms (cartesian axes, Ry/au):

     atom    1 type  1   force =    -0.02097309   -0.02344904   -0.00400283
     atom    2 type  1   force =    -0.02166365    0.01923595    0.00448291
     atom    3 type  2   force =    -0.00535393    0.01681804   -0.04556688
     atom    4 type  2   force =     0.05137198    0.00544325    0.00113363
     atom    5 type  2   force =    -0.00332497   -0.01899737    0.04318650
     atom    6 type  1   force =    -0.02094625   -0.02229800   -0.00454978
     atom    7 type  1   force =    -0.02177728    0.02062569    0.00375954
     atom    8 type  2   force =    -0.00550056    0.01694414   -0.04314141
     atom    9 type  2   force =     0.05140920    0.00467426   -0.00096996
     atom   10 type  2   force =    -0.00324144   -0.01899692    0.04566828
     The non-local contrib.  to forces
     atom    1 type  1   force =     0.21815728    0.13592128    0.03692694
     atom    2 type  1   force =     0.20647239   -0.09219871   -0.04384161
     atom    3 type  2   force =    -0.14529197    0.41708033   -1.12138707
     atom    4 type  2   force =     1.10681166    0.10904732    0.01236108
     atom    5 type  2   force =    -0.08432072   -0.45521534    1.09896199
     atom    6 type  1   force =     0.21898496    0.13225644    0.04145113
     atom    7 type  1   force =     0.20599040   -0.09694186   -0.03892081
     atom    8 type  2   force =    -0.14542423    0.42151514   -1.09821030
     atom    9 type  2   force =     1.10702726    0.10359101   -0.00319157
     atom   10 type  2   force =    -0.08475880   -0.45143021    1.12301219
     The ionic contribution  to forces
     atom    1 type  1   force =     1.78993657   10.87595967  -86.76240110
     atom    2 type  1   force =     2.47744361  -10.19078468 -131.49895067
     atom    3 type  2   force =     0.44360904   -1.68898959  -14.36612666
     atom    4 type  2   force =    -4.93504109   -0.23846787  -50.53229927
     atom    5 type  2   force =     0.18385889    2.18536913  -86.67956699
     atom    6 type  1   force =     1.80576464   10.42374678  131.64320141
     atom    7 type  1   force =     2.50039158  -10.65147926   86.90621852
     atom    8 type  2   force =     0.47145907   -2.29650849   86.82349273
     atom    9 type  2   force =    -4.94575940    0.01087455   49.96359437
     atom   10 type  2   force =     0.20833709    1.57027975   14.50283766
     The local contribution  to forces
     atom    1 type  1   force =    -2.02836476  -11.03621101   86.72144542
     atom    2 type  1   force =    -2.70524236   10.30362104  131.54706902
     atom    3 type  2   force =    -0.30509518    1.29261456   15.43232480
     atom    4 type  2   force =     3.88998621    0.13592393   50.52117144
     atom    5 type  2   force =    -0.10372163   -1.75343828   85.63318114
     atom    6 type  1   force =    -2.04498600  -10.57915485 -131.68924966
     atom    7 type  1   force =    -2.72784819   10.77042738  -86.86365676
     atom    8 type  2   force =    -0.33296730    1.89587135  -85.77782884
     atom    9 type  2   force =     3.90053049   -0.10879016  -49.96144805
     atom   10 type  2   force =    -0.12767833   -1.14208732  -15.57057256
     The core correction contribution to forces
     atom    1 type  1   force =    -0.00071599    0.00090593    0.00003585
     atom    2 type  1   force =    -0.00037984   -0.00137736    0.00018949
     atom    3 type  2   force =     0.00143994   -0.00389717    0.00963191
     atom    4 type  2   force =    -0.01037442   -0.00106739   -0.00009995
     atom    5 type  2   force =     0.00086891    0.00427438   -0.00940092
     atom    6 type  1   force =    -0.00074371    0.00088665   -0.00002823
     atom    7 type  1   force =    -0.00035000   -0.00138963    0.00012264
     atom    8 type  2   force =     0.00144101   -0.00394140    0.00939143
     atom    9 type  2   force =    -0.01037627   -0.00101186    0.00005359
     atom   10 type  2   force =     0.00087339    0.00423641   -0.00964971
     The Hubbard contrib.    to forces
     atom    1 type  1   force =     0.00000000    0.00000000    0.00000000
     atom    2 type  1   force =     0.00000000    0.00000000    0.00000000
     atom    3 type  2   force =     0.00000000    0.00000000    0.00000000
     atom    4 type  2   force =     0.00000000    0.00000000    0.00000000
     atom    5 type  2   force =     0.00000000    0.00000000    0.00000000
     atom    6 type  1   force =     0.00000000    0.00000000    0.00000000
     atom    7 type  1   force =     0.00000000    0.00000000    0.00000000
     atom    8 type  2   force =     0.00000000    0.00000000    0.00000000
     atom    9 type  2   force =     0.00000000    0.00000000    0.00000000
     atom   10 type  2   force =     0.00000000    0.00000000    0.00000000
     The SCF correction term to forces
     atom    1 type  1   force =     0.00002747   -0.00003490   -0.00001558
     atom    2 type  1   force =     0.00005622   -0.00003433    0.00001104
     atom    3 type  2   force =    -0.00000211   -0.00000007   -0.00001550
     atom    4 type  2   force =     0.00000328   -0.00000272   -0.00000531
     atom    5 type  2   force =     0.00000324    0.00000276    0.00000565
     atom    6 type  1   force =     0.00004752   -0.00004299    0.00006992
     atom    7 type  1   force =     0.00005260   -0.00000092   -0.00000968
     atom    8 type  2   force =     0.00000454   -0.00000245    0.00000793
     atom    9 type  2   force =     0.00000078    0.00000073    0.00001606
     atom   10 type  2   force =    -0.00000112   -0.00000554    0.00003506

     Total force =     0.135395     Total SCF correction =     0.000143


     Computing stress (Cartesian axis) and pressure


     negative rho (up, down):  4.262E-04 0.000E+00
          total   stress  (Ry/bohr**3)                   (kbar)     P=      -33.67
  -0.00027603   0.00000360  -0.00000257          -40.60        0.53       -0.38
   0.00000360  -0.00030981   0.00002527            0.53      -45.58        3.72
  -0.00000257   0.00002527  -0.00010084           -0.38        3.72      -14.83

     kinetic stress (kbar)   4654.60      1.07     -1.14
                                1.07   4653.58      1.45
                               -1.14      1.45   4732.36

     local   stress (kbar)-496322.94    -57.43    -27.76
                              -57.43-492377.99   -476.39
                              -27.76   -476.39 493533.43

     nonloc. stress (kbar)      4.51      2.40     -1.48
                                2.40     -4.78     13.15
                               -1.48     13.15     87.21

     hartree stress (kbar) 250261.05     38.75      7.42
                               38.75 248399.68    235.36
                                7.42    235.36-240904.18

     exc-cor stress (kbar)    605.18     -0.15      0.10
                               -0.15    605.52     -0.89
                                0.10     -0.89    596.99

     corecor stress (kbar)  -2383.80      0.02     -0.00
                                0.02  -2383.85      0.08
                               -0.00      0.08  -2383.69

     ewald   stress (kbar) 243140.80     15.87     22.49
                               15.87 241062.26    230.97
                               22.49    230.97-255676.94

     hubbard stress (kbar)      0.00      0.00      0.00
                                0.00      0.00      0.00
                                0.00      0.00      0.00

     DFT-D   stress (kbar)      0.00      0.00      0.00
                                0.00      0.00      0.00
                                0.00      0.00      0.00

     XDM     stress (kbar)      0.00      0.00      0.00
                                0.00      0.00      0.00
                                0.00      0.00      0.00

     dft-nl  stress (kbar)      0.00      0.00      0.00
                                0.00      0.00      0.00
                                0.00      0.00      0.00

     TS-vdW  stress (kbar)      0.00      0.00      0.00
                                0.00      0.00      0.00
                                0.00      0.00      0.00


                                0.00      0.00      0.00
                                0.00      0.00      0.00


                                0.00      0.00      0.00


     Molecular Dynamics Calculation

     Starting temperature  =   300.00 K

     temperature is controlled by stochastic velocity rescaling
     Characteristic time   =200*timestep
     mass Ga               =    69.72
     mass O                =    16.00
     Time step             =    20.00 a.u.,  0.9676 femto-seconds

     Entering Dynamics:    iteration =     1
                           time      =   0.0010 pico-seconds


     Canonical sampling velocity rescaling

ATOMIC_POSITIONS (crystal)
Ga            0.8287632579        0.7192366454        0.4264515773
Ga            0.5181929521        0.3023271958        0.4003184007
O             0.3902273636        0.5623889202        0.4500749154
O             0.4246032104        0.0065461073        0.4133906639
O             0.9394666320        0.4557528576        0.3770381379
Ga            0.8278040187        0.7196349672        0.5995254266
Ga            0.5188262489        0.3023042463        0.5734626631
O             0.3880796059        0.5635878461        0.6229203516
O             0.4272661498        0.0051985534        0.5862521562
O             0.9379598581        0.4563465346        0.5501767744


     kinetic energy (Ekin) =           0.02435523 Ry
     temperature           =         284.84342095 K 
     Ekin + Etot (const)   =       -1361.92085380 Ry
     Ions kinetic stress =            0.64 (kbar)
                                      0.71          -0.18           0.13
                                     -0.18           0.67           0.28
                                      0.13           0.28           0.54



     Linear momentum :    0.0000000000   -0.0000000000    0.0000000000

     Writing config-only to output data dir ./tmp/Ga2O3-BL-001-300K.save/
     NEW-OLD atomic charge density approx. for the potential

     negative rho (up, down):  4.234E-04 0.000E+00

     total cpu time spent up to now is      135.1 secs

     Self-consistent Calculation

     iteration #  1     ecut=    80.00 Ry     beta= 0.20
     Davidson diagonalization with overlap

---- Real-time Memory Report at c_bands before calling an iterative solver
           313 MiB given to the printing process from OS
             0 MiB allocation reported by mallinfo(arena+hblkhd)
        367134 MiB available memory on the node where the printing process lives
------------------
     ethr =  1.00E-06,  avg # of iterations =  8.4

     negative rho (up, down):  4.241E-04 0.000E+00

     total cpu time spent up to now is      139.4 secs

     total energy              =   -1361.94580385 Ry
     estimated scf accuracy    <       0.00116867 Ry

     iteration #  2     ecut=    80.00 Ry     beta= 0.20
     Davidson diagonalization with overlap

---- Real-time Memory Report at c_bands before calling an iterative solver
           313 MiB given to the printing process from OS
             0 MiB allocation reported by mallinfo(arena+hblkhd)
        367138 MiB available memory on the node where the printing process lives
------------------
     ethr =  1.33E-06,  avg # of iterations =  1.0

     negative rho (up, down):  4.255E-04 0.000E+00

     total cpu time spent up to now is      141.1 secs

     total energy              =   -1361.94552667 Ry
     estimated scf accuracy    <       0.00052340 Ry

     iteration #  3     ecut=    80.00 Ry     beta= 0.20
     Davidson diagonalization with overlap

---- Real-time Memory Report at c_bands before calling an iterative solver
           313 MiB given to the printing process from OS
             0 MiB allocation reported by mallinfo(arena+hblkhd)
        367135 MiB available memory on the node where the printing process lives
------------------
     ethr =  5.95E-07,  avg # of iterations =  2.6

     negative rho (up, down):  4.254E-04 0.000E+00

     total cpu time spent up to now is      143.2 secs

     total energy              =   -1361.94566866 Ry
     estimated scf accuracy    <       0.00003843 Ry

     iteration #  4     ecut=    80.00 Ry     beta= 0.20
     Davidson diagonalization with overlap

---- Real-time Memory Report at c_bands before calling an iterative solver
           313 MiB given to the printing process from OS
             0 MiB allocation reported by mallinfo(arena+hblkhd)
        367135 MiB available memory on the node where the printing process lives
------------------
     ethr =  4.37E-08,  avg # of iterations = 12.0

     negative rho (up, down):  4.255E-04 0.000E+00

     total cpu time spent up to now is      147.7 secs

     total energy              =   -1361.94571117 Ry
     estimated scf accuracy    <       0.00002291 Ry

     iteration #  5     ecut=    80.00 Ry     beta= 0.20
     Davidson diagonalization with overlap

---- Real-time Memory Report at c_bands before calling an iterative solver
           313 MiB given to the printing process from OS
             0 MiB allocation reported by mallinfo(arena+hblkhd)
        367138 MiB available memory on the node where the printing process lives
------------------
     ethr =  2.60E-08,  avg # of iterations =  3.3

     negative rho (up, down):  4.257E-04 0.000E+00

     total cpu time spent up to now is      149.9 secs

     total energy              =   -1361.94571477 Ry
     estimated scf accuracy    <       0.00002226 Ry

     iteration #  6     ecut=    80.00 Ry     beta= 0.20
     Davidson diagonalization with overlap

---- Real-time Memory Report at c_bands before calling an iterative solver
           313 MiB given to the printing process from OS
             0 MiB allocation reported by mallinfo(arena+hblkhd)
        367139 MiB available memory on the node where the printing process lives
------------------
     ethr =  2.53E-08,  avg # of iterations =  1.9

     negative rho (up, down):  4.258E-04 0.000E+00

     total cpu time spent up to now is      151.8 secs

     total energy              =   -1361.94571735 Ry
     estimated scf accuracy    <       0.00002283 Ry

     iteration #  7     ecut=    80.00 Ry     beta= 0.20
     Davidson diagonalization with overlap

---- Real-time Memory Report at c_bands before calling an iterative solver
           313 MiB given to the printing process from OS
             0 MiB allocation reported by mallinfo(arena+hblkhd)
        367139 MiB available memory on the node where the printing process lives
------------------
     ethr =  2.53E-08,  avg # of iterations =  1.4

     negative rho (up, down):  4.262E-04 0.000E+00

     total cpu time spent up to now is      153.5 secs

     total energy              =   -1361.94572611 Ry
     estimated scf accuracy    <       0.00002711 Ry

     iteration #  8     ecut=    80.00 Ry     beta= 0.20
     Davidson diagonalization with overlap

---- Real-time Memory Report at c_bands before calling an iterative solver
           313 MiB given to the printing process from OS
             0 MiB allocation reported by mallinfo(arena+hblkhd)
        367140 MiB available memory on the node where the printing process lives
------------------
     ethr =  2.53E-08,  avg # of iterations =  4.2

     negative rho (up, down):  4.262E-04 0.000E+00

     total cpu time spent up to now is      155.9 secs

     total energy              =   -1361.94573176 Ry
     estimated scf accuracy    <       0.00006085 Ry

     iteration #  9     ecut=    80.00 Ry     beta= 0.20
     Davidson diagonalization with overlap

---- Real-time Memory Report at c_bands before calling an iterative solver
           313 MiB given to the printing process from OS
             0 MiB allocation reported by mallinfo(arena+hblkhd)
        367140 MiB available memory on the node where the printing process lives
------------------
     ethr =  2.53E-08,  avg # of iterations =  1.9

     negative rho (up, down):  4.274E-04 0.000E+00

     total cpu time spent up to now is      157.7 secs

     total energy              =   -1361.94573864 Ry
     estimated scf accuracy    <       0.00004484 Ry

     iteration # 10     ecut=    80.00 Ry     beta= 0.20
     Davidson diagonalization with overlap

---- Real-time Memory Report at c_bands before calling an iterative solver
           313 MiB given to the printing process from OS
             0 MiB allocation reported by mallinfo(arena+hblkhd)
        367141 MiB available memory on the node where the printing process lives
------------------
     ethr =  2.53E-08,  avg # of iterations =  9.2

     negative rho (up, down):  4.276E-04 0.000E+00

     total cpu time spent up to now is      161.2 secs

     total energy              =   -1361.94575612 Ry
     estimated scf accuracy    <       0.00026511 Ry

     iteration # 11     ecut=    80.00 Ry     beta= 0.20
     Davidson diagonalization with overlap

---- Real-time Memory Report at c_bands before calling an iterative solver
           313 MiB given to the printing process from OS
             0 MiB allocation reported by mallinfo(arena+hblkhd)
        367144 MiB available memory on the node where the printing process lives
------------------
     ethr =  2.53E-08,  avg # of iterations =  1.9

     negative rho (up, down):  4.258E-04 0.000E+00

     total cpu time spent up to now is      163.1 secs

     total energy              =   -1361.94575146 Ry
     estimated scf accuracy    <       0.00028540 Ry

     iteration # 12     ecut=    80.00 Ry     beta= 0.20
     Davidson diagonalization with overlap

---- Real-time Memory Report at c_bands before calling an iterative solver
           313 MiB given to the printing process from OS
             0 MiB allocation reported by mallinfo(arena+hblkhd)
        367143 MiB available memory on the node where the printing process lives
------------------
     ethr =  2.53E-08,  avg # of iterations =  8.7

     negative rho (up, down):  4.268E-04 0.000E+00

     total cpu time spent up to now is      166.9 secs

     total energy              =   -1361.94575932 Ry
     estimated scf accuracy    <       0.00000500 Ry

     iteration # 13     ecut=    80.00 Ry     beta= 0.20
     Davidson diagonalization with overlap

---- Real-time Memory Report at c_bands before calling an iterative solver
           313 MiB given to the printing process from OS
             0 MiB allocation reported by mallinfo(arena+hblkhd)
        367145 MiB available memory on the node where the printing process lives
------------------
     ethr =  5.68E-09,  avg # of iterations =  8.6

     negative rho (up, down):  4.262E-04 0.000E+00

     total cpu time spent up to now is      171.3 secs

     total energy              =   -1361.94576291 Ry
     estimated scf accuracy    <       0.00013195 Ry

     iteration # 14     ecut=    80.00 Ry     beta= 0.20
     Davidson diagonalization with overlap

---- Real-time Memory Report at c_bands before calling an iterative solver
           313 MiB given to the printing process from OS
             0 MiB allocation reported by mallinfo(arena+hblkhd)
        367145 MiB available memory on the node where the printing process lives
------------------
     ethr =  5.68E-09,  avg # of iterations =  7.4

     negative rho (up, down):  4.260E-04 0.000E+00

     total cpu time spent up to now is      174.8 secs

     total energy              =   -1361.94576937 Ry
     estimated scf accuracy    <       0.00001917 Ry

     iteration # 15     ecut=    80.00 Ry     beta= 0.20
     Davidson diagonalization with overlap

---- Real-time Memory Report at c_bands before calling an iterative solver
           313 MiB given to the printing process from OS
             0 MiB allocation reported by mallinfo(arena+hblkhd)
        367145 MiB available memory on the node where the printing process lives
------------------
     ethr =  5.68E-09,  avg # of iterations =  5.1

     negative rho (up, down):  4.261E-04 0.000E+00

     total cpu time spent up to now is      177.5 secs

     total energy              =   -1361.94577922 Ry
     estimated scf accuracy    <       0.00000327 Ry

     iteration # 16     ecut=    80.00 Ry     beta= 0.20
     Davidson diagonalization with overlap

---- Real-time Memory Report at c_bands before calling an iterative solver
           313 MiB given to the printing process from OS
             0 MiB allocation reported by mallinfo(arena+hblkhd)
        367146 MiB available memory on the node where the printing process lives
------------------
     ethr =  3.71E-09,  avg # of iterations =  6.8

     negative rho (up, down):  4.264E-04 0.000E+00

     total cpu time spent up to now is      180.7 secs

     total energy              =   -1361.94578481 Ry
     estimated scf accuracy    <       0.00000267 Ry

     iteration # 17     ecut=    80.00 Ry     beta= 0.20
     Davidson diagonalization with overlap

---- Real-time Memory Report at c_bands before calling an iterative solver
           313 MiB given to the printing process from OS
             0 MiB allocation reported by mallinfo(arena+hblkhd)
        367147 MiB available memory on the node where the printing process lives
------------------
     ethr =  3.03E-09,  avg # of iterations =  4.4

     negative rho (up, down):  4.264E-04 0.000E+00

     total cpu time spent up to now is      183.3 secs

     total energy              =   -1361.94578647 Ry
     estimated scf accuracy    <       0.00000252 Ry

     iteration # 18     ecut=    80.00 Ry     beta= 0.20
     Davidson diagonalization with overlap

---- Real-time Memory Report at c_bands before calling an iterative solver
           313 MiB given to the printing process from OS
             0 MiB allocation reported by mallinfo(arena+hblkhd)
        367148 MiB available memory on the node where the printing process lives
------------------
     ethr =  2.87E-09,  avg # of iterations =  2.2

     negative rho (up, down):  4.264E-04 0.000E+00

     total cpu time spent up to now is      185.4 secs

     total energy              =   -1361.94578659 Ry
     estimated scf accuracy    <       0.00000115 Ry

     iteration # 19     ecut=    80.00 Ry     beta= 0.20
     Davidson diagonalization with overlap

---- Real-time Memory Report at c_bands before calling an iterative solver
           313 MiB given to the printing process from OS
             0 MiB allocation reported by mallinfo(arena+hblkhd)
        367149 MiB available memory on the node where the printing process lives
------------------
     ethr =  1.30E-09,  avg # of iterations =  7.0

     negative rho (up, down):  4.264E-04 0.000E+00

     total cpu time spent up to now is      188.2 secs

     total energy              =   -1361.94578695 Ry
     estimated scf accuracy    <       0.00000041 Ry

     iteration # 20     ecut=    80.00 Ry     beta= 0.20
     Davidson diagonalization with overlap

---- Real-time Memory Report at c_bands before calling an iterative solver
           313 MiB given to the printing process from OS
             0 MiB allocation reported by mallinfo(arena+hblkhd)
        367150 MiB available memory on the node where the printing process lives
------------------
     ethr =  4.70E-10,  avg # of iterations = 11.9

     negative rho (up, down):  4.264E-04 0.000E+00

     total cpu time spent up to now is      192.2 secs

     total energy              =   -1361.94578721 Ry
     estimated scf accuracy    <       0.00000041 Ry

     iteration # 21     ecut=    80.00 Ry     beta= 0.20
     Davidson diagonalization with overlap

---- Real-time Memory Report at c_bands before calling an iterative solver
           313 MiB given to the printing process from OS
             0 MiB allocation reported by mallinfo(arena+hblkhd)
        367151 MiB available memory on the node where the printing process lives
------------------
     ethr =  4.63E-10,  avg # of iterations =  6.1

     negative rho (up, down):  4.264E-04 0.000E+00

     total cpu time spent up to now is      194.8 secs

     total energy              =   -1361.94578731 Ry
     estimated scf accuracy    <       0.00000032 Ry

     iteration # 22     ecut=    80.00 Ry     beta= 0.20
     Davidson diagonalization with overlap

---- Real-time Memory Report at c_bands before calling an iterative solver
           313 MiB given to the printing process from OS
             0 MiB allocation reported by mallinfo(arena+hblkhd)
        367153 MiB available memory on the node where the printing process lives
------------------
     ethr =  3.58E-10,  avg # of iterations =  6.7

     negative rho (up, down):  4.264E-04 0.000E+00

     total cpu time spent up to now is      197.5 secs

     total energy              =   -1361.94578741 Ry
     estimated scf accuracy    <       0.00000062 Ry

     iteration # 23     ecut=    80.00 Ry     beta= 0.20
     Davidson diagonalization with overlap

---- Real-time Memory Report at c_bands before calling an iterative solver
           313 MiB given to the printing process from OS
             0 MiB allocation reported by mallinfo(arena+hblkhd)
        367153 MiB available memory on the node where the printing process lives
------------------
     ethr =  3.58E-10,  avg # of iterations =  8.6

     negative rho (up, down):  4.264E-04 0.000E+00

     total cpu time spent up to now is      201.1 secs

     total energy              =   -1361.94578751 Ry
     estimated scf accuracy    <       0.00000048 Ry

     iteration # 24     ecut=    80.00 Ry     beta= 0.20
     Davidson diagonalization with overlap

---- Real-time Memory Report at c_bands before calling an iterative solver
           313 MiB given to the printing process from OS
             0 MiB allocation reported by mallinfo(arena+hblkhd)
        367151 MiB available memory on the node where the printing process lives
------------------
     ethr =  3.58E-10,  avg # of iterations =  4.6

     negative rho (up, down):  4.265E-04 0.000E+00

     total cpu time spent up to now is      203.5 secs

     total energy              =   -1361.94578750 Ry
     estimated scf accuracy    <       0.00000023 Ry

     iteration # 25     ecut=    80.00 Ry     beta= 0.20
     Davidson diagonalization with overlap

---- Real-time Memory Report at c_bands before calling an iterative solver
           313 MiB given to the printing process from OS
             0 MiB allocation reported by mallinfo(arena+hblkhd)
        367152 MiB available memory on the node where the printing process lives
------------------
     ethr =  2.63E-10,  avg # of iterations =  9.0

     negative rho (up, down):  4.264E-04 0.000E+00

     total cpu time spent up to now is      206.9 secs

     total energy              =   -1361.94578761 Ry
     estimated scf accuracy    <       0.00000044 Ry

     iteration # 26     ecut=    80.00 Ry     beta= 0.20
     Davidson diagonalization with overlap

---- Real-time Memory Report at c_bands before calling an iterative solver
           313 MiB given to the printing process from OS
             0 MiB allocation reported by mallinfo(arena+hblkhd)
        367152 MiB available memory on the node where the printing process lives
------------------
     ethr =  2.63E-10,  avg # of iterations =  1.9

     negative rho (up, down):  4.264E-04 0.000E+00

     total cpu time spent up to now is      208.8 secs

     total energy              =   -1361.94578752 Ry
     estimated scf accuracy    <       0.00000032 Ry

     iteration # 27     ecut=    80.00 Ry     beta= 0.20
     Davidson diagonalization with overlap

---- Real-time Memory Report at c_bands before calling an iterative solver
           313 MiB given to the printing process from OS
             0 MiB allocation reported by mallinfo(arena+hblkhd)
        367152 MiB available memory on the node where the printing process lives
------------------
     ethr =  2.63E-10,  avg # of iterations =  6.6

     negative rho (up, down):  4.264E-04 0.000E+00

     total cpu time spent up to now is      211.6 secs

     total energy              =   -1361.94578758 Ry
     estimated scf accuracy    <       0.00000003 Ry

     iteration # 28     ecut=    80.00 Ry     beta= 0.20
     Davidson diagonalization with overlap

---- Real-time Memory Report at c_bands before calling an iterative solver
           313 MiB given to the printing process from OS
             0 MiB allocation reported by mallinfo(arena+hblkhd)
        367153 MiB available memory on the node where the printing process lives
------------------
     ethr =  3.85E-11,  avg # of iterations = 11.8

     negative rho (up, down):  4.264E-04 0.000E+00

     total cpu time spent up to now is      216.1 secs

     total energy              =   -1361.94578762 Ry
     estimated scf accuracy    <       0.00000005 Ry

     iteration # 29     ecut=    80.00 Ry     beta= 0.20
     Davidson diagonalization with overlap

---- Real-time Memory Report at c_bands before calling an iterative solver
           313 MiB given to the printing process from OS
             0 MiB allocation reported by mallinfo(arena+hblkhd)
        367156 MiB available memory on the node where the printing process lives
------------------
     ethr =  3.85E-11,  avg # of iterations =  2.0

     negative rho (up, down):  4.264E-04 0.000E+00

     total cpu time spent up to now is      218.1 secs

     total energy              =   -1361.94578761 Ry
     estimated scf accuracy    <       0.00000002 Ry

     iteration # 30     ecut=    80.00 Ry     beta= 0.20
     Davidson diagonalization with overlap

---- Real-time Memory Report at c_bands before calling an iterative solver
           313 MiB given to the printing process from OS
             0 MiB allocation reported by mallinfo(arena+hblkhd)
        367158 MiB available memory on the node where the printing process lives
------------------
     ethr =  2.43E-11,  avg # of iterations =  7.9

     negative rho (up, down):  4.264E-04 0.000E+00

     total cpu time spent up to now is      221.5 secs

     total energy              =   -1361.94578763 Ry
     estimated scf accuracy    <       0.00000003 Ry

     iteration # 31     ecut=    80.00 Ry     beta= 0.20
     Davidson diagonalization with overlap

---- Real-time Memory Report at c_bands before calling an iterative solver
           313 MiB given to the printing process from OS
             0 MiB allocation reported by mallinfo(arena+hblkhd)
        367156 MiB available memory on the node where the printing process lives
------------------
     ethr =  2.43E-11,  avg # of iterations =  2.0

     negative rho (up, down):  4.264E-04 0.000E+00

     total cpu time spent up to now is      223.4 secs

     total energy              =   -1361.94578763 Ry
     estimated scf accuracy    <       0.00000004 Ry

     iteration # 32     ecut=    80.00 Ry     beta= 0.20
     Davidson diagonalization with overlap

---- Real-time Memory Report at c_bands before calling an iterative solver
           313 MiB given to the printing process from OS
             0 MiB allocation reported by mallinfo(arena+hblkhd)
        367156 MiB available memory on the node where the printing process lives
------------------
     ethr =  2.43E-11,  avg # of iterations =  2.5

     negative rho (up, down):  4.264E-04 0.000E+00

     total cpu time spent up to now is      225.4 secs

     total energy              =   -1361.94578762 Ry
     estimated scf accuracy    <       0.00000002 Ry

     iteration # 33     ecut=    80.00 Ry     beta= 0.20
     Davidson diagonalization with overlap

---- Real-time Memory Report at c_bands before calling an iterative solver
           313 MiB given to the printing process from OS
             0 MiB allocation reported by mallinfo(arena+hblkhd)
        367156 MiB available memory on the node where the printing process lives
------------------
     ethr =  2.10E-11,  avg # of iterations =  6.8

     negative rho (up, down):  4.264E-04 0.000E+00

     total cpu time spent up to now is      228.3 secs

     End of self-consistent calculation

          k = 0.0000 0.0000 0.0000 ( 45065 PWs)   bands (ev):

   -24.6231 -24.6034 -23.7744 -23.7491 -23.6933 -23.6851 -20.3105 -20.2845
   -20.2464 -20.2162 -20.2001 -20.1828 -20.1785 -20.1687 -20.1563 -20.1541
   -20.1494 -20.1282 -20.1231 -20.0941 -20.0407 -20.0120 -19.6925 -19.6614
   -19.6537 -19.6178 -12.6919 -12.6750 -10.4691 -10.3752  -9.5036  -9.4784
    -8.9420  -8.9122  -8.4057  -8.3106  -8.2494  -8.2091  -8.1232  -8.1043
    -7.9370  -7.9153  -7.6598  -7.3917

     occupation numbers 
     1.0000   1.0000   1.0000   1.0000   1.0000   1.0000   1.0000   1.0000
     1.0000   1.0000   1.0000   1.0000   1.0000   1.0000   1.0000   1.0000
     1.0000   1.0000   1.0000   1.0000   1.0000   1.0000   1.0000   1.0000
     1.0000   1.0000   1.0000   1.0000   1.0000   1.0000   1.0000   1.0000
     1.0000   1.0000   1.0000   1.0000   1.0000   1.0000   1.0000   1.0000
     1.0000   1.0000   1.0000   1.0000

          k =-0.0062 0.1431 0.0000 ( 45113 PWs)   bands (ev):

   -24.5495 -24.5280 -23.9469 -23.9313 -23.6065 -23.5840 -20.2913 -20.2646
   -20.2460 -20.2159 -20.2117 -20.1995 -20.1827 -20.1745 -20.1698 -20.1452
   -20.1356 -20.1137 -20.1065 -20.0849 -20.0325 -20.0034 -19.7545 -19.7221
   -19.6516 -19.6161 -12.3326 -12.3148 -10.5485 -10.4701  -9.8793  -9.8287
    -9.1834  -9.1545  -8.5256  -8.4926  -8.2194  -8.1576  -7.9102  -7.8791
    -7.8419  -7.7955  -7.6572  -7.4144

     occupation numbers 
     1.0000   1.0000   1.0000   1.0000   1.0000   1.0000   1.0000   1.0000
     1.0000   1.0000   1.0000   1.0000   1.0000   1.0000   1.0000   1.0000
     1.0000   1.0000   1.0000   1.0000   1.0000   1.0000   1.0000   1.0000
     1.0000   1.0000   1.0000   1.0000   1.0000   1.0000   1.0000   1.0000
     1.0000   1.0000   1.0000   1.0000   1.0000   1.0000   1.0000   1.0000
     1.0000   1.0000   1.0000   1.0000

          k = 0.0124-0.2862 0.0000 ( 45174 PWs)   bands (ev):

   -24.4381 -24.4109 -24.1039 -24.0964 -23.5695 -23.5450 -20.2753 -20.2472
   -20.2419 -20.2229 -20.2125 -20.2052 -20.1950 -20.1759 -20.1751 -20.1454
   -20.1147 -20.1005 -20.0857 -20.0718 -20.0240 -19.9945 -19.8283 -19.7957
   -19.6474 -19.6122 -11.7570 -11.7366 -10.7595 -10.7164 -10.3875 -10.3680
    -9.2417  -9.2072  -8.6752  -8.6326  -8.1542  -8.1323  -7.8669  -7.8396
    -7.7328  -7.5738  -7.5469  -7.4332

     occupation numbers 
     1.0000   1.0000   1.0000   1.0000   1.0000   1.0000   1.0000   1.0000
     1.0000   1.0000   1.0000   1.0000   1.0000   1.0000   1.0000   1.0000
     1.0000   1.0000   1.0000   1.0000   1.0000   1.0000   1.0000   1.0000
     1.0000   1.0000   1.0000   1.0000   1.0000   1.0000   1.0000   1.0000
     1.0000   1.0000   1.0000   1.0000   1.0000   1.0000   1.0000   1.0000
     1.0000   1.0000   1.0000   1.0000

          k = 0.1684-0.0368 0.0000 ( 45086 PWs)   bands (ev):

   -24.4945 -24.4756 -23.7862 -23.7657 -23.6799 -23.6650 -20.3055 -20.2788
   -20.2415 -20.2171 -20.2117 -20.1879 -20.1862 -20.1605 -20.1590 -20.1320
   -20.1240 -20.1095 -20.0951 -20.0805 -20.0372 -20.0077 -19.6396 -19.6089
   -19.6036 -19.5741 -12.5467 -12.5273 -10.6786 -10.6434 -10.2075 -10.1687
    -9.3018  -9.2555  -8.6811  -8.6121  -8.3687  -8.3357  -8.1368  -8.0912
    -8.0263  -8.0073  -7.5132  -7.3352

     occupation numbers 
     1.0000   1.0000   1.0000   1.0000   1.0000   1.0000   1.0000   1.0000
     1.0000   1.0000   1.0000   1.0000   1.0000   1.0000   1.0000   1.0000
     1.0000   1.0000   1.0000   1.0000   1.0000   1.0000   1.0000   1.0000
     1.0000   1.0000   1.0000   1.0000   1.0000   1.0000   1.0000   1.0000
     1.0000   1.0000   1.0000   1.0000   1.0000   1.0000   1.0000   1.0000
     1.0000   1.0000   1.0000   1.0000

          k = 0.1622 0.1063 0.0000 ( 45049 PWs)   bands (ev):

   -24.4688 -24.4494 -23.8481 -23.8305 -23.6466 -23.6284 -20.3012 -20.2741
   -20.2372 -20.2151 -20.2072 -20.1861 -20.1851 -20.1687 -20.1562 -20.1399
   -20.1250 -20.1062 -20.0948 -20.0784 -20.0264 -19.9974 -19.7067 -19.6746
   -19.5689 -19.5331 -12.4239 -12.4050 -10.7394 -10.6934 -10.1859 -10.1498
    -9.4345  -9.3660  -8.7680  -8.6965  -8.4213  -8.3915  -8.0676  -8.0016
    -7.9641  -7.9334  -7.5173  -7.3392

     occupation numbers 
     1.0000   1.0000   1.0000   1.0000   1.0000   1.0000   1.0000   1.0000
     1.0000   1.0000   1.0000   1.0000   1.0000   1.0000   1.0000   1.0000
     1.0000   1.0000   1.0000   1.0000   1.0000   1.0000   1.0000   1.0000
     1.0000   1.0000   1.0000   1.0000   1.0000   1.0000   1.0000   1.0000
     1.0000   1.0000   1.0000   1.0000   1.0000   1.0000   1.0000   1.0000
     1.0000   1.0000   1.0000   1.0000

          k = 0.1808-0.3231 0.0000 ( 45092 PWs)   bands (ev):

   -24.3534 -24.3286 -24.0158 -24.0077 -23.6037 -23.5817 -20.2826 -20.2543
   -20.2365 -20.2223 -20.2062 -20.1950 -20.1852 -20.1572 -20.1555 -20.1288
   -20.1175 -20.0997 -20.0876 -20.0721 -19.9935 -19.9640 -19.8280 -19.7953
   -19.5500 -19.5146 -11.8463 -11.8314 -11.0468 -11.0049 -10.2587 -10.2410
    -9.6993  -9.6496  -9.0367  -9.0020  -8.3673  -8.2944  -8.1584  -8.0864
    -7.6219  -7.6002  -7.5235  -7.3480

     occupation numbers 
     1.0000   1.0000   1.0000   1.0000   1.0000   1.0000   1.0000   1.0000
     1.0000   1.0000   1.0000   1.0000   1.0000   1.0000   1.0000   1.0000
     1.0000   1.0000   1.0000   1.0000   1.0000   1.0000   1.0000   1.0000
     1.0000   1.0000   1.0000   1.0000   1.0000   1.0000   1.0000   1.0000
     1.0000   1.0000   1.0000   1.0000   1.0000   1.0000   1.0000   1.0000
     1.0000   1.0000   1.0000   1.0000

          k = 0.1746-0.1799 0.0000 ( 45085 PWs)   bands (ev):

   -24.3967 -24.3743 -23.9581 -23.9472 -23.6158 -23.5939 -20.2842 -20.2566
   -20.2384 -20.2263 -20.2092 -20.1966 -20.1872 -20.1577 -20.1565 -20.1282
   -20.1175 -20.1007 -20.0895 -20.0714 -20.0156 -19.9849 -19.7735 -19.7412
   -19.5618 -19.5278 -12.0705 -12.0504 -10.9032 -10.8724 -10.2422 -10.2113
    -9.6407  -9.5704  -8.9390  -8.9002  -8.3733  -8.3119  -8.1360  -8.0753
    -7.7242  -7.6979  -7.5198  -7.3449

     occupation numbers 
     1.0000   1.0000   1.0000   1.0000   1.0000   1.0000   1.0000   1.0000
     1.0000   1.0000   1.0000   1.0000   1.0000   1.0000   1.0000   1.0000
     1.0000   1.0000   1.0000   1.0000   1.0000   1.0000   1.0000   1.0000
     1.0000   1.0000   1.0000   1.0000   1.0000   1.0000   1.0000   1.0000
     1.0000   1.0000   1.0000   1.0000   1.0000   1.0000   1.0000   1.0000
     1.0000   1.0000   1.0000   1.0000

          k = 0.3368-0.0737 0.0000 ( 45074 PWs)   bands (ev):

   -24.1925 -24.1746 -23.7837 -23.7680 -23.7107 -23.6997 -20.2735 -20.2456
   -20.2361 -20.2193 -20.2051 -20.2036 -20.1899 -20.1749 -20.1207 -20.0922
   -20.0908 -20.0781 -20.0622 -20.0493 -19.9919 -19.9612 -19.6508 -19.6190
   -19.4283 -19.3957 -12.4723 -12.4566 -11.6643 -11.6135 -10.7316 -10.6712
    -9.6440  -9.6208  -8.9781  -8.9375  -8.7104  -8.6403  -8.1805  -8.0918
    -7.8582  -7.8414  -7.5418  -7.5012

     occupation numbers 
     1.0000   1.0000   1.0000   1.0000   1.0000   1.0000   1.0000   1.0000
     1.0000   1.0000   1.0000   1.0000   1.0000   1.0000   1.0000   1.0000
     1.0000   1.0000   1.0000   1.0000   1.0000   1.0000   1.0000   1.0000
     1.0000   1.0000   1.0000   1.0000   1.0000   1.0000   1.0000   1.0000
     1.0000   1.0000   1.0000   1.0000   1.0000   1.0000   1.0000   1.0000
     1.0000   1.0000   1.0000   1.0000

          k = 0.3306 0.0695 0.0000 ( 45046 PWs)   bands (ev):

   -24.2032 -24.1866 -23.7843 -23.7606 -23.6983 -23.6933 -20.2819 -20.2540
   -20.2380 -20.2158 -20.2063 -20.1936 -20.1870 -20.1661 -20.1228 -20.0985
   -20.0947 -20.0748 -20.0690 -20.0467 -19.9982 -19.9681 -19.6253 -19.5931
   -19.4415 -19.4072 -12.5203 -12.5094 -11.6294 -11.5727 -10.7484 -10.6926
    -9.6739  -9.6587  -8.9365  -8.8971  -8.5673  -8.5218  -8.2707  -8.1497
    -7.8910  -7.8634  -7.5396  -7.5009

     occupation numbers 
     1.0000   1.0000   1.0000   1.0000   1.0000   1.0000   1.0000   1.0000
     1.0000   1.0000   1.0000   1.0000   1.0000   1.0000   1.0000   1.0000
     1.0000   1.0000   1.0000   1.0000   1.0000   1.0000   1.0000   1.0000
     1.0000   1.0000   1.0000   1.0000   1.0000   1.0000   1.0000   1.0000
     1.0000   1.0000   1.0000   1.0000   1.0000   1.0000   1.0000   1.0000
     1.0000   1.0000   1.0000   1.0000

          k = 0.3492-0.3599 0.0000 ( 45085 PWs)   bands (ev):

   -24.1362 -24.1155 -23.8582 -23.8481 -23.6942 -23.6806 -20.2662 -20.2380
   -20.2376 -20.2137 -20.2067 -20.1868 -20.1845 -20.1604 -20.1213 -20.0979
   -20.0930 -20.0717 -20.0690 -20.0437 -19.9504 -19.9208 -19.7788 -19.7455
   -19.3905 -19.3556 -12.2703 -12.2445 -11.8350 -11.7866 -10.4579 -10.4137
    -9.8171  -9.7970  -9.0955  -9.0696  -8.7772  -8.7560  -8.2606  -8.1365
    -7.7187  -7.6855  -7.5463  -7.5082

     occupation numbers 
     1.0000   1.0000   1.0000   1.0000   1.0000   1.0000   1.0000   1.0000
     1.0000   1.0000   1.0000   1.0000   1.0000   1.0000   1.0000   1.0000
     1.0000   1.0000   1.0000   1.0000   1.0000   1.0000   1.0000   1.0000
     1.0000   1.0000   1.0000   1.0000   1.0000   1.0000   1.0000   1.0000
     1.0000   1.0000   1.0000   1.0000   1.0000   1.0000   1.0000   1.0000
     1.0000   1.0000   1.0000   1.0000

          k = 0.3430-0.2168 0.0000 ( 45092 PWs)   bands (ev):

   -24.1199 -24.0960 -23.8688 -23.8647 -23.7017 -23.6845 -20.2578 -20.2320
   -20.2286 -20.2184 -20.2030 -20.2023 -20.1887 -20.1753 -20.1200 -20.0916
   -20.0870 -20.0713 -20.0581 -20.0433 -19.9326 -19.9006 -19.8117 -19.7809
   -19.3841 -19.3504 -12.1852 -12.1494 -11.8982 -11.8633 -10.3673 -10.3270
    -9.9250  -9.9002  -9.1637  -9.1400  -8.7036  -8.6773  -8.3117  -8.1882
    -7.6554  -7.6318  -7.5710  -7.5251

     occupation numbers 
     1.0000   1.0000   1.0000   1.0000   1.0000   1.0000   1.0000   1.0000
     1.0000   1.0000   1.0000   1.0000   1.0000   1.0000   1.0000   1.0000
     1.0000   1.0000   1.0000   1.0000   1.0000   1.0000   1.0000   1.0000
     1.0000   1.0000   1.0000   1.0000   1.0000   1.0000   1.0000   1.0000
     1.0000   1.0000   1.0000   1.0000   1.0000   1.0000   1.0000   1.0000
     1.0000   1.0000   1.0000   1.0000

          k =-0.5052 0.1105 0.0000 ( 45134 PWs)   bands (ev):

   -23.9487 -23.9140 -23.8460 -23.8406 -23.7552 -23.7467 -20.2627 -20.2343
   -20.2323 -20.2272 -20.2055 -20.1992 -20.1915 -20.1615 -20.1132 -20.0842
   -20.0733 -20.0467 -20.0453 -20.0163 -19.9139 -19.8834 -19.7200 -19.6904
   -19.3291 -19.2963 -12.5817 -12.5512 -12.2419 -12.2014 -10.5772 -10.5320
    -9.9028  -9.8834  -9.1168  -9.0735  -8.5358  -8.5299  -8.2136  -8.1254
    -7.9688  -7.8639  -7.6293  -7.6009

     occupation numbers 
     1.0000   1.0000   1.0000   1.0000   1.0000   1.0000   1.0000   1.0000
     1.0000   1.0000   1.0000   1.0000   1.0000   1.0000   1.0000   1.0000
     1.0000   1.0000   1.0000   1.0000   1.0000   1.0000   1.0000   1.0000
     1.0000   1.0000   1.0000   1.0000   1.0000   1.0000   1.0000   1.0000
     1.0000   1.0000   1.0000   1.0000   1.0000   1.0000   1.0000   1.0000
     1.0000   1.0000   1.0000   1.0000

          k =-0.5114 0.2536 0.0000 ( 45094 PWs)   bands (ev):

   -23.9383 -23.9072 -23.8603 -23.8556 -23.7454 -23.7430 -20.2600 -20.2399
   -20.2304 -20.2295 -20.2095 -20.2008 -20.1810 -20.1535 -20.1189 -20.0903
   -20.0733 -20.0445 -20.0336 -20.0049 -19.9239 -19.8932 -19.7243 -19.6931
   -19.3308 -19.2972 -12.5860 -12.5536 -12.2427 -12.2018 -10.4375 -10.4044
   -10.1273 -10.1067  -8.8500  -8.8231  -8.6824  -8.6535  -8.1536  -8.0769
    -8.0635  -7.9545  -7.6130  -7.5888

     occupation numbers 
     1.0000   1.0000   1.0000   1.0000   1.0000   1.0000   1.0000   1.0000
     1.0000   1.0000   1.0000   1.0000   1.0000   1.0000   1.0000   1.0000
     1.0000   1.0000   1.0000   1.0000   1.0000   1.0000   1.0000   1.0000
     1.0000   1.0000   1.0000   1.0000   1.0000   1.0000   1.0000   1.0000
     1.0000   1.0000   1.0000   1.0000   1.0000   1.0000   1.0000   1.0000
     1.0000   1.0000   1.0000   1.0000

          k =-0.4929-0.1758 0.0000 ( 45008 PWs)   bands (ev):

   -23.9210 -23.8966 -23.8848 -23.8690 -23.7396 -23.7375 -20.2637 -20.2450
   -20.2351 -20.2275 -20.2132 -20.1988 -20.1619 -20.1355 -20.1069 -20.0920
   -20.0798 -20.0627 -20.0301 -20.0030 -19.9341 -19.9026 -19.7244 -19.6916
   -19.3328 -19.2985 -12.5885 -12.5546 -12.2422 -12.2024 -10.5408 -10.4972
    -9.9193  -9.9093  -9.0247  -8.9815  -8.6123  -8.5846  -8.1973  -8.1211
    -8.0389  -7.9177  -7.6049  -7.5766

     occupation numbers 
     1.0000   1.0000   1.0000   1.0000   1.0000   1.0000   1.0000   1.0000
     1.0000   1.0000   1.0000   1.0000   1.0000   1.0000   1.0000   1.0000
     1.0000   1.0000   1.0000   1.0000   1.0000   1.0000   1.0000   1.0000
     1.0000   1.0000   1.0000   1.0000   1.0000   1.0000   1.0000   1.0000
     1.0000   1.0000   1.0000   1.0000   1.0000   1.0000   1.0000   1.0000
     1.0000   1.0000   1.0000   1.0000

     highest occupied level (ev):    -7.3352

!    total energy              =   -1361.94578763 Ry
     estimated scf accuracy    <          2.1E-09 Ry

     convergence has been achieved in  33 iterations

     negative rho (up, down):  4.264E-04 0.000E+00

     Forces acting on atoms (cartesian axes, Ry/au):

     atom    1 type  1   force =    -0.02109368   -0.02298639   -0.00260022
     atom    2 type  1   force =    -0.01862802    0.02218297    0.00591612
     atom    3 type  2   force =    -0.00730118    0.01894723   -0.04717301
     atom    4 type  2   force =     0.05191066   -0.00091806    0.00143214
     atom    5 type  2   force =    -0.00483355   -0.01817982    0.04168747
     atom    6 type  1   force =    -0.01947908   -0.02439364   -0.00455917
     atom    7 type  1   force =    -0.02116376    0.02338015    0.00364370
     atom    8 type  2   force =    -0.00636574    0.01700359   -0.04160549
     atom    9 type  2   force =     0.04981085    0.00533474   -0.00104243
     atom   10 type  2   force =    -0.00285650   -0.02037075    0.04430090
     The non-local contrib.  to forces
     atom    1 type  1   force =     0.22396466    0.14829522    0.02929505
     atom    2 type  1   force =     0.21569003   -0.08676578   -0.05691428
     atom    3 type  2   force =    -0.13905861    0.42405455   -1.12496341
     atom    4 type  2   force =     1.10530846    0.11434536   -0.00641172
     atom    5 type  2   force =    -0.07613992   -0.45170197    1.09132417
     atom    6 type  1   force =     0.22129698    0.13737911    0.04529572
     atom    7 type  1   force =     0.20476335   -0.09990244   -0.04156116
     atom    8 type  2   force =    -0.14344945    0.42360396   -1.08970727
     atom    9 type  2   force =     1.10860240    0.10706491   -0.00170437
     atom   10 type  2   force =    -0.08370334   -0.45414877    1.11571773
     The ionic contribution  to forces
     atom    1 type  1   force =     1.80959543   10.94338042  -86.83662175
     atom    2 type  1   force =     2.57878912  -10.08053641 -131.73669015
     atom    3 type  2   force =     0.39016231   -1.68665352  -14.33901028
     atom    4 type  2   force =    -4.92441628   -0.45605482  -50.30110881
     atom    5 type  2   force =     0.10537798    2.21429970  -86.62860560
     atom    6 type  1   force =     1.85870870   10.38310888  131.70668315
     atom    7 type  1   force =     2.50115606  -10.59907936   86.87548501
     atom    8 type  2   force =     0.44103677   -2.30159420   86.74742081
     atom    9 type  2   force =    -4.97208517    0.01812161   49.91943253
     atom   10 type  2   force =     0.21167507    1.56500770   14.59301509
     The local contribution  to forces
     atom    1 type  1   force =    -2.05381734  -11.11532907   86.80463898
     atom    2 type  1   force =    -2.81244160   10.19109171  131.79921914
     atom    3 type  2   force =    -0.25979782    1.28551863   15.40710257
     atom    4 type  2   force =     3.88138292    0.34185721   50.30887663
     atom    5 type  2   force =    -0.03487972   -1.78501606   85.58827371
     atom    6 type  1   force =    -2.09864599  -10.54584632 -131.75639617
     atom    7 type  1   force =    -2.72672611   10.72388387  -86.83035185
     atom    8 type  2   force =    -0.30538430    1.89896502  -85.70860960
     atom    9 type  2   force =     3.92366972   -0.11881458  -49.91878329
     atom   10 type  2   force =    -0.13169450   -1.13549220  -15.65481661
     The core correction contribution to forces
     atom    1 type  1   force =    -0.00084293    0.00066467    0.00005801
     atom    2 type  1   force =    -0.00067116   -0.00161328    0.00028967
     atom    3 type  2   force =     0.00139967   -0.00397669    0.00968030
     atom    4 type  2   force =    -0.01036266   -0.00105037    0.00006175
     atom    5 type  2   force =     0.00081328    0.00423442   -0.00931941
     atom    6 type  1   force =    -0.00082963    0.00094412   -0.00007588
     atom    7 type  1   force =    -0.00035504   -0.00151627    0.00016203
     atom    8 type  2   force =     0.00143219   -0.00396034    0.00930202
     atom    9 type  2   force =    -0.01037392   -0.00104789    0.00004135
     atom   10 type  2   force =     0.00086162    0.00426980   -0.00957067
     The Hubbard contrib.    to forces
     atom    1 type  1   force =     0.00000000    0.00000000    0.00000000
     atom    2 type  1   force =     0.00000000    0.00000000    0.00000000
     atom    3 type  2   force =     0.00000000    0.00000000    0.00000000
     atom    4 type  2   force =     0.00000000    0.00000000    0.00000000
     atom    5 type  2   force =     0.00000000    0.00000000    0.00000000
     atom    6 type  1   force =     0.00000000    0.00000000    0.00000000
     atom    7 type  1   force =     0.00000000    0.00000000    0.00000000
     atom    8 type  2   force =     0.00000000    0.00000000    0.00000000
     atom    9 type  2   force =     0.00000000    0.00000000    0.00000000
     atom   10 type  2   force =     0.00000000    0.00000000    0.00000000
     The SCF correction term to forces
     atom    1 type  1   force =     0.00000537    0.00000409    0.00002029
     atom    2 type  1   force =     0.00000448    0.00000845    0.00000255
     atom    3 type  2   force =    -0.00000784    0.00000598    0.00000861
     atom    4 type  2   force =    -0.00000290   -0.00001371    0.00000509
     atom    5 type  2   force =    -0.00000629    0.00000582    0.00000540
     atom    6 type  1   force =    -0.00001026    0.00002229   -0.00007519
     atom    7 type  1   force =    -0.00000316   -0.00000392   -0.00009953
     atom    8 type  2   force =    -0.00000206   -0.00000913   -0.00002064
     atom    9 type  2   force =    -0.00000329    0.00001242   -0.00003786
     atom   10 type  2   force =     0.00000354   -0.00000554   -0.00005384

     Total force =     0.135060     Total SCF correction =     0.000149


     Computing stress (Cartesian axis) and pressure


     negative rho (up, down):  4.264E-04 0.000E+00
          total   stress  (Ry/bohr**3)                   (kbar)     P=      -33.50
  -0.00027588   0.00000506  -0.00000380          -40.58        0.75       -0.56
   0.00000506  -0.00030817   0.00002530            0.75      -45.33        3.72
  -0.00000380   0.00002530  -0.00009920           -0.56        3.72      -14.59

     kinetic stress (kbar)   4655.83      1.53     -1.29
                                1.53   4655.12      1.36
                               -1.29      1.36   4733.71

     local   stress (kbar)-496309.67    -67.36    -23.29
                              -67.36-492417.64   -476.91
                              -23.29   -476.91 493554.03

     nonloc. stress (kbar)      3.42      1.88     -1.32
                                1.88     -6.85     13.28
                               -1.32     13.28     86.21

     hartree stress (kbar) 250258.67     41.92      5.97
                               41.92 248417.57    235.85
                                5.97    235.85-240914.23

     exc-cor stress (kbar)    605.10     -0.13      0.10
                               -0.13    605.49     -0.89
                                0.10     -0.89    596.91

     corecor stress (kbar)  -2383.79      0.01     -0.00
                                0.01  -2383.85      0.08
                               -0.00      0.08  -2383.68

     ewald   stress (kbar) 243129.85     22.89     19.28
                               22.89 241084.83    230.96
                               19.28    230.96-255687.54

     hubbard stress (kbar)      0.00      0.00      0.00
                                0.00      0.00      0.00
                                0.00      0.00      0.00

     DFT-D   stress (kbar)      0.00      0.00      0.00
                                0.00      0.00      0.00
                                0.00      0.00      0.00

     XDM     stress (kbar)      0.00      0.00      0.00
                                0.00      0.00      0.00
                                0.00      0.00      0.00

     dft-nl  stress (kbar)      0.00      0.00      0.00
                                0.00      0.00      0.00
                                0.00      0.00      0.00

     TS-vdW  stress (kbar)      0.00      0.00      0.00
                                0.00      0.00      0.00
                                0.00      0.00      0.00


                                0.00      0.00      0.00
                                0.00      0.00      0.00


                                0.00      0.00      0.00


     Entering Dynamics:    iteration =     2
                           time      =   0.0019 pico-seconds


     Canonical sampling velocity rescaling

ATOMIC_POSITIONS (crystal)
Ga            0.8292234539        0.7191532785        0.4264266369
Ga            0.5174322771        0.3020668099        0.4002221621
O             0.3926397845        0.5616200245        0.4501269726
O             0.4237069786        0.0078759584        0.4135355997
O             0.9404665881        0.4556475260        0.3771222461
Ga            0.8273073917        0.7199488788        0.5995482687
Ga            0.5186956925        0.3020216878        0.5734845542
O             0.3883513617        0.5640122713        0.6227947908
O             0.4290160278        0.0051976690        0.5862316319
O             0.9374647944        0.4568287958        0.5503749058


     kinetic energy (Ekin) =           0.02491079 Ry
     temperature           =         291.34093082 K 
     Ekin + Etot (const)   =       -1361.92087684 Ry
     Ions kinetic stress =            0.65 (kbar)
                                      0.73          -0.14           0.12
                                     -0.14           0.65           0.28
                                      0.12           0.28           0.59



     Linear momentum :    0.0000000000   -0.0000000000    0.0000000000

     Writing config-only to output data dir ./tmp/Ga2O3-BL-001-300K.save/

     first order wave-functions extrapolation
     first order charge density extrapolation

     negative rho (up, down):  4.284E-04 0.000E+00

     total cpu time spent up to now is      239.1 secs

     Self-consistent Calculation

     iteration #  1     ecut=    80.00 Ry     beta= 0.20
     Davidson diagonalization with overlap

---- Real-time Memory Report at c_bands before calling an iterative solver
           314 MiB given to the printing process from OS
             0 MiB allocation reported by mallinfo(arena+hblkhd)
        367135 MiB available memory on the node where the printing process lives
------------------
     ethr =  1.00E-06,  avg # of iterations =  3.0

     Threshold (ethr) on eigenvalues was too large:
     Diagonalizing with lowered threshold

     Davidson diagonalization with overlap

---- Real-time Memory Report at c_bands before calling an iterative solver
           314 MiB given to the printing process from OS
             0 MiB allocation reported by mallinfo(arena+hblkhd)
        367134 MiB available memory on the node where the printing process lives
------------------
     ethr =  8.39E-09,  avg # of iterations = 10.3

     negative rho (up, down):  4.281E-04 0.000E+00

     total cpu time spent up to now is      245.9 secs

     total energy              =   -1361.94652245 Ry
     estimated scf accuracy    <       0.00000378 Ry

     iteration #  2     ecut=    80.00 Ry     beta= 0.20
     Davidson diagonalization with overlap

---- Real-time Memory Report at c_bands before calling an iterative solver
           314 MiB given to the printing process from OS
             0 MiB allocation reported by mallinfo(arena+hblkhd)
        367144 MiB available memory on the node where the printing process lives
------------------
     ethr =  4.30E-09,  avg # of iterations =  2.7

     negative rho (up, down):  4.279E-04 0.000E+00

     total cpu time spent up to now is      247.9 secs

     total energy              =   -1361.94652108 Ry
     estimated scf accuracy    <       0.00000189 Ry

     iteration #  3     ecut=    80.00 Ry     beta= 0.20
     Davidson diagonalization with overlap

---- Real-time Memory Report at c_bands before calling an iterative solver
           314 MiB given to the printing process from OS
             0 MiB allocation reported by mallinfo(arena+hblkhd)
        367144 MiB available memory on the node where the printing process lives
------------------
     ethr =  2.15E-09,  avg # of iterations = 11.0

     negative rho (up, down):  4.277E-04 0.000E+00

     total cpu time spent up to now is      251.6 secs

     total energy              =   -1361.94652213 Ry
     estimated scf accuracy    <       0.00000072 Ry

     iteration #  4     ecut=    80.00 Ry     beta= 0.20
     Davidson diagonalization with overlap

---- Real-time Memory Report at c_bands before calling an iterative solver
           314 MiB given to the printing process from OS
             0 MiB allocation reported by mallinfo(arena+hblkhd)
        367146 MiB available memory on the node where the printing process lives
------------------
     ethr =  8.16E-10,  avg # of iterations =  8.6

     negative rho (up, down):  4.276E-04 0.000E+00

     total cpu time spent up to now is      254.9 secs

     total energy              =   -1361.94652250 Ry
     estimated scf accuracy    <       0.00000099 Ry

     iteration #  5     ecut=    80.00 Ry     beta= 0.20
     Davidson diagonalization with overlap

---- Real-time Memory Report at c_bands before calling an iterative solver
           314 MiB given to the printing process from OS
             0 MiB allocation reported by mallinfo(arena+hblkhd)
        367149 MiB available memory on the node where the printing process lives
------------------
     ethr =  8.16E-10,  avg # of iterations =  1.8

     negative rho (up, down):  4.274E-04 0.000E+00

     total cpu time spent up to now is      256.7 secs

     total energy              =   -1361.94652254 Ry
     estimated scf accuracy    <       0.00000095 Ry

     iteration #  6     ecut=    80.00 Ry     beta= 0.20
     Davidson diagonalization with overlap

---- Real-time Memory Report at c_bands before calling an iterative solver
           314 MiB given to the printing process from OS
             0 MiB allocation reported by mallinfo(arena+hblkhd)
        367150 MiB available memory on the node where the printing process lives
------------------
     ethr =  8.16E-10,  avg # of iterations =  1.3

     negative rho (up, down):  4.273E-04 0.000E+00

     total cpu time spent up to now is      258.4 secs

     total energy              =   -1361.94652277 Ry
     estimated scf accuracy    <       0.00000091 Ry

     iteration #  7     ecut=    80.00 Ry     beta= 0.20
     Davidson diagonalization with overlap

---- Real-time Memory Report at c_bands before calling an iterative solver
           314 MiB given to the printing process from OS
             0 MiB allocation reported by mallinfo(arena+hblkhd)
        367150 MiB available memory on the node where the printing process lives
------------------
     ethr =  8.16E-10,  avg # of iterations =  7.7

     negative rho (up, down):  4.272E-04 0.000E+00

     total cpu time spent up to now is      262.0 secs

     total energy              =   -1361.94652315 Ry
     estimated scf accuracy    <       0.00000179 Ry

     iteration #  8     ecut=    80.00 Ry     beta= 0.20
     Davidson diagonalization with overlap

---- Real-time Memory Report at c_bands before calling an iterative solver
           314 MiB given to the printing process from OS
             0 MiB allocation reported by mallinfo(arena+hblkhd)
        367156 MiB available memory on the node where the printing process lives
------------------
     ethr =  8.16E-10,  avg # of iterations =  2.0

     negative rho (up, down):  4.271E-04 0.000E+00

     total cpu time spent up to now is      263.9 secs

     total energy              =   -1361.94652402 Ry
     estimated scf accuracy    <       0.00000186 Ry

     iteration #  9     ecut=    80.00 Ry     beta= 0.20
     Davidson diagonalization with overlap

---- Real-time Memory Report at c_bands before calling an iterative solver
           314 MiB given to the printing process from OS
             0 MiB allocation reported by mallinfo(arena+hblkhd)
        367156 MiB available memory on the node where the printing process lives
------------------
     ethr =  8.16E-10,  avg # of iterations =  6.9

     negative rho (up, down):  4.271E-04 0.000E+00

     total cpu time spent up to now is      267.0 secs

     total energy              =   -1361.94652564 Ry
     estimated scf accuracy    <       0.00000508 Ry

     iteration # 10     ecut=    80.00 Ry     beta= 0.20
     Davidson diagonalization with overlap

---- Real-time Memory Report at c_bands before calling an iterative solver
           314 MiB given to the printing process from OS
             0 MiB allocation reported by mallinfo(arena+hblkhd)
        367160 MiB available memory on the node where the printing process lives
------------------
     ethr =  8.16E-10,  avg # of iterations = 10.7

     negative rho (up, down):  4.271E-04 0.000E+00

     total cpu time spent up to now is      271.1 secs

     total energy              =   -1361.94652524 Ry
     estimated scf accuracy    <       0.00001365 Ry

     iteration # 11     ecut=    80.00 Ry     beta= 0.20
     Davidson diagonalization with overlap

---- Real-time Memory Report at c_bands before calling an iterative solver
           314 MiB given to the printing process from OS
             0 MiB allocation reported by mallinfo(arena+hblkhd)
        367160 MiB available memory on the node where the printing process lives
------------------
     ethr =  8.16E-10,  avg # of iterations =  2.0

     negative rho (up, down):  4.271E-04 0.000E+00

     total cpu time spent up to now is      273.0 secs

     total energy              =   -1361.94652319 Ry
     estimated scf accuracy    <       0.00001105 Ry

     iteration # 12     ecut=    80.00 Ry     beta= 0.20
     Davidson diagonalization with overlap

---- Real-time Memory Report at c_bands before calling an iterative solver
           314 MiB given to the printing process from OS
             0 MiB allocation reported by mallinfo(arena+hblkhd)
        367160 MiB available memory on the node where the printing process lives
------------------
     ethr =  8.16E-10,  avg # of iterations =  7.8

     negative rho (up, down):  4.271E-04 0.000E+00

     total cpu time spent up to now is      276.2 secs

     total energy              =   -1361.94652269 Ry
     estimated scf accuracy    <       0.00000423 Ry

     iteration # 13     ecut=    80.00 Ry     beta= 0.20
     Davidson diagonalization with overlap

---- Real-time Memory Report at c_bands before calling an iterative solver
           314 MiB given to the printing process from OS
             0 MiB allocation reported by mallinfo(arena+hblkhd)
        367160 MiB available memory on the node where the printing process lives
------------------
     ethr =  8.16E-10,  avg # of iterations =  5.6

     negative rho (up, down):  4.271E-04 0.000E+00

     total cpu time spent up to now is      278.8 secs

     total energy              =   -1361.94652213 Ry
     estimated scf accuracy    <       0.00000186 Ry

     iteration # 14     ecut=    80.00 Ry     beta= 0.20
     Davidson diagonalization with overlap

---- Real-time Memory Report at c_bands before calling an iterative solver
           314 MiB given to the printing process from OS
             0 MiB allocation reported by mallinfo(arena+hblkhd)
        367161 MiB available memory on the node where the printing process lives
------------------
     ethr =  8.16E-10,  avg # of iterations =  8.9

     negative rho (up, down):  4.270E-04 0.000E+00

     total cpu time spent up to now is      282.3 secs

     total energy              =   -1361.94652251 Ry
     estimated scf accuracy    <       0.00000022 Ry

     iteration # 15     ecut=    80.00 Ry     beta= 0.20
     Davidson diagonalization with overlap

---- Real-time Memory Report at c_bands before calling an iterative solver
           314 MiB given to the printing process from OS
             0 MiB allocation reported by mallinfo(arena+hblkhd)
        367161 MiB available memory on the node where the printing process lives
------------------
     ethr =  2.52E-10,  avg # of iterations = 12.4

     negative rho (up, down):  4.270E-04 0.000E+00

     total cpu time spent up to now is      286.6 secs

     total energy              =   -1361.94652269 Ry
     estimated scf accuracy    <       0.00000031 Ry

     iteration # 16     ecut=    80.00 Ry     beta= 0.20
     Davidson diagonalization with overlap

---- Real-time Memory Report at c_bands before calling an iterative solver
           314 MiB given to the printing process from OS
             0 MiB allocation reported by mallinfo(arena+hblkhd)
        367161 MiB available memory on the node where the printing process lives
------------------
     ethr =  2.52E-10,  avg # of iterations =  2.0

     negative rho (up, down):  4.270E-04 0.000E+00

     total cpu time spent up to now is      288.5 secs

     total energy              =   -1361.94652270 Ry
     estimated scf accuracy    <       0.00000016 Ry

     iteration # 17     ecut=    80.00 Ry     beta= 0.20
     Davidson diagonalization with overlap

---- Real-time Memory Report at c_bands before calling an iterative solver
           314 MiB given to the printing process from OS
             0 MiB allocation reported by mallinfo(arena+hblkhd)
        367161 MiB available memory on the node where the printing process lives
------------------
     ethr =  1.86E-10,  avg # of iterations =  7.9

     negative rho (up, down):  4.270E-04 0.000E+00

     total cpu time spent up to now is      291.8 secs

     total energy              =   -1361.94652272 Ry
     estimated scf accuracy    <       0.00000028 Ry

     iteration # 18     ecut=    80.00 Ry     beta= 0.20
     Davidson diagonalization with overlap

---- Real-time Memory Report at c_bands before calling an iterative solver
           314 MiB given to the printing process from OS
             0 MiB allocation reported by mallinfo(arena+hblkhd)
        367158 MiB available memory on the node where the printing process lives
------------------
     ethr =  1.86E-10,  avg # of iterations =  3.3

     negative rho (up, down):  4.270E-04 0.000E+00

     total cpu time spent up to now is      293.8 secs

     total energy              =   -1361.94652269 Ry
     estimated scf accuracy    <       0.00000012 Ry

     iteration # 19     ecut=    80.00 Ry     beta= 0.20
     Davidson diagonalization with overlap

---- Real-time Memory Report at c_bands before calling an iterative solver
           314 MiB given to the printing process from OS
             0 MiB allocation reported by mallinfo(arena+hblkhd)
        367158 MiB available memory on the node where the printing process lives
------------------
     ethr =  1.37E-10,  avg # of iterations =  8.6

     negative rho (up, down):  4.270E-04 0.000E+00

     total cpu time spent up to now is      297.1 secs

     total energy              =   -1361.94652276 Ry
     estimated scf accuracy    <       0.00000010 Ry

     iteration # 20     ecut=    80.00 Ry     beta= 0.20
     Davidson diagonalization with overlap

---- Real-time Memory Report at c_bands before calling an iterative solver
           314 MiB given to the printing process from OS
             0 MiB allocation reported by mallinfo(arena+hblkhd)
        367159 MiB available memory on the node where the printing process lives
------------------
     ethr =  1.17E-10,  avg # of iterations =  1.9

     negative rho (up, down):  4.270E-04 0.000E+00

     total cpu time spent up to now is      298.9 secs

     total energy              =   -1361.94652275 Ry
     estimated scf accuracy    <       0.00000009 Ry

     iteration # 21     ecut=    80.00 Ry     beta= 0.20
     Davidson diagonalization with overlap

---- Real-time Memory Report at c_bands before calling an iterative solver
           314 MiB given to the printing process from OS
             0 MiB allocation reported by mallinfo(arena+hblkhd)
        367159 MiB available memory on the node where the printing process lives
------------------
     ethr =  9.73E-11,  avg # of iterations =  8.7

     negative rho (up, down):  4.270E-04 0.000E+00

     total cpu time spent up to now is      302.1 secs

     total energy              =   -1361.94652280 Ry
     estimated scf accuracy    <       0.00000006 Ry

     iteration # 22     ecut=    80.00 Ry     beta= 0.20
     Davidson diagonalization with overlap

---- Real-time Memory Report at c_bands before calling an iterative solver
           314 MiB given to the printing process from OS
             0 MiB allocation reported by mallinfo(arena+hblkhd)
        367159 MiB available memory on the node where the printing process lives
------------------
     ethr =  7.10E-11,  avg # of iterations =  2.0

     negative rho (up, down):  4.270E-04 0.000E+00

     total cpu time spent up to now is      303.9 secs

     total energy              =   -1361.94652281 Ry
     estimated scf accuracy    <       0.00000008 Ry

     iteration # 23     ecut=    80.00 Ry     beta= 0.20
     Davidson diagonalization with overlap

---- Real-time Memory Report at c_bands before calling an iterative solver
           314 MiB given to the printing process from OS
             0 MiB allocation reported by mallinfo(arena+hblkhd)
        367159 MiB available memory on the node where the printing process lives
------------------
     ethr =  7.10E-11,  avg # of iterations =  2.0

     negative rho (up, down):  4.270E-04 0.000E+00

     total cpu time spent up to now is      305.9 secs

     total energy              =   -1361.94652280 Ry
     estimated scf accuracy    <       0.00000010 Ry

     iteration # 24     ecut=    80.00 Ry     beta= 0.20
     Davidson diagonalization with overlap

---- Real-time Memory Report at c_bands before calling an iterative solver
           314 MiB given to the printing process from OS
             0 MiB allocation reported by mallinfo(arena+hblkhd)
        367159 MiB available memory on the node where the printing process lives
------------------
     ethr =  7.10E-11,  avg # of iterations =  1.9

     negative rho (up, down):  4.270E-04 0.000E+00

     total cpu time spent up to now is      307.7 secs

     total energy              =   -1361.94652279 Ry
     estimated scf accuracy    <       0.00000006 Ry

     iteration # 25     ecut=    80.00 Ry     beta= 0.20
     Davidson diagonalization with overlap

---- Real-time Memory Report at c_bands before calling an iterative solver
           314 MiB given to the printing process from OS
             0 MiB allocation reported by mallinfo(arena+hblkhd)
        367159 MiB available memory on the node where the printing process lives
------------------
     ethr =  6.72E-11,  avg # of iterations =  6.6

     negative rho (up, down):  4.269E-04 0.000E+00

     total cpu time spent up to now is      310.2 secs

     End of self-consistent calculation

          k = 0.0000 0.0000 0.0000 ( 45065 PWs)   bands (ev):

   -24.6173 -24.5855 -23.7728 -23.7315 -23.6852 -23.6609 -20.3081 -20.2502
   -20.2458 -20.2031 -20.1785 -20.1783 -20.1775 -20.1480 -20.1273 -20.1196
   -20.1176 -20.1114 -20.0938 -20.0573 -20.0347 -19.9754 -19.6868 -19.6529
   -19.6190 -19.5776 -12.6926 -12.6669 -10.4522 -10.3377  -9.4912  -9.4560
    -8.9326  -8.8753  -8.4004  -8.3055  -8.2451  -8.1789  -8.1211  -8.0861
    -7.9368  -7.8945  -7.6411  -7.3676

     occupation numbers 
     1.0000   1.0000   1.0000   1.0000   1.0000   1.0000   1.0000   1.0000
     1.0000   1.0000   1.0000   1.0000   1.0000   1.0000   1.0000   1.0000
     1.0000   1.0000   1.0000   1.0000   1.0000   1.0000   1.0000   1.0000
     1.0000   1.0000   1.0000   1.0000   1.0000   1.0000   1.0000   1.0000
     1.0000   1.0000   1.0000   1.0000   1.0000   1.0000   1.0000   1.0000
     1.0000   1.0000   1.0000   1.0000

          k =-0.0062 0.1431 0.0000 ( 45113 PWs)   bands (ev):

   -24.5439 -24.5085 -23.9426 -23.9150 -23.6008 -23.5601 -20.2894 -20.2453
   -20.2295 -20.2110 -20.1971 -20.1782 -20.1713 -20.1457 -20.1317 -20.1305
   -20.1094 -20.1079 -20.0704 -20.0483 -20.0270 -19.9667 -19.7492 -19.6802
   -19.6497 -19.5763 -12.3324 -12.3037 -10.5339 -10.4346  -9.8673  -9.8113
    -9.1839  -9.1261  -8.5138  -8.4634  -8.2093  -8.1397  -7.9067  -7.8666
    -7.8324  -7.7782  -7.6401  -7.3904

     occupation numbers 
     1.0000   1.0000   1.0000   1.0000   1.0000   1.0000   1.0000   1.0000
     1.0000   1.0000   1.0000   1.0000   1.0000   1.0000   1.0000   1.0000
     1.0000   1.0000   1.0000   1.0000   1.0000   1.0000   1.0000   1.0000
     1.0000   1.0000   1.0000   1.0000   1.0000   1.0000   1.0000   1.0000
     1.0000   1.0000   1.0000   1.0000   1.0000   1.0000   1.0000   1.0000
     1.0000   1.0000   1.0000   1.0000

          k = 0.0124-0.2862 0.0000 ( 45174 PWs)   bands (ev):

   -24.4329 -24.3869 -24.0990 -24.0856 -23.5640 -23.5204 -20.2746 -20.2406
   -20.2208 -20.2108 -20.2020 -20.1742 -20.1720 -20.1598 -20.1375 -20.1109
   -20.1079 -20.0972 -20.0484 -20.0366 -20.0192 -19.9575 -19.8228 -19.7537
   -19.6453 -19.5724 -11.7543 -11.7182 -10.7531 -10.6973 -10.3809 -10.3384
    -9.2407  -9.1837  -8.6581  -8.6026  -8.1526  -8.1016  -7.8628  -7.8212
    -7.7165  -7.5724  -7.5248  -7.4108

     occupation numbers 
     1.0000   1.0000   1.0000   1.0000   1.0000   1.0000   1.0000   1.0000
     1.0000   1.0000   1.0000   1.0000   1.0000   1.0000   1.0000   1.0000
     1.0000   1.0000   1.0000   1.0000   1.0000   1.0000   1.0000   1.0000
     1.0000   1.0000   1.0000   1.0000   1.0000   1.0000   1.0000   1.0000
     1.0000   1.0000   1.0000   1.0000   1.0000   1.0000   1.0000   1.0000
     1.0000   1.0000   1.0000   1.0000

          k = 0.1684-0.0368 0.0000 ( 45086 PWs)   bands (ev):

   -24.4893 -24.4570 -23.7839 -23.7476 -23.6727 -23.6411 -20.3032 -20.2443
   -20.2411 -20.2180 -20.1832 -20.1741 -20.1572 -20.1468 -20.1231 -20.1221
   -20.1022 -20.0948 -20.0574 -20.0449 -20.0318 -19.9707 -19.6373 -19.6026
   -19.5656 -19.5327 -12.5467 -12.5198 -10.6676 -10.5995 -10.1972 -10.1468
    -9.2936  -9.2271  -8.6740  -8.5916  -8.3640  -8.3220  -8.1313  -8.0691
    -8.0240  -7.9875  -7.4927  -7.3063

     occupation numbers 
     1.0000   1.0000   1.0000   1.0000   1.0000   1.0000   1.0000   1.0000
     1.0000   1.0000   1.0000   1.0000   1.0000   1.0000   1.0000   1.0000
     1.0000   1.0000   1.0000   1.0000   1.0000   1.0000   1.0000   1.0000
     1.0000   1.0000   1.0000   1.0000   1.0000   1.0000   1.0000   1.0000
     1.0000   1.0000   1.0000   1.0000   1.0000   1.0000   1.0000   1.0000
     1.0000   1.0000   1.0000   1.0000

          k = 0.1622 0.1063 0.0000 ( 45049 PWs)   bands (ev):

   -24.4635 -24.4300 -23.8454 -23.8132 -23.6400 -23.6043 -20.3008 -20.2385
   -20.2365 -20.2128 -20.1800 -20.1703 -20.1673 -20.1483 -20.1241 -20.1195
   -20.1017 -20.0991 -20.0569 -20.0427 -20.0206 -19.9607 -19.7026 -19.6334
   -19.5666 -19.4925 -12.4221 -12.3964 -10.7376 -10.6527 -10.1707 -10.1270
    -9.4211  -9.3456  -8.7560  -8.6763  -8.4201  -8.3674  -8.0587  -7.9839
    -7.9619  -7.9167  -7.4974  -7.3098

     occupation numbers 
     1.0000   1.0000   1.0000   1.0000   1.0000   1.0000   1.0000   1.0000
     1.0000   1.0000   1.0000   1.0000   1.0000   1.0000   1.0000   1.0000
     1.0000   1.0000   1.0000   1.0000   1.0000   1.0000   1.0000   1.0000
     1.0000   1.0000   1.0000   1.0000   1.0000   1.0000   1.0000   1.0000
     1.0000   1.0000   1.0000   1.0000   1.0000   1.0000   1.0000   1.0000
     1.0000   1.0000   1.0000   1.0000

          k = 0.1808-0.3231 0.0000 ( 45092 PWs)   bands (ev):

   -24.3486 -24.3045 -24.0115 -23.9964 -23.5980 -23.5564 -20.2828 -20.2367
   -20.2178 -20.2166 -20.1824 -20.1676 -20.1593 -20.1546 -20.1179 -20.1167
   -20.0929 -20.0921 -20.0495 -20.0371 -19.9894 -19.9272 -19.8236 -19.7540
   -19.5474 -19.4738 -11.8425 -11.8125 -11.0445 -10.9802 -10.2510 -10.2152
    -9.6925  -9.6321  -9.0239  -8.9717  -8.3602  -8.2743  -8.1492  -8.0649
    -7.6220  -7.5818  -7.5032  -7.3189

     occupation numbers 
     1.0000   1.0000   1.0000   1.0000   1.0000   1.0000   1.0000   1.0000
     1.0000   1.0000   1.0000   1.0000   1.0000   1.0000   1.0000   1.0000
     1.0000   1.0000   1.0000   1.0000   1.0000   1.0000   1.0000   1.0000
     1.0000   1.0000   1.0000   1.0000   1.0000   1.0000   1.0000   1.0000
     1.0000   1.0000   1.0000   1.0000   1.0000   1.0000   1.0000   1.0000
     1.0000   1.0000   1.0000   1.0000

          k = 0.1746-0.1799 0.0000 ( 45085 PWs)   bands (ev):

   -24.3921 -24.3528 -23.9534 -23.9329 -23.6103 -23.5690 -20.2822 -20.2372
   -20.2255 -20.2215 -20.1845 -20.1715 -20.1581 -20.1535 -20.1197 -20.1152
   -20.0943 -20.0917 -20.0529 -20.0354 -20.0119 -19.9472 -19.7695 -19.7014
   -19.5584 -19.4868 -12.0707 -12.0361 -10.8871 -10.8403 -10.2399 -10.1866
    -9.6362  -9.5521  -8.9250  -8.8744  -8.3635  -8.2951  -8.1293  -8.0538
    -7.7213  -7.6806  -7.5001  -7.3160

     occupation numbers 
     1.0000   1.0000   1.0000   1.0000   1.0000   1.0000   1.0000   1.0000
     1.0000   1.0000   1.0000   1.0000   1.0000   1.0000   1.0000   1.0000
     1.0000   1.0000   1.0000   1.0000   1.0000   1.0000   1.0000   1.0000
     1.0000   1.0000   1.0000   1.0000   1.0000   1.0000   1.0000   1.0000
     1.0000   1.0000   1.0000   1.0000   1.0000   1.0000   1.0000   1.0000
     1.0000   1.0000   1.0000   1.0000

          k = 0.3368-0.0737 0.0000 ( 45074 PWs)   bands (ev):

   -24.1900 -24.1536 -23.7798 -23.7486 -23.7048 -23.6766 -20.2713 -20.2384
   -20.2159 -20.2110 -20.2001 -20.1650 -20.1530 -20.1374 -20.1177 -20.0895
   -20.0719 -20.0554 -20.0269 -20.0114 -19.9869 -19.9233 -19.6477 -19.5813
   -19.4248 -19.3542 -12.4712 -12.4433 -11.6465 -11.5802 -10.7269 -10.6516
    -9.6447  -9.6012  -8.9722  -8.9060  -8.7004  -8.6205  -8.1690  -8.0690
    -7.8539  -7.8268  -7.5326  -7.4603

     occupation numbers 
     1.0000   1.0000   1.0000   1.0000   1.0000   1.0000   1.0000   1.0000
     1.0000   1.0000   1.0000   1.0000   1.0000   1.0000   1.0000   1.0000
     1.0000   1.0000   1.0000   1.0000   1.0000   1.0000   1.0000   1.0000
     1.0000   1.0000   1.0000   1.0000   1.0000   1.0000   1.0000   1.0000
     1.0000   1.0000   1.0000   1.0000   1.0000   1.0000   1.0000   1.0000
     1.0000   1.0000   1.0000   1.0000

          k = 0.3306 0.0695 0.0000 ( 45046 PWs)   bands (ev):

   -24.2000 -24.1657 -23.7828 -23.7392 -23.6904 -23.6725 -20.2820 -20.2404
   -20.2181 -20.2110 -20.1870 -20.1660 -20.1509 -20.1311 -20.1195 -20.0992
   -20.0675 -20.0581 -20.0295 -20.0117 -19.9931 -19.9304 -19.6232 -19.5540
   -19.4382 -19.3661 -12.5170 -12.4962 -11.6232 -11.5399 -10.7356 -10.6736
    -9.6698  -9.6360  -8.9296  -8.8664  -8.5600  -8.5066  -8.2596  -8.1241
    -7.8870  -7.8492  -7.5297  -7.4596

     occupation numbers 
     1.0000   1.0000   1.0000   1.0000   1.0000   1.0000   1.0000   1.0000
     1.0000   1.0000   1.0000   1.0000   1.0000   1.0000   1.0000   1.0000
     1.0000   1.0000   1.0000   1.0000   1.0000   1.0000   1.0000   1.0000
     1.0000   1.0000   1.0000   1.0000   1.0000   1.0000   1.0000   1.0000
     1.0000   1.0000   1.0000   1.0000   1.0000   1.0000   1.0000   1.0000
     1.0000   1.0000   1.0000   1.0000

          k = 0.3492-0.3599 0.0000 ( 45085 PWs)   bands (ev):

   -24.1334 -24.0904 -23.8557 -23.8352 -23.6875 -23.6549 -20.2675 -20.2398
   -20.2093 -20.2002 -20.1779 -20.1675 -20.1478 -20.1264 -20.1185 -20.0979
   -20.0646 -20.0567 -20.0302 -20.0091 -19.9462 -19.8829 -19.7769 -19.7057
   -19.3876 -19.3143 -12.2606 -12.2260 -11.8333 -11.7596 -10.4470 -10.3960
    -9.8092  -9.7798  -9.0932  -9.0409  -8.7752  -8.7269  -8.2467  -8.1131
    -7.7184  -7.6657  -7.5337  -7.4706

     occupation numbers 
     1.0000   1.0000   1.0000   1.0000   1.0000   1.0000   1.0000   1.0000
     1.0000   1.0000   1.0000   1.0000   1.0000   1.0000   1.0000   1.0000
     1.0000   1.0000   1.0000   1.0000   1.0000   1.0000   1.0000   1.0000
     1.0000   1.0000   1.0000   1.0000   1.0000   1.0000   1.0000   1.0000
     1.0000   1.0000   1.0000   1.0000   1.0000   1.0000   1.0000   1.0000
     1.0000   1.0000   1.0000   1.0000

          k = 0.3430-0.2168 0.0000 ( 45092 PWs)   bands (ev):

   -24.1185 -24.0696 -23.8633 -23.8543 -23.6961 -23.6581 -20.2577 -20.2327
   -20.2149 -20.1979 -20.1923 -20.1647 -20.1506 -20.1381 -20.1173 -20.0844
   -20.0658 -20.0551 -20.0220 -20.0070 -19.9300 -19.8616 -19.8073 -19.7433
   -19.3810 -19.3090 -12.1848 -12.1304 -11.8801 -11.8350 -10.3650 -10.3081
    -9.9250  -9.8833  -9.1546  -9.1112  -8.7026  -8.6504  -8.2962  -8.1654
    -7.6504  -7.6164  -7.5595  -7.4860

     occupation numbers 
     1.0000   1.0000   1.0000   1.0000   1.0000   1.0000   1.0000   1.0000
     1.0000   1.0000   1.0000   1.0000   1.0000   1.0000   1.0000   1.0000
     1.0000   1.0000   1.0000   1.0000   1.0000   1.0000   1.0000   1.0000
     1.0000   1.0000   1.0000   1.0000   1.0000   1.0000   1.0000   1.0000
     1.0000   1.0000   1.0000   1.0000   1.0000   1.0000   1.0000   1.0000
     1.0000   1.0000   1.0000   1.0000

          k =-0.5052 0.1105 0.0000 ( 45134 PWs)   bands (ev):

   -23.9572 -23.8947 -23.8199 -23.8119 -23.7573 -23.7344 -20.2632 -20.2304
   -20.2241 -20.1949 -20.1908 -20.1694 -20.1630 -20.1214 -20.1113 -20.0638
   -20.0499 -20.0464 -20.0125 -19.9762 -19.9075 -19.8458 -19.7161 -19.6540
   -19.3265 -19.2553 -12.5780 -12.5351 -12.2255 -12.1682 -10.5728 -10.5136
    -9.9083  -9.8659  -9.1128  -9.0537  -8.5240  -8.5007  -8.2024  -8.0968
    -7.9521  -7.8349  -7.6269  -7.5789

     occupation numbers 
     1.0000   1.0000   1.0000   1.0000   1.0000   1.0000   1.0000   1.0000
     1.0000   1.0000   1.0000   1.0000   1.0000   1.0000   1.0000   1.0000
     1.0000   1.0000   1.0000   1.0000   1.0000   1.0000   1.0000   1.0000
     1.0000   1.0000   1.0000   1.0000   1.0000   1.0000   1.0000   1.0000
     1.0000   1.0000   1.0000   1.0000   1.0000   1.0000   1.0000   1.0000
     1.0000   1.0000   1.0000   1.0000

          k =-0.5114 0.2536 0.0000 ( 45094 PWs)   bands (ev):

   -23.9464 -23.8868 -23.8451 -23.8239 -23.7424 -23.7295 -20.2608 -20.2414
   -20.2244 -20.1928 -20.1747 -20.1709 -20.1648 -20.1173 -20.1165 -20.0694
   -20.0536 -20.0301 -20.0079 -19.9682 -19.9194 -19.8544 -19.7219 -19.6560
   -19.3278 -19.2560 -12.5804 -12.5347 -12.2311 -12.1722 -10.4340 -10.3888
   -10.1244 -10.0845  -8.8475  -8.8077  -8.6786  -8.6221  -8.1397  -8.0565
    -8.0390  -7.9210  -7.6104  -7.5670

     occupation numbers 
     1.0000   1.0000   1.0000   1.0000   1.0000   1.0000   1.0000   1.0000
     1.0000   1.0000   1.0000   1.0000   1.0000   1.0000   1.0000   1.0000
     1.0000   1.0000   1.0000   1.0000   1.0000   1.0000   1.0000   1.0000
     1.0000   1.0000   1.0000   1.0000   1.0000   1.0000   1.0000   1.0000
     1.0000   1.0000   1.0000   1.0000   1.0000   1.0000   1.0000   1.0000
     1.0000   1.0000   1.0000   1.0000

          k =-0.4929-0.1758 0.0000 ( 45008 PWs)   bands (ev):

   -23.9303 -23.8750 -23.8709 -23.8392 -23.7321 -23.7253 -20.2645 -20.2477
   -20.2225 -20.1975 -20.1731 -20.1626 -20.1524 -20.1022 -20.1001 -20.0947
   -20.0446 -20.0227 -20.0216 -19.9691 -19.9331 -19.8622 -19.7234 -19.6535
   -19.3295 -19.2573 -12.5810 -12.5329 -12.2355 -12.1764 -10.5348 -10.4807
    -9.9106  -9.8921  -9.0174  -8.9547  -8.6164  -8.5653  -8.1850  -8.0907
    -8.0192  -7.8852  -7.6005  -7.5550

     occupation numbers 
     1.0000   1.0000   1.0000   1.0000   1.0000   1.0000   1.0000   1.0000
     1.0000   1.0000   1.0000   1.0000   1.0000   1.0000   1.0000   1.0000
     1.0000   1.0000   1.0000   1.0000   1.0000   1.0000   1.0000   1.0000
     1.0000   1.0000   1.0000   1.0000   1.0000   1.0000   1.0000   1.0000
     1.0000   1.0000   1.0000   1.0000   1.0000   1.0000   1.0000   1.0000
     1.0000   1.0000   1.0000   1.0000

     highest occupied level (ev):    -7.3063

!    total energy              =   -1361.94652280 Ry
     estimated scf accuracy    <          8.5E-09 Ry

     convergence has been achieved in  25 iterations

     negative rho (up, down):  4.269E-04 0.000E+00

     Forces acting on atoms (cartesian axes, Ry/au):

     atom    1 type  1   force =    -0.02124030   -0.02263065   -0.00125588
     atom    2 type  1   force =    -0.01554057    0.02518094    0.00734562
     atom    3 type  2   force =    -0.00912135    0.02096229   -0.04846235
     atom    4 type  2   force =     0.05220611   -0.00720241    0.00169892
     atom    5 type  2   force =    -0.00633078   -0.01727675    0.03988987
     atom    6 type  1   force =    -0.01788944   -0.02657130   -0.00447111
     atom    7 type  1   force =    -0.02051053    0.02619349    0.00359148
     atom    8 type  2   force =    -0.00720743    0.01704090   -0.03983813
     atom    9 type  2   force =     0.04807315    0.00597903   -0.00113454
     atom   10 type  2   force =    -0.00243884   -0.02167555    0.04263611
     The non-local contrib.  to forces
     atom    1 type  1   force =     0.22976123    0.16021244    0.02182373
     atom    2 type  1   force =     0.22420830   -0.08139564   -0.07062846
     atom    3 type  2   force =    -0.13301709    0.43093935   -1.12750469
     atom    4 type  2   force =     1.10382417    0.11947164   -0.02515962
     atom    5 type  2   force =    -0.06795912   -0.44819292    1.08280070
     atom    6 type  1   force =     0.22325497    0.14244667    0.04952046
     atom    7 type  1   force =     0.20320464   -0.10273414   -0.04431055
     atom    8 type  2   force =    -0.14154615    0.42573876   -1.08038045
     atom    9 type  2   force =     1.11007157    0.11054598   -0.00018885
     atom   10 type  2   force =    -0.08267172   -0.45681334    1.10743636
     The ionic contribution  to forces
     atom    1 type  1   force =     1.82849619   11.01479056  -86.90638767
     atom    2 type  1   force =     2.68012844   -9.97643381 -131.97760577
     atom    3 type  2   force =     0.33834979   -1.68299368  -14.32091360
     atom    4 type  2   force =    -4.91464840   -0.67124190  -50.06973573
     atom    5 type  2   force =     0.02692113    2.24112403  -86.56952313
     atom    6 type  1   force =     1.91099811   10.34722328  131.77324162
     atom    7 type  1   force =     2.50125276  -10.54973895   86.84136123
     atom    8 type  2   force =     0.41064581   -2.30435663   86.66269974
     atom    9 type  2   force =    -4.99750381    0.02451910   49.87485130
     atom   10 type  2   force =     0.21535997    1.55710800   14.69201203
     The local contribution  to forces
     atom    1 type  1   force =    -2.07846915  -11.19797394   86.88321802
     atom    2 type  1   force =    -2.91884610   10.08475272  132.05520066
     atom    3 type  2   force =    -0.21585178    1.27707615   15.39023765
     atom    4 type  2   force =     3.87335279    0.54559410   50.09638205
     atom    5 type  2   force =     0.03391887   -1.81440554   85.53584223
     atom    6 type  1   force =    -2.15125333  -10.51712143 -131.82706872
     atom    7 type  1   force =    -2.72455643   10.68019857  -86.79357549
     atom    8 type  2   force =    -0.27775756    1.89967115  -85.63135710
     atom    9 type  2   force =     3.94586585   -0.12802639  -49.87578605
     atom   10 type  2   force =    -0.13600364   -1.12627050  -15.74724820
     The core correction contribution to forces
     atom    1 type  1   force =    -0.00096857    0.00043423    0.00008139
     atom    2 type  1   force =    -0.00095150   -0.00184831    0.00039923
     atom    3 type  2   force =     0.00136008   -0.00405451    0.00971592
     atom    4 type  2   force =    -0.01034950   -0.00103239    0.00022330
     atom    5 type  2   force =     0.00075742    0.00419400   -0.00922696
     atom    6 type  1   force =    -0.00090909    0.00100023   -0.00012733
     atom    7 type  1   force =    -0.00035492   -0.00164234    0.00020001
     atom    8 type  2   force =     0.00142375   -0.00397941    0.00920249
     atom    9 type  2   force =    -0.01036982   -0.00108358    0.00002884
     atom   10 type  2   force =     0.00084986    0.00430250   -0.00947978
     The Hubbard contrib.    to forces
     atom    1 type  1   force =     0.00000000    0.00000000    0.00000000
     atom    2 type  1   force =     0.00000000    0.00000000    0.00000000
     atom    3 type  2   force =     0.00000000    0.00000000    0.00000000
     atom    4 type  2   force =     0.00000000    0.00000000    0.00000000
     atom    5 type  2   force =     0.00000000    0.00000000    0.00000000
     atom    6 type  1   force =     0.00000000    0.00000000    0.00000000
     atom    7 type  1   force =     0.00000000    0.00000000    0.00000000
     atom    8 type  2   force =     0.00000000    0.00000000    0.00000000
     atom    9 type  2   force =     0.00000000    0.00000000    0.00000000
     atom   10 type  2   force =     0.00000000    0.00000000    0.00000000
     The SCF correction term to forces
     atom    1 type  1   force =    -0.00008758   -0.00009425    0.00001181
     atom    2 type  1   force =    -0.00010729    0.00010568   -0.00001688
     atom    3 type  2   force =     0.00001008   -0.00000533    0.00000553
     atom    4 type  2   force =    -0.00000053    0.00000583   -0.00000792
     atom    5 type  2   force =     0.00000335    0.00000338    0.00000019
     atom    6 type  1   force =    -0.00000767   -0.00012035   -0.00003399
     atom    7 type  1   force =    -0.00008415    0.00011005   -0.00008057
     atom    8 type  2   force =    -0.00000085   -0.00003329    0.00000035
     atom    9 type  2   force =    -0.00001821    0.00002361   -0.00003661
     atom   10 type  2   force =    -0.00000088   -0.00000252   -0.00008114

     Total force =     0.134954     Total SCF correction =     0.000302


     Computing stress (Cartesian axis) and pressure


     negative rho (up, down):  4.269E-04 0.000E+00
          total   stress  (Ry/bohr**3)                   (kbar)     P=      -33.21
  -0.00027470   0.00000650  -0.00000499          -40.41        0.96       -0.73
   0.00000650  -0.00030562   0.00002514            0.96      -44.96        3.70
  -0.00000499   0.00002514  -0.00009688           -0.73        3.70      -14.25

     kinetic stress (kbar)   4658.13      1.99     -1.42
                                1.99   4657.68      1.21
                               -1.42      1.21   4735.87

     local   stress (kbar)-496312.60    -76.72    -18.77
                              -76.72-492473.53   -480.21
                              -18.77   -480.21 493591.53

     nonloc. stress (kbar)      1.24      1.37     -1.18
                                1.37    -10.03     13.44
                               -1.18     13.44     84.36

     hartree stress (kbar) 250264.44     44.90      4.49
                               44.90 248443.54    237.58
                                4.49    237.58-240932.08

     exc-cor stress (kbar)    604.98     -0.11      0.09
                               -0.11    605.42     -0.89
                                0.09     -0.89    596.79

     corecor stress (kbar)  -2383.77      0.01     -0.00
                                0.01  -2383.84      0.08
                               -0.00      0.08  -2383.66

     ewald   stress (kbar) 243127.18     29.52     16.06
                               29.52 241115.80    232.50
                               16.06    232.50-255707.06

     hubbard stress (kbar)      0.00      0.00      0.00
                                0.00      0.00      0.00
                                0.00      0.00      0.00

     DFT-D   stress (kbar)      0.00      0.00      0.00
                                0.00      0.00      0.00
                                0.00      0.00      0.00

     XDM     stress (kbar)      0.00      0.00      0.00
                                0.00      0.00      0.00
                                0.00      0.00      0.00

     dft-nl  stress (kbar)      0.00      0.00      0.00
                                0.00      0.00      0.00
                                0.00      0.00      0.00

     TS-vdW  stress (kbar)      0.00      0.00      0.00
                                0.00      0.00      0.00
                                0.00      0.00      0.00


                                0.00      0.00      0.00
                                0.00      0.00      0.00


                                0.00      0.00      0.00


     Entering Dynamics:    iteration =     3
                           time      =   0.0029 pico-seconds


     Canonical sampling velocity rescaling

ATOMIC_POSITIONS (crystal)
Ga            0.8296669240        0.7190571446        0.4264015490
Ga            0.5166495587        0.3018215098        0.4001267083
O             0.3949911205        0.5609054928        0.4501555977
O             0.4230532091        0.0091820486        0.4136814042
O             0.9414553425        0.4554986818        0.3772256824
Ga            0.8267980943        0.7202477540        0.5995706217
Ga            0.5185379183        0.3017549282        0.5735068511
O             0.3885738536        0.5644812051        0.6226499137
O             0.4309775539        0.0052067593        0.5862105520
O             0.9369799570        0.4572560550        0.5505937307


     kinetic energy (Ekin) =           0.02566205 Ry
     temperature           =         300.12725138 K 
     Ekin + Etot (const)   =       -1361.92086074 Ry
     Ions kinetic stress =            0.67 (kbar)
                                      0.76          -0.10           0.11
                                     -0.10           0.61           0.27
                                      0.11           0.27           0.65



     Linear momentum :    0.0000000000   -0.0000000000   -0.0000000000

     Writing config-only to output data dir ./tmp/Ga2O3-BL-001-300K.save/

     second order wave-functions extrapolation
     second order charge density extrapolation

     negative rho (up, down):  4.294E-04 0.000E+00

     total cpu time spent up to now is      319.9 secs

     Self-consistent Calculation

     iteration #  1     ecut=    80.00 Ry     beta= 0.20
     Davidson diagonalization with overlap

---- Real-time Memory Report at c_bands before calling an iterative solver
           314 MiB given to the printing process from OS
             0 MiB allocation reported by mallinfo(arena+hblkhd)
        367111 MiB available memory on the node where the printing process lives
------------------
     ethr =  1.00E-06,  avg # of iterations =  3.0

     Threshold (ethr) on eigenvalues was too large:
     Diagonalizing with lowered threshold

     Davidson diagonalization with overlap

---- Real-time Memory Report at c_bands before calling an iterative solver
           314 MiB given to the printing process from OS
             0 MiB allocation reported by mallinfo(arena+hblkhd)
        367136 MiB available memory on the node where the printing process lives
------------------
     ethr =  9.16E-09,  avg # of iterations =  9.7

     negative rho (up, down):  4.291E-04 0.000E+00

     total cpu time spent up to now is      326.6 secs

     total energy              =   -1361.94740266 Ry
     estimated scf accuracy    <       0.00000396 Ry

     iteration #  2     ecut=    80.00 Ry     beta= 0.20
     Davidson diagonalization with overlap

---- Real-time Memory Report at c_bands before calling an iterative solver
           314 MiB given to the printing process from OS
             0 MiB allocation reported by mallinfo(arena+hblkhd)
        367126 MiB available memory on the node where the printing process lives
------------------
     ethr =  4.50E-09,  avg # of iterations =  2.0

     negative rho (up, down):  4.288E-04 0.000E+00

     total cpu time spent up to now is      328.5 secs

     total energy              =   -1361.94740134 Ry
     estimated scf accuracy    <       0.00000184 Ry

     iteration #  3     ecut=    80.00 Ry     beta= 0.20
     Davidson diagonalization with overlap

---- Real-time Memory Report at c_bands before calling an iterative solver
           314 MiB given to the printing process from OS
             0 MiB allocation reported by mallinfo(arena+hblkhd)
        367126 MiB available memory on the node where the printing process lives
------------------
     ethr =  2.09E-09,  avg # of iterations =  9.6

     negative rho (up, down):  4.286E-04 0.000E+00

     total cpu time spent up to now is      332.1 secs

     total energy              =   -1361.94740252 Ry
     estimated scf accuracy    <       0.00000096 Ry

     iteration #  4     ecut=    80.00 Ry     beta= 0.20
     Davidson diagonalization with overlap

---- Real-time Memory Report at c_bands before calling an iterative solver
           314 MiB given to the printing process from OS
             0 MiB allocation reported by mallinfo(arena+hblkhd)
        367130 MiB available memory on the node where the printing process lives
------------------
     ethr =  1.09E-09,  avg # of iterations =  5.3

     negative rho (up, down):  4.284E-04 0.000E+00

     total cpu time spent up to now is      334.6 secs

     total energy              =   -1361.94740272 Ry
     estimated scf accuracy    <       0.00000109 Ry

     iteration #  5     ecut=    80.00 Ry     beta= 0.20
     Davidson diagonalization with overlap

---- Real-time Memory Report at c_bands before calling an iterative solver
           314 MiB given to the printing process from OS
             0 MiB allocation reported by mallinfo(arena+hblkhd)
        367130 MiB available memory on the node where the printing process lives
------------------
     ethr =  1.09E-09,  avg # of iterations =  2.0

     negative rho (up, down):  4.283E-04 0.000E+00

     total cpu time spent up to now is      336.5 secs

     total energy              =   -1361.94740278 Ry
     estimated scf accuracy    <       0.00000094 Ry

     iteration #  6     ecut=    80.00 Ry     beta= 0.20
     Davidson diagonalization with overlap

---- Real-time Memory Report at c_bands before calling an iterative solver
           314 MiB given to the printing process from OS
             0 MiB allocation reported by mallinfo(arena+hblkhd)
        367120 MiB available memory on the node where the printing process lives
------------------
     ethr =  1.07E-09,  avg # of iterations =  1.6

     negative rho (up, down):  4.282E-04 0.000E+00

     total cpu time spent up to now is      338.3 secs

     total energy              =   -1361.94740307 Ry
     estimated scf accuracy    <       0.00000109 Ry

     iteration #  7     ecut=    80.00 Ry     beta= 0.20
     Davidson diagonalization with overlap

---- Real-time Memory Report at c_bands before calling an iterative solver
           314 MiB given to the printing process from OS
             0 MiB allocation reported by mallinfo(arena+hblkhd)
        367122 MiB available memory on the node where the printing process lives
------------------
     ethr =  1.07E-09,  avg # of iterations =  6.7

     negative rho (up, down):  4.281E-04 0.000E+00

     total cpu time spent up to now is      341.1 secs

     total energy              =   -1361.94740334 Ry
     estimated scf accuracy    <       0.00000326 Ry

     iteration #  8     ecut=    80.00 Ry     beta= 0.20
     Davidson diagonalization with overlap

---- Real-time Memory Report at c_bands before calling an iterative solver
           314 MiB given to the printing process from OS
             0 MiB allocation reported by mallinfo(arena+hblkhd)
        367122 MiB available memory on the node where the printing process lives
------------------
     ethr =  1.07E-09,  avg # of iterations =  2.0

     negative rho (up, down):  4.280E-04 0.000E+00

     total cpu time spent up to now is      342.9 secs

     total energy              =   -1361.94740467 Ry
     estimated scf accuracy    <       0.00000339 Ry

     iteration #  9     ecut=    80.00 Ry     beta= 0.20
     Davidson diagonalization with overlap

---- Real-time Memory Report at c_bands before calling an iterative solver
           314 MiB given to the printing process from OS
             0 MiB allocation reported by mallinfo(arena+hblkhd)
        367122 MiB available memory on the node where the printing process lives
------------------
     c_bands:  1 eigenvalues not converged
     ethr =  1.07E-09,  avg # of iterations = 10.8

     negative rho (up, down):  4.279E-04 0.000E+00

     total cpu time spent up to now is      347.2 secs

     total energy              =   -1361.94740416 Ry
     estimated scf accuracy    <       0.00001337 Ry

     iteration # 10     ecut=    80.00 Ry     beta= 0.20
     Davidson diagonalization with overlap

---- Real-time Memory Report at c_bands before calling an iterative solver
           314 MiB given to the printing process from OS
             0 MiB allocation reported by mallinfo(arena+hblkhd)
        367115 MiB available memory on the node where the printing process lives
------------------
     ethr =  1.07E-09,  avg # of iterations =  4.4

     negative rho (up, down):  4.278E-04 0.000E+00

     total cpu time spent up to now is      349.5 secs

     total energy              =   -1361.94740071 Ry
     estimated scf accuracy    <       0.00000910 Ry

     iteration # 11     ecut=    80.00 Ry     beta= 0.20
     Davidson diagonalization with overlap

---- Real-time Memory Report at c_bands before calling an iterative solver
           314 MiB given to the printing process from OS
             0 MiB allocation reported by mallinfo(arena+hblkhd)
        367115 MiB available memory on the node where the printing process lives
------------------
     c_bands:  1 eigenvalues not converged
     ethr =  1.07E-09,  avg # of iterations = 12.8

     negative rho (up, down):  4.278E-04 0.000E+00

     total cpu time spent up to now is      354.8 secs

     total energy              =   -1361.94740309 Ry
     estimated scf accuracy    <       0.00000458 Ry

     iteration # 12     ecut=    80.00 Ry     beta= 0.20
     Davidson diagonalization with overlap

---- Real-time Memory Report at c_bands before calling an iterative solver
           314 MiB given to the printing process from OS
             0 MiB allocation reported by mallinfo(arena+hblkhd)
        367117 MiB available memory on the node where the printing process lives
------------------
     ethr =  1.07E-09,  avg # of iterations =  6.1

     negative rho (up, down):  4.278E-04 0.000E+00

     total cpu time spent up to now is      357.5 secs

     total energy              =   -1361.94740313 Ry
     estimated scf accuracy    <       0.00000126 Ry

     iteration # 13     ecut=    80.00 Ry     beta= 0.20
     Davidson diagonalization with overlap

---- Real-time Memory Report at c_bands before calling an iterative solver
           314 MiB given to the printing process from OS
             0 MiB allocation reported by mallinfo(arena+hblkhd)
        367116 MiB available memory on the node where the printing process lives
------------------
     ethr =  1.07E-09,  avg # of iterations =  2.0

     negative rho (up, down):  4.278E-04 0.000E+00

     total cpu time spent up to now is      359.4 secs

     total energy              =   -1361.94740312 Ry
     estimated scf accuracy    <       0.00000094 Ry

     iteration # 14     ecut=    80.00 Ry     beta= 0.20
     Davidson diagonalization with overlap

---- Real-time Memory Report at c_bands before calling an iterative solver
           314 MiB given to the printing process from OS
             0 MiB allocation reported by mallinfo(arena+hblkhd)
        367116 MiB available memory on the node where the printing process lives
------------------
     ethr =  1.06E-09,  avg # of iterations =  2.0

     negative rho (up, down):  4.278E-04 0.000E+00

     total cpu time spent up to now is      361.3 secs

     total energy              =   -1361.94740307 Ry
     estimated scf accuracy    <       0.00000050 Ry

     iteration # 15     ecut=    80.00 Ry     beta= 0.20
     Davidson diagonalization with overlap

---- Real-time Memory Report at c_bands before calling an iterative solver
           314 MiB given to the printing process from OS
             0 MiB allocation reported by mallinfo(arena+hblkhd)
        367116 MiB available memory on the node where the printing process lives
------------------
     ethr =  5.71E-10,  avg # of iterations =  5.6

     negative rho (up, down):  4.278E-04 0.000E+00

     total cpu time spent up to now is      363.7 secs

     total energy              =   -1361.94740316 Ry
     estimated scf accuracy    <       0.00000012 Ry

     iteration # 16     ecut=    80.00 Ry     beta= 0.20
     Davidson diagonalization with overlap

---- Real-time Memory Report at c_bands before calling an iterative solver
           314 MiB given to the printing process from OS
             0 MiB allocation reported by mallinfo(arena+hblkhd)
        367116 MiB available memory on the node where the printing process lives
------------------
     ethr =  1.31E-10,  avg # of iterations =  9.1

     negative rho (up, down):  4.277E-04 0.000E+00

     total cpu time spent up to now is      367.0 secs

     total energy              =   -1361.94740328 Ry
     estimated scf accuracy    <       0.00000002 Ry

     iteration # 17     ecut=    80.00 Ry     beta= 0.20
     Davidson diagonalization with overlap

---- Real-time Memory Report at c_bands before calling an iterative solver
           314 MiB given to the printing process from OS
             0 MiB allocation reported by mallinfo(arena+hblkhd)
        367117 MiB available memory on the node where the printing process lives
------------------
     c_bands:  5 eigenvalues not converged
     c_bands:  3 eigenvalues not converged
     ethr =  2.80E-11,  avg # of iterations = 16.9

     negative rho (up, down):  4.277E-04 0.000E+00

     total cpu time spent up to now is      373.7 secs

     total energy              =   -1361.94740332 Ry
     estimated scf accuracy    <       0.00000005 Ry

     iteration # 18     ecut=    80.00 Ry     beta= 0.20
     Davidson diagonalization with overlap

---- Real-time Memory Report at c_bands before calling an iterative solver
           314 MiB given to the printing process from OS
             0 MiB allocation reported by mallinfo(arena+hblkhd)
        367119 MiB available memory on the node where the printing process lives
------------------
     ethr =  2.80E-11,  avg # of iterations =  2.0

     negative rho (up, down):  4.277E-04 0.000E+00

     total cpu time spent up to now is      375.6 secs

     total energy              =   -1361.94740333 Ry
     estimated scf accuracy    <       0.00000003 Ry

     iteration # 19     ecut=    80.00 Ry     beta= 0.20
     Davidson diagonalization with overlap

---- Real-time Memory Report at c_bands before calling an iterative solver
           314 MiB given to the printing process from OS
             0 MiB allocation reported by mallinfo(arena+hblkhd)
        367119 MiB available memory on the node where the printing process lives
------------------
     ethr =  2.80E-11,  avg # of iterations =  1.9

     negative rho (up, down):  4.277E-04 0.000E+00

     total cpu time spent up to now is      377.5 secs

     total energy              =   -1361.94740334 Ry
     estimated scf accuracy    <       0.00000003 Ry

     iteration # 20     ecut=    80.00 Ry     beta= 0.20
     Davidson diagonalization with overlap

---- Real-time Memory Report at c_bands before calling an iterative solver
           314 MiB given to the printing process from OS
             0 MiB allocation reported by mallinfo(arena+hblkhd)
        367116 MiB available memory on the node where the printing process lives
------------------
     ethr =  2.80E-11,  avg # of iterations =  5.0

     negative rho (up, down):  4.277E-04 0.000E+00

     total cpu time spent up to now is      380.2 secs

     End of self-consistent calculation

          k = 0.0000 0.0000 0.0000 ( 45065 PWs)   bands (ev):

   -24.6151 -24.5675 -23.7733 -23.7174 -23.6774 -23.6307 -20.3049 -20.2440
   -20.2150 -20.2043 -20.1762 -20.1728 -20.1395 -20.1386 -20.1136 -20.0858
   -20.0796 -20.0721 -20.0569 -20.0267 -20.0190 -19.9367 -19.6790 -19.6488
   -19.5752 -19.5348 -12.6941 -12.6573 -10.4383 -10.2951  -9.4824  -9.4333
    -8.9234  -8.8359  -8.3955  -8.2989  -8.2415  -8.1523  -8.1149  -8.0656
    -7.9344  -7.8699  -7.6227  -7.3414

     occupation numbers 
     1.0000   1.0000   1.0000   1.0000   1.0000   1.0000   1.0000   1.0000
     1.0000   1.0000   1.0000   1.0000   1.0000   1.0000   1.0000   1.0000
     1.0000   1.0000   1.0000   1.0000   1.0000   1.0000   1.0000   1.0000
     1.0000   1.0000   1.0000   1.0000   1.0000   1.0000   1.0000   1.0000
     1.0000   1.0000   1.0000   1.0000   1.0000   1.0000   1.0000   1.0000
     1.0000   1.0000   1.0000   1.0000

          k =-0.0062 0.1431 0.0000 ( 45113 PWs)   bands (ev):

   -24.5421 -24.4891 -23.9394 -23.8989 -23.5961 -23.5338 -20.2867 -20.2434
   -20.2096 -20.1939 -20.1932 -20.1676 -20.1393 -20.1249 -20.1077 -20.1029
   -20.0903 -20.0692 -20.0325 -20.0196 -20.0100 -19.9279 -19.7416 -19.6456
   -19.6360 -19.5339 -12.3327 -12.2909 -10.5223 -10.3944  -9.8570  -9.7925
    -9.1858  -9.0977  -8.5024  -8.4323  -8.2012  -8.1188  -7.9069  -7.8514
    -7.8203  -7.7563  -7.6225  -7.3645

     occupation numbers 
     1.0000   1.0000   1.0000   1.0000   1.0000   1.0000   1.0000   1.0000
     1.0000   1.0000   1.0000   1.0000   1.0000   1.0000   1.0000   1.0000
     1.0000   1.0000   1.0000   1.0000   1.0000   1.0000   1.0000   1.0000
     1.0000   1.0000   1.0000   1.0000   1.0000   1.0000   1.0000   1.0000
     1.0000   1.0000   1.0000   1.0000   1.0000   1.0000   1.0000   1.0000
     1.0000   1.0000   1.0000   1.0000

          k = 0.0124-0.2862 0.0000 ( 45174 PWs)   bands (ev):

   -24.4326 -24.3629 -24.0939 -24.0745 -23.5596 -23.4937 -20.2730 -20.2386
   -20.2177 -20.1976 -20.1737 -20.1681 -20.1350 -20.1232 -20.1053 -20.0977
   -20.0918 -20.0689 -20.0124 -20.0095 -19.9996 -19.9185 -19.8150 -19.7097
   -19.6410 -19.5299 -11.7509 -11.6977 -10.7512 -10.6748 -10.3727 -10.3086
    -9.2431  -9.1603  -8.6417  -8.5691  -8.1502  -8.0705  -7.8595  -7.7986
    -7.7001  -7.5709  -7.4999  -7.3868

     occupation numbers 
     1.0000   1.0000   1.0000   1.0000   1.0000   1.0000   1.0000   1.0000
     1.0000   1.0000   1.0000   1.0000   1.0000   1.0000   1.0000   1.0000
     1.0000   1.0000   1.0000   1.0000   1.0000   1.0000   1.0000   1.0000
     1.0000   1.0000   1.0000   1.0000   1.0000   1.0000   1.0000   1.0000
     1.0000   1.0000   1.0000   1.0000   1.0000   1.0000   1.0000   1.0000
     1.0000   1.0000   1.0000   1.0000

          k = 0.1684-0.0368 0.0000 ( 45086 PWs)   bands (ev):

   -24.4876 -24.4384 -23.7834 -23.7317 -23.6655 -23.6129 -20.3003 -20.2397
   -20.2174 -20.2089 -20.1779 -20.1529 -20.1356 -20.1201 -20.1066 -20.0934
   -20.0834 -20.0562 -20.0244 -20.0187 -20.0068 -19.9317 -19.6335 -19.5948
   -19.5236 -19.4890 -12.5478 -12.5108 -10.6569 -10.5538 -10.1905 -10.1235
    -9.2869  -9.1959  -8.6692  -8.5681  -8.3602  -8.3053  -8.1268  -8.0463
    -8.0170  -7.9649  -7.4738  -7.2738

     occupation numbers 
     1.0000   1.0000   1.0000   1.0000   1.0000   1.0000   1.0000   1.0000
     1.0000   1.0000   1.0000   1.0000   1.0000   1.0000   1.0000   1.0000
     1.0000   1.0000   1.0000   1.0000   1.0000   1.0000   1.0000   1.0000
     1.0000   1.0000   1.0000   1.0000   1.0000   1.0000   1.0000   1.0000
     1.0000   1.0000   1.0000   1.0000   1.0000   1.0000   1.0000   1.0000
     1.0000   1.0000   1.0000   1.0000

          k = 0.1622 0.1063 0.0000 ( 45049 PWs)   bands (ev):

   -24.4618 -24.4107 -23.8438 -23.7968 -23.6340 -23.5774 -20.2993 -20.2352
   -20.2094 -20.2022 -20.1742 -20.1642 -20.1325 -20.1212 -20.1093 -20.0905
   -20.0811 -20.0621 -20.0182 -20.0129 -20.0046 -19.9220 -19.6964 -19.5902
   -19.5616 -19.4494 -12.4217 -12.3864 -10.7358 -10.6102 -10.1591 -10.1028
    -9.4098  -9.3222  -8.7462  -8.6533  -8.4178  -8.3408  -8.0512  -7.9726
    -7.9502  -7.8955  -7.4789  -7.2769

     occupation numbers 
     1.0000   1.0000   1.0000   1.0000   1.0000   1.0000   1.0000   1.0000
     1.0000   1.0000   1.0000   1.0000   1.0000   1.0000   1.0000   1.0000
     1.0000   1.0000   1.0000   1.0000   1.0000   1.0000   1.0000   1.0000
     1.0000   1.0000   1.0000   1.0000   1.0000   1.0000   1.0000   1.0000
     1.0000   1.0000   1.0000   1.0000   1.0000   1.0000   1.0000   1.0000
     1.0000   1.0000   1.0000   1.0000

          k = 0.1808-0.3231 0.0000 ( 45092 PWs)   bands (ev):

   -24.3483 -24.2805 -24.0073 -23.9850 -23.5931 -23.5293 -20.2818 -20.2356
   -20.2103 -20.1806 -20.1788 -20.1508 -20.1283 -20.1219 -20.1137 -20.0841
   -20.0788 -20.0546 -20.0102 -19.9998 -19.9834 -19.8884 -19.8171 -19.7108
   -19.5424 -19.4304 -11.8383 -11.7923 -11.0443 -10.9532 -10.2448 -10.1886
    -9.6894  -9.6123  -9.0118  -8.9393  -8.3543  -8.2498  -8.1400  -8.0395
    -7.6220  -7.5610  -7.4843  -7.2862

     occupation numbers 
     1.0000   1.0000   1.0000   1.0000   1.0000   1.0000   1.0000   1.0000
     1.0000   1.0000   1.0000   1.0000   1.0000   1.0000   1.0000   1.0000
     1.0000   1.0000   1.0000   1.0000   1.0000   1.0000   1.0000   1.0000
     1.0000   1.0000   1.0000   1.0000   1.0000   1.0000   1.0000   1.0000
     1.0000   1.0000   1.0000   1.0000   1.0000   1.0000   1.0000   1.0000
     1.0000   1.0000   1.0000   1.0000

          k = 0.1746-0.1799 0.0000 ( 45085 PWs)   bands (ev):

   -24.3914 -24.3315 -23.9495 -23.9187 -23.6055 -23.5420 -20.2798 -20.2349
   -20.2230 -20.1856 -20.1810 -20.1493 -20.1328 -20.1183 -20.1113 -20.0860
   -20.0803 -20.0540 -20.0149 -20.0062 -19.9972 -19.9075 -19.7633 -19.6596
   -19.5526 -19.4433 -12.0712 -12.0205 -10.8730 -10.8059 -10.2395 -10.1610
    -9.6348  -9.5312  -8.9129  -8.8456  -8.3551  -8.2739  -8.1231  -8.0277
    -7.7187  -7.6604  -7.4818  -7.2834

     occupation numbers 
     1.0000   1.0000   1.0000   1.0000   1.0000   1.0000   1.0000   1.0000
     1.0000   1.0000   1.0000   1.0000   1.0000   1.0000   1.0000   1.0000
     1.0000   1.0000   1.0000   1.0000   1.0000   1.0000   1.0000   1.0000
     1.0000   1.0000   1.0000   1.0000   1.0000   1.0000   1.0000   1.0000
     1.0000   1.0000   1.0000   1.0000   1.0000   1.0000   1.0000   1.0000
     1.0000   1.0000   1.0000   1.0000

          k = 0.3368-0.0737 0.0000 ( 45074 PWs)   bands (ev):

   -24.1903 -24.1335 -23.7785 -23.7323 -23.6971 -23.6492 -20.2685 -20.2392
   -20.2119 -20.1946 -20.1755 -20.1248 -20.1141 -20.1128 -20.0982 -20.0884
   -20.0628 -20.0171 -19.9908 -19.9799 -19.9712 -19.8833 -19.6429 -19.5414
   -19.4186 -19.3108 -12.4719 -12.4301 -11.6314 -11.5440 -10.7245 -10.6290
    -9.6455  -9.5797  -8.9668  -8.8725  -8.6905  -8.5988  -8.1595  -8.0418
    -7.8500  -7.8089  -7.5234  -7.4162

     occupation numbers 
     1.0000   1.0000   1.0000   1.0000   1.0000   1.0000   1.0000   1.0000
     1.0000   1.0000   1.0000   1.0000   1.0000   1.0000   1.0000   1.0000
     1.0000   1.0000   1.0000   1.0000   1.0000   1.0000   1.0000   1.0000
     1.0000   1.0000   1.0000   1.0000   1.0000   1.0000   1.0000   1.0000
     1.0000   1.0000   1.0000   1.0000   1.0000   1.0000   1.0000   1.0000
     1.0000   1.0000   1.0000   1.0000

          k = 0.3306 0.0695 0.0000 ( 45046 PWs)   bands (ev):

   -24.1997 -24.1458 -23.7829 -23.7217 -23.6820 -23.6463 -20.2810 -20.2412
   -20.2058 -20.1815 -20.1793 -20.1252 -20.1151 -20.1129 -20.0975 -20.0941
   -20.0591 -20.0201 -19.9889 -19.9858 -19.9747 -19.8906 -19.6195 -19.5128
   -19.4320 -19.3228 -12.5156 -12.4834 -11.6194 -11.5037 -10.7247 -10.6522
    -9.6648  -9.6114  -8.9241  -8.8327  -8.5543  -8.4892  -8.2501  -8.0936
    -7.8835  -7.8322  -7.5194  -7.4155

     occupation numbers 
     1.0000   1.0000   1.0000   1.0000   1.0000   1.0000   1.0000   1.0000
     1.0000   1.0000   1.0000   1.0000   1.0000   1.0000   1.0000   1.0000
     1.0000   1.0000   1.0000   1.0000   1.0000   1.0000   1.0000   1.0000
     1.0000   1.0000   1.0000   1.0000   1.0000   1.0000   1.0000   1.0000
     1.0000   1.0000   1.0000   1.0000   1.0000   1.0000   1.0000   1.0000
     1.0000   1.0000   1.0000   1.0000

          k = 0.3492-0.3599 0.0000 ( 45085 PWs)   bands (ev):

   -24.1340 -24.0664 -23.8538 -23.8233 -23.6803 -23.6271 -20.2673 -20.2401
   -20.2042 -20.1685 -20.1622 -20.1275 -20.1149 -20.1093 -20.0951 -20.0905
   -20.0564 -20.0189 -19.9901 -19.9725 -19.9399 -19.8430 -19.7730 -19.6639
   -19.3821 -19.2709 -12.2539 -12.2067 -11.8334 -11.7301 -10.4381 -10.3757
    -9.8024  -9.7607  -9.0908  -9.0108  -8.7716  -8.6963  -8.2341  -8.0865
    -7.7186  -7.6439  -7.5217  -7.4284

     occupation numbers 
     1.0000   1.0000   1.0000   1.0000   1.0000   1.0000   1.0000   1.0000
     1.0000   1.0000   1.0000   1.0000   1.0000   1.0000   1.0000   1.0000
     1.0000   1.0000   1.0000   1.0000   1.0000   1.0000   1.0000   1.0000
     1.0000   1.0000   1.0000   1.0000   1.0000   1.0000   1.0000   1.0000
     1.0000   1.0000   1.0000   1.0000   1.0000   1.0000   1.0000   1.0000
     1.0000   1.0000   1.0000   1.0000

          k = 0.3430-0.2168 0.0000 ( 45092 PWs)   bands (ev):

   -24.1204 -24.0443 -23.8591 -23.8442 -23.6897 -23.6298 -20.2567 -20.2324
   -20.2103 -20.1913 -20.1555 -20.1264 -20.1129 -20.1107 -20.0992 -20.0816
   -20.0577 -20.0171 -19.9850 -19.9685 -19.9255 -19.8208 -19.8010 -19.7035
   -19.3753 -19.2654 -12.1868 -12.1099 -11.8642 -11.8051 -10.3649 -10.2870
    -9.9257  -9.8645  -9.1456  -9.0811  -8.7005  -8.6207  -8.2822  -8.1394
    -7.6471  -7.5990  -7.5473  -7.4422

     occupation numbers 
     1.0000   1.0000   1.0000   1.0000   1.0000   1.0000   1.0000   1.0000
     1.0000   1.0000   1.0000   1.0000   1.0000   1.0000   1.0000   1.0000
     1.0000   1.0000   1.0000   1.0000   1.0000   1.0000   1.0000   1.0000
     1.0000   1.0000   1.0000   1.0000   1.0000   1.0000   1.0000   1.0000
     1.0000   1.0000   1.0000   1.0000   1.0000   1.0000   1.0000   1.0000
     1.0000   1.0000   1.0000   1.0000

          k =-0.5052 0.1105 0.0000 ( 45134 PWs)   bands (ev):

   -23.9667 -23.8781 -23.8035 -23.7789 -23.7559 -23.7193 -20.2626 -20.2265
   -20.2202 -20.1871 -20.1574 -20.1318 -20.1247 -20.1073 -20.0800 -20.0545
   -20.0502 -20.0071 -19.9779 -19.9350 -19.8995 -19.8059 -19.7105 -19.6155
   -19.3213 -19.2123 -12.5780 -12.5181 -12.2110 -12.1334 -10.5694 -10.4919
    -9.9135  -9.8469  -9.1102  -9.0305  -8.5119  -8.4717  -8.1929  -8.0646
    -7.9377  -7.8010  -7.6241  -7.5531

     occupation numbers 
     1.0000   1.0000   1.0000   1.0000   1.0000   1.0000   1.0000   1.0000
     1.0000   1.0000   1.0000   1.0000   1.0000   1.0000   1.0000   1.0000
     1.0000   1.0000   1.0000   1.0000   1.0000   1.0000   1.0000   1.0000
     1.0000   1.0000   1.0000   1.0000   1.0000   1.0000   1.0000   1.0000
     1.0000   1.0000   1.0000   1.0000   1.0000   1.0000   1.0000   1.0000
     1.0000   1.0000   1.0000   1.0000

          k =-0.5114 0.2536 0.0000 ( 45094 PWs)   bands (ev):

   -23.9560 -23.8696 -23.8333 -23.7932 -23.7365 -23.7129 -20.2603 -20.2416
   -20.2186 -20.1669 -20.1549 -20.1315 -20.1265 -20.1127 -20.0792 -20.0645
   -20.0249 -20.0154 -19.9697 -19.9300 -19.9127 -19.8135 -19.7178 -19.6168
   -19.3222 -19.2129 -12.5786 -12.5151 -12.2212 -12.1405 -10.4317 -10.3706
   -10.1210 -10.0599  -8.8471  -8.7908  -8.6735  -8.5886  -8.1281  -8.0392
    -8.0109  -7.8823  -7.6070  -7.5419

     occupation numbers 
     1.0000   1.0000   1.0000   1.0000   1.0000   1.0000   1.0000   1.0000
     1.0000   1.0000   1.0000   1.0000   1.0000   1.0000   1.0000   1.0000
     1.0000   1.0000   1.0000   1.0000   1.0000   1.0000   1.0000   1.0000
     1.0000   1.0000   1.0000   1.0000   1.0000   1.0000   1.0000   1.0000
     1.0000   1.0000   1.0000   1.0000   1.0000   1.0000   1.0000   1.0000
     1.0000   1.0000   1.0000   1.0000

          k =-0.4929-0.1758 0.0000 ( 45008 PWs)   bands (ev):

   -23.9413 -23.8596 -23.8574 -23.8098 -23.7245 -23.7078 -20.2641 -20.2486
   -20.2167 -20.1593 -20.1421 -20.1321 -20.1248 -20.0961 -20.0912 -20.0669
   -20.0128 -20.0076 -19.9815 -19.9335 -19.9291 -19.8200 -19.7207 -19.6135
   -19.3236 -19.2141 -12.5773 -12.5108 -12.2306 -12.1481 -10.5302 -10.4605
    -9.9021  -9.8728  -9.0107  -8.9250  -8.6207  -8.5457  -8.1768  -8.0549
    -8.0009  -7.8483  -7.5958  -7.5300

     occupation numbers 
     1.0000   1.0000   1.0000   1.0000   1.0000   1.0000   1.0000   1.0000
     1.0000   1.0000   1.0000   1.0000   1.0000   1.0000   1.0000   1.0000
     1.0000   1.0000   1.0000   1.0000   1.0000   1.0000   1.0000   1.0000
     1.0000   1.0000   1.0000   1.0000   1.0000   1.0000   1.0000   1.0000
     1.0000   1.0000   1.0000   1.0000   1.0000   1.0000   1.0000   1.0000
     1.0000   1.0000   1.0000   1.0000

     highest occupied level (ev):    -7.2738

!    total energy              =   -1361.94740335 Ry
     estimated scf accuracy    <          5.7E-09 Ry

     convergence has been achieved in  20 iterations

     negative rho (up, down):  4.277E-04 0.000E+00

     Forces acting on atoms (cartesian axes, Ry/au):

     atom    1 type  1   force =    -0.02121736   -0.02203804    0.00009888
     atom    2 type  1   force =    -0.01218795    0.02789966    0.00882327
     atom    3 type  2   force =    -0.01091191    0.02289682   -0.04944199
     atom    4 type  2   force =     0.05221581   -0.01345866    0.00198320
     atom    5 type  2   force =    -0.00789161   -0.01626723    0.03782522
     atom    6 type  1   force =    -0.01635565   -0.02859594   -0.00442667
     atom    7 type  1   force =    -0.01968758    0.02880936    0.00358803
     atom    8 type  2   force =    -0.00808991    0.01704384   -0.03785832
     atom    9 type  2   force =     0.04616149    0.00662498   -0.00124098
     atom   10 type  2   force =    -0.00203533   -0.02291478    0.04064935
     The non-local contrib.  to forces
     atom    1 type  1   force =     0.23510259    0.17144313    0.01477621
     atom    2 type  1   force =     0.23236750   -0.07579336   -0.08422378
     atom    3 type  2   force =    -0.12722775    0.43776579   -1.12910690
     atom    4 type  2   force =     1.10238177    0.12434283   -0.04385512
     atom    5 type  2   force =    -0.05978558   -0.44472920    1.07332087
     atom    6 type  1   force =     0.22485551    0.14702112    0.05395430
     atom    7 type  1   force =     0.20129699   -0.10501812   -0.04716470
     atom    8 type  2   force =    -0.13973382    0.42791180   -1.07024182
     atom    9 type  2   force =     1.11144354    0.11408675    0.00130597
     atom   10 type  2   force =    -0.08165441   -0.45939823    1.09811486
     The ionic contribution  to forces
     atom    1 type  1   force =     1.84716762   11.08962653  -86.97140456
     atom    2 type  1   force =     2.78081437   -9.87956550 -132.22131988
     atom    3 type  2   force =     0.28812534   -1.67827651  -14.31191212
     atom    4 type  2   force =    -4.90570150   -0.88177382  -49.83848646
     atom    5 type  2   force =    -0.05137701    2.26557346  -86.50257139
     atom    6 type  1   force =     1.96223274   10.31623326  131.84261056
     atom    7 type  1   force =     2.50060484  -10.50339087   86.80405436
     atom    8 type  2   force =     0.38036372   -2.30473547   86.56946992
     atom    9 type  2   force =    -5.02158378    0.02976549   49.82984287
     atom   10 type  2   force =     0.21935367    1.54654343   14.79971670
     The local contribution  to forces
     atom    1 type  1   force =    -2.10239564  -11.28333405   86.95650282
     atom    2 type  1   force =    -3.02413214    9.98538997  132.31379868
     atom    3 type  2   force =    -0.17316482    1.26752675   15.38175562
     atom    4 type  2   force =     3.86587793    0.74496876   49.88387362
     atom    5 type  2   force =     0.10256156   -1.84129818   85.47618098
     atom    6 type  1   force =    -2.20240175  -10.49279629 -131.90087594
     atom    7 type  1   force =    -2.72125196   10.63897916  -86.75358167
     atom    8 type  2   force =    -0.25014773    1.89784002  -85.54621149
     atom    9 type  2   force =     3.96666611   -0.13611650  -49.83245483
     atom   10 type  2   force =    -0.14058628   -1.11441480  -15.84780432
     The core correction contribution to forces
     atom    1 type  1   force =    -0.00108494    0.00021791    0.00010316
     atom    2 type  1   force =    -0.00122971   -0.00208767    0.00050540
     atom    3 type  2   force =     0.00132202   -0.00413115    0.00973979
     atom    4 type  2   force =    -0.01033525   -0.00101286    0.00038428
     atom    5 type  2   force =     0.00070164    0.00415360   -0.00912287
     atom    6 type  1   force =    -0.00098255    0.00106566   -0.00017625
     atom    7 type  1   force =    -0.00035011   -0.00178078    0.00024194
     atom    8 type  2   force =     0.00141597   -0.00399860    0.00909323
     atom    9 type  2   force =    -0.01036435   -0.00111953    0.00001678
     atom   10 type  2   force =     0.00083788    0.00433410   -0.00937621
     The Hubbard contrib.    to forces
     atom    1 type  1   force =     0.00000000    0.00000000    0.00000000
     atom    2 type  1   force =     0.00000000    0.00000000    0.00000000
     atom    3 type  2   force =     0.00000000    0.00000000    0.00000000
     atom    4 type  2   force =     0.00000000    0.00000000    0.00000000
     atom    5 type  2   force =     0.00000000    0.00000000    0.00000000
     atom    6 type  1   force =     0.00000000    0.00000000    0.00000000
     atom    7 type  1   force =     0.00000000    0.00000000    0.00000000
     atom    8 type  2   force =     0.00000000    0.00000000    0.00000000
     atom    9 type  2   force =     0.00000000    0.00000000    0.00000000
     atom   10 type  2   force =     0.00000000    0.00000000    0.00000000
     The SCF correction term to forces
     atom    1 type  1   force =    -0.00001801   -0.00001023    0.00012729
     atom    2 type  1   force =    -0.00001899   -0.00006243    0.00006887
     atom    3 type  2   force =     0.00002228   -0.00000672    0.00008765
     atom    4 type  2   force =    -0.00001816   -0.00000223    0.00007291
     atom    5 type  2   force =    -0.00000324    0.00001443    0.00002365
     atom    6 type  1   force =    -0.00007061   -0.00013836    0.00006669
     atom    7 type  1   force =     0.00000165    0.00000131    0.00004413
     atom    8 type  2   force =     0.00000093    0.00000743    0.00003787
     atom    9 type  2   force =    -0.00001104   -0.00000990    0.00005426
     atom   10 type  2   force =     0.00000279    0.00000206    0.00000435

     Total force =     0.134834     Total SCF correction =     0.000275


     Computing stress (Cartesian axis) and pressure


     negative rho (up, down):  4.277E-04 0.000E+00
          total   stress  (Ry/bohr**3)                   (kbar)     P=      -32.75
  -0.00027226   0.00000790  -0.00000615          -40.05        1.16       -0.91
   0.00000790  -0.00030190   0.00002481            1.16      -44.41        3.65
  -0.00000615   0.00002481  -0.00009366           -0.91        3.65      -13.78

     kinetic stress (kbar)   4661.20      2.45     -1.55
                                2.45   4660.95      1.02
                               -1.55      1.02   4738.58

     local   stress (kbar)-496331.42    -85.40    -14.24
                              -85.40-492545.02   -486.32
                              -14.24   -486.32 493645.32

     nonloc. stress (kbar)     -1.59      0.89     -1.04
                                0.89    -13.86     13.62
                               -1.04     13.62     82.05

     hartree stress (kbar) 250278.10     47.63      2.99
                               47.63 248477.22    240.56
                                2.99    240.56-240957.49

     exc-cor stress (kbar)    604.83     -0.09      0.08
                               -0.09    605.32     -0.89
                                0.08     -0.89    596.62

     corecor stress (kbar)  -2383.75      0.00      0.00
                                0.00  -2383.83      0.08
                                0.00      0.08  -2383.64

     ewald   stress (kbar) 243132.59     35.68     12.85
                               35.68 241154.81    235.58
                               12.85    235.58-255735.22

     hubbard stress (kbar)      0.00      0.00      0.00
                                0.00      0.00      0.00
                                0.00      0.00      0.00

     DFT-D   stress (kbar)      0.00      0.00      0.00
                                0.00      0.00      0.00
                                0.00      0.00      0.00

     XDM     stress (kbar)      0.00      0.00      0.00
                                0.00      0.00      0.00
                                0.00      0.00      0.00

     dft-nl  stress (kbar)      0.00      0.00      0.00
                                0.00      0.00      0.00
                                0.00      0.00      0.00

     TS-vdW  stress (kbar)      0.00      0.00      0.00
                                0.00      0.00      0.00
                                0.00      0.00      0.00


                                0.00      0.00      0.00
                                0.00      0.00      0.00


                                0.00      0.00      0.00


     Entering Dynamics:    iteration =     4
                           time      =   0.0039 pico-seconds


     Canonical sampling velocity rescaling

ATOMIC_POSITIONS (crystal)
Ga            0.8300870262        0.7189500015        0.4263768332
Ga            0.5158591651        0.3015964204        0.4000336080
O             0.3972367578        0.5602610024        0.4501598879
O             0.4226578195        0.0104291507        0.4138260695
O             0.9424102996        0.4553112554        0.3773459318
Ga            0.8262856645        0.7205259626        0.5995921614
Ga            0.5183554995        0.3015094123        0.5735292254
O             0.3887398053        0.5649878660        0.6224888040
O             0.4331126637        0.0052275568        0.5861891751
O             0.9365155287        0.4576187933        0.5508290741


     kinetic energy (Ekin) =           0.02579071 Ry
     temperature           =         301.63190419 K 
     Ekin + Etot (const)   =       -1361.92161264 Ry
     Ions kinetic stress =            0.68 (kbar)
                                      0.77          -0.06           0.10
                                     -0.06           0.56           0.25
                                      0.10           0.25           0.71



     Linear momentum :    0.0000000000   -0.0000000000    0.0000000000

     Writing config-only to output data dir ./tmp/Ga2O3-BL-001-300K.save/

     second order wave-functions extrapolation
     second order charge density extrapolation

     negative rho (up, down):  4.292E-04 0.000E+00

     total cpu time spent up to now is      389.5 secs

     Self-consistent Calculation

     iteration #  1     ecut=    80.00 Ry     beta= 0.20
     Davidson diagonalization with overlap

---- Real-time Memory Report at c_bands before calling an iterative solver
           314 MiB given to the printing process from OS
             0 MiB allocation reported by mallinfo(arena+hblkhd)
        367112 MiB available memory on the node where the printing process lives
------------------
     ethr =  1.00E-06,  avg # of iterations =  2.0

     Threshold (ethr) on eigenvalues was too large:
     Diagonalizing with lowered threshold

     Davidson diagonalization with overlap

---- Real-time Memory Report at c_bands before calling an iterative solver
           314 MiB given to the printing process from OS
             0 MiB allocation reported by mallinfo(arena+hblkhd)
        367115 MiB available memory on the node where the printing process lives
------------------
     ethr =  5.48E-10,  avg # of iterations =  9.1

     negative rho (up, down):  4.291E-04 0.000E+00

     total cpu time spent up to now is      394.9 secs

     total energy              =   -1361.94840932 Ry
     estimated scf accuracy    <       0.00000181 Ry

     iteration #  2     ecut=    80.00 Ry     beta= 0.20
     Davidson diagonalization with overlap

---- Real-time Memory Report at c_bands before calling an iterative solver
           314 MiB given to the printing process from OS
             0 MiB allocation reported by mallinfo(arena+hblkhd)
        367116 MiB available memory on the node where the printing process lives
------------------
     ethr =  2.06E-09,  avg # of iterations =  3.4

     negative rho (up, down):  4.290E-04 0.000E+00

     total cpu time spent up to now is      396.9 secs

     total energy              =   -1361.94840903 Ry
     estimated scf accuracy    <       0.00000060 Ry

     iteration #  3     ecut=    80.00 Ry     beta= 0.20
     Davidson diagonalization with overlap

---- Real-time Memory Report at c_bands before calling an iterative solver
           314 MiB given to the printing process from OS
             0 MiB allocation reported by mallinfo(arena+hblkhd)
        367116 MiB available memory on the node where the printing process lives
------------------
     ethr =  6.79E-10,  avg # of iterations = 11.9

     negative rho (up, down):  4.289E-04 0.000E+00

     total cpu time spent up to now is      400.8 secs

     total energy              =   -1361.94840949 Ry
     estimated scf accuracy    <       0.00000258 Ry

     iteration #  4     ecut=    80.00 Ry     beta= 0.20
     Davidson diagonalization with overlap

---- Real-time Memory Report at c_bands before calling an iterative solver
           314 MiB given to the printing process from OS
             0 MiB allocation reported by mallinfo(arena+hblkhd)
        367118 MiB available memory on the node where the printing process lives
------------------
     ethr =  6.79E-10,  avg # of iterations =  7.5

     negative rho (up, down):  4.289E-04 0.000E+00

     total cpu time spent up to now is      403.4 secs

     total energy              =   -1361.94840972 Ry
     estimated scf accuracy    <       0.00000061 Ry

     iteration #  5     ecut=    80.00 Ry     beta= 0.20
     Davidson diagonalization with overlap

---- Real-time Memory Report at c_bands before calling an iterative solver
           314 MiB given to the printing process from OS
             0 MiB allocation reported by mallinfo(arena+hblkhd)
        367119 MiB available memory on the node where the printing process lives
------------------
     ethr =  6.79E-10,  avg # of iterations =  1.7

     negative rho (up, down):  4.288E-04 0.000E+00

     total cpu time spent up to now is      405.2 secs

     total energy              =   -1361.94840955 Ry
     estimated scf accuracy    <       0.00000070 Ry

     iteration #  6     ecut=    80.00 Ry     beta= 0.20
     Davidson diagonalization with overlap

---- Real-time Memory Report at c_bands before calling an iterative solver
           314 MiB given to the printing process from OS
             0 MiB allocation reported by mallinfo(arena+hblkhd)
        367125 MiB available memory on the node where the printing process lives
------------------
     ethr =  6.79E-10,  avg # of iterations =  3.4

     negative rho (up, down):  4.288E-04 0.000E+00

     total cpu time spent up to now is      407.3 secs

     total energy              =   -1361.94840953 Ry
     estimated scf accuracy    <       0.00000030 Ry

     iteration #  7     ecut=    80.00 Ry     beta= 0.20
     Davidson diagonalization with overlap

---- Real-time Memory Report at c_bands before calling an iterative solver
           314 MiB given to the printing process from OS
             0 MiB allocation reported by mallinfo(arena+hblkhd)
        367123 MiB available memory on the node where the printing process lives
------------------
     ethr =  3.37E-10,  avg # of iterations =  7.1

     negative rho (up, down):  4.288E-04 0.000E+00

     total cpu time spent up to now is      410.1 secs

     total energy              =   -1361.94840963 Ry
     estimated scf accuracy    <       0.00000016 Ry

     iteration #  8     ecut=    80.00 Ry     beta= 0.20
     Davidson diagonalization with overlap

---- Real-time Memory Report at c_bands before calling an iterative solver
           314 MiB given to the printing process from OS
             0 MiB allocation reported by mallinfo(arena+hblkhd)
        367119 MiB available memory on the node where the printing process lives
------------------
     ethr =  1.80E-10,  avg # of iterations =  2.3

     negative rho (up, down):  4.288E-04 0.000E+00

     total cpu time spent up to now is      412.1 secs

     total energy              =   -1361.94840963 Ry
     estimated scf accuracy    <       0.00000015 Ry

     iteration #  9     ecut=    80.00 Ry     beta= 0.20
     Davidson diagonalization with overlap

---- Real-time Memory Report at c_bands before calling an iterative solver
           314 MiB given to the printing process from OS
             0 MiB allocation reported by mallinfo(arena+hblkhd)
        367120 MiB available memory on the node where the printing process lives
------------------
     ethr =  1.69E-10,  avg # of iterations =  1.6

     negative rho (up, down):  4.287E-04 0.000E+00

     total cpu time spent up to now is      413.8 secs

     total energy              =   -1361.94840962 Ry
     estimated scf accuracy    <       0.00000012 Ry

     iteration # 10     ecut=    80.00 Ry     beta= 0.20
     Davidson diagonalization with overlap

---- Real-time Memory Report at c_bands before calling an iterative solver
           314 MiB given to the printing process from OS
             0 MiB allocation reported by mallinfo(arena+hblkhd)
        367120 MiB available memory on the node where the printing process lives
------------------
     ethr =  1.39E-10,  avg # of iterations =  2.0

     negative rho (up, down):  4.287E-04 0.000E+00

     total cpu time spent up to now is      415.7 secs

     total energy              =   -1361.94840959 Ry
     estimated scf accuracy    <       0.00000007 Ry

     iteration # 11     ecut=    80.00 Ry     beta= 0.20
     Davidson diagonalization with overlap

---- Real-time Memory Report at c_bands before calling an iterative solver
           314 MiB given to the printing process from OS
             0 MiB allocation reported by mallinfo(arena+hblkhd)
        367122 MiB available memory on the node where the printing process lives
------------------
     ethr =  8.51E-11,  avg # of iterations =  8.1

     negative rho (up, down):  4.287E-04 0.000E+00

     total cpu time spent up to now is      418.8 secs

     total energy              =   -1361.94840963 Ry
     estimated scf accuracy    <       0.00000005 Ry

     iteration # 12     ecut=    80.00 Ry     beta= 0.20
     Davidson diagonalization with overlap

---- Real-time Memory Report at c_bands before calling an iterative solver
           314 MiB given to the printing process from OS
             0 MiB allocation reported by mallinfo(arena+hblkhd)
        367123 MiB available memory on the node where the printing process lives
------------------
     ethr =  6.09E-11,  avg # of iterations =  2.0

     negative rho (up, down):  4.287E-04 0.000E+00

     total cpu time spent up to now is      420.7 secs

     total energy              =   -1361.94840962 Ry
     estimated scf accuracy    <       0.00000003 Ry

     iteration # 13     ecut=    80.00 Ry     beta= 0.20
     Davidson diagonalization with overlap

---- Real-time Memory Report at c_bands before calling an iterative solver
           314 MiB given to the printing process from OS
             0 MiB allocation reported by mallinfo(arena+hblkhd)
        367123 MiB available memory on the node where the printing process lives
------------------
     ethr =  3.82E-11,  avg # of iterations =  5.6

     negative rho (up, down):  4.287E-04 0.000E+00

     total cpu time spent up to now is      423.0 secs

     End of self-consistent calculation

          k = 0.0000 0.0000 0.0000 ( 45065 PWs)   bands (ev):

   -24.6150 -24.5507 -23.7746 -23.7055 -23.6688 -23.5987 -20.3004 -20.2406
   -20.2032 -20.1794 -20.1729 -20.1666 -20.1279 -20.1046 -20.0997 -20.0453
   -20.0396 -20.0320 -20.0178 -20.0162 -19.9796 -19.8965 -19.6687 -19.6418
   -19.5297 -19.4901 -12.6953 -12.6474 -10.4253 -10.2507  -9.4760  -9.4118
    -8.9135  -8.7953  -8.3907  -8.2908  -8.2371  -8.1377  -8.0964  -8.0445
    -7.9291  -7.8424  -7.6048  -7.3138

     occupation numbers 
     1.0000   1.0000   1.0000   1.0000   1.0000   1.0000   1.0000   1.0000
     1.0000   1.0000   1.0000   1.0000   1.0000   1.0000   1.0000   1.0000
     1.0000   1.0000   1.0000   1.0000   1.0000   1.0000   1.0000   1.0000
     1.0000   1.0000   1.0000   1.0000   1.0000   1.0000   1.0000   1.0000
     1.0000   1.0000   1.0000   1.0000   1.0000   1.0000   1.0000   1.0000
     1.0000   1.0000   1.0000   1.0000

          k =-0.0062 0.1431 0.0000 ( 45113 PWs)   bands (ev):

   -24.5428 -24.4710 -23.9362 -23.8836 -23.5910 -23.5068 -20.2825 -20.2399
   -20.2066 -20.1880 -20.1628 -20.1573 -20.1162 -20.0997 -20.0938 -20.0691
   -20.0490 -20.0295 -20.0098 -19.9931 -19.9705 -19.8875 -19.7315 -19.6383
   -19.5907 -19.4896 -12.3322 -12.2776 -10.5118 -10.3525  -9.8475  -9.7733
    -9.1883  -9.0703  -8.4903  -8.4009  -8.1937  -8.0963  -7.9077  -7.8364
    -7.8040  -7.7315  -7.6045  -7.3373

     occupation numbers 
     1.0000   1.0000   1.0000   1.0000   1.0000   1.0000   1.0000   1.0000
     1.0000   1.0000   1.0000   1.0000   1.0000   1.0000   1.0000   1.0000
     1.0000   1.0000   1.0000   1.0000   1.0000   1.0000   1.0000   1.0000
     1.0000   1.0000   1.0000   1.0000   1.0000   1.0000   1.0000   1.0000
     1.0000   1.0000   1.0000   1.0000   1.0000   1.0000   1.0000   1.0000
     1.0000   1.0000   1.0000   1.0000

          k = 0.0124-0.2862 0.0000 ( 45174 PWs)   bands (ev):

   -24.4354 -24.3405 -24.0880 -24.0638 -23.5550 -23.4666 -20.2697 -20.2349
   -20.2130 -20.1914 -20.1628 -20.1360 -20.0974 -20.0954 -20.0856 -20.0839
   -20.0568 -20.0288 -20.0033 -19.9696 -19.9611 -19.8781 -19.8047 -19.6643
   -19.6336 -19.4856 -11.7455 -11.6764 -10.7518 -10.6508 -10.3629 -10.2793
    -9.2473  -9.1386  -8.6249  -8.5340  -8.1467  -8.0397  -7.8548  -7.7735
    -7.6837  -7.5680  -7.4739  -7.3618

     occupation numbers 
     1.0000   1.0000   1.0000   1.0000   1.0000   1.0000   1.0000   1.0000
     1.0000   1.0000   1.0000   1.0000   1.0000   1.0000   1.0000   1.0000
     1.0000   1.0000   1.0000   1.0000   1.0000   1.0000   1.0000   1.0000
     1.0000   1.0000   1.0000   1.0000   1.0000   1.0000   1.0000   1.0000
     1.0000   1.0000   1.0000   1.0000   1.0000   1.0000   1.0000   1.0000
     1.0000   1.0000   1.0000   1.0000

          k = 0.1684-0.0368 0.0000 ( 45086 PWs)   bands (ev):

   -24.4879 -24.4212 -23.7837 -23.7177 -23.6574 -23.5832 -20.2960 -20.2365
   -20.2146 -20.1730 -20.1718 -20.1469 -20.1144 -20.0962 -20.0826 -20.0663
   -20.0430 -20.0167 -20.0145 -19.9794 -19.9670 -19.8911 -19.6274 -19.5838
   -19.4800 -19.4436 -12.5490 -12.5017 -10.6456 -10.5080 -10.1860 -10.1007
    -9.2802  -9.1637  -8.6648  -8.5434  -8.3561  -8.2871  -8.1218  -8.0287
    -8.0012  -7.9395  -7.4560  -7.2387

     occupation numbers 
     1.0000   1.0000   1.0000   1.0000   1.0000   1.0000   1.0000   1.0000
     1.0000   1.0000   1.0000   1.0000   1.0000   1.0000   1.0000   1.0000
     1.0000   1.0000   1.0000   1.0000   1.0000   1.0000   1.0000   1.0000
     1.0000   1.0000   1.0000   1.0000   1.0000   1.0000   1.0000   1.0000
     1.0000   1.0000   1.0000   1.0000   1.0000   1.0000   1.0000   1.0000
     1.0000   1.0000   1.0000   1.0000

          k = 0.1622 0.1063 0.0000 ( 45049 PWs)   bands (ev):

   -24.4622 -24.3928 -23.8425 -23.7817 -23.6274 -23.5495 -20.2961 -20.2323
   -20.2046 -20.1673 -20.1654 -20.1589 -20.1156 -20.0940 -20.0799 -20.0697
   -20.0413 -20.0216 -20.0030 -19.9786 -19.9645 -19.8818 -19.6877 -19.5543
   -19.5448 -19.4045 -12.4212 -12.3760 -10.7329 -10.5677 -10.1499 -10.0789
    -9.3997  -9.2971  -8.7375  -8.6292  -8.4134  -8.3129  -8.0442  -7.9677
    -7.9287  -7.8711  -7.4613  -7.2417

     occupation numbers 
     1.0000   1.0000   1.0000   1.0000   1.0000   1.0000   1.0000   1.0000
     1.0000   1.0000   1.0000   1.0000   1.0000   1.0000   1.0000   1.0000
     1.0000   1.0000   1.0000   1.0000   1.0000   1.0000   1.0000   1.0000
     1.0000   1.0000   1.0000   1.0000   1.0000   1.0000   1.0000   1.0000
     1.0000   1.0000   1.0000   1.0000   1.0000   1.0000   1.0000   1.0000
     1.0000   1.0000   1.0000   1.0000

          k = 0.1808-0.3231 0.0000 ( 45092 PWs)   bands (ev):

   -24.3508 -24.2583 -24.0025 -23.9741 -23.5879 -23.5018 -20.2791 -20.2328
   -20.2028 -20.1740 -20.1449 -20.1428 -20.1080 -20.0887 -20.0833 -20.0735
   -20.0386 -20.0159 -19.9754 -19.9700 -19.9606 -19.8482 -19.8079 -19.6662
   -19.5343 -19.3852 -11.8328 -11.7719 -11.0445 -10.9258 -10.2391 -10.1625
    -9.6881  -9.5925  -8.9992  -8.9065  -8.3479  -8.2227  -8.1297  -8.0117
    -7.6207  -7.5390  -7.4663  -7.2513

     occupation numbers 
     1.0000   1.0000   1.0000   1.0000   1.0000   1.0000   1.0000   1.0000
     1.0000   1.0000   1.0000   1.0000   1.0000   1.0000   1.0000   1.0000
     1.0000   1.0000   1.0000   1.0000   1.0000   1.0000   1.0000   1.0000
     1.0000   1.0000   1.0000   1.0000   1.0000   1.0000   1.0000   1.0000
     1.0000   1.0000   1.0000   1.0000   1.0000   1.0000   1.0000   1.0000
     1.0000   1.0000   1.0000   1.0000

          k = 0.1746-0.1799 0.0000 ( 45085 PWs)   bands (ev):

   -24.3931 -24.3118 -23.9454 -23.9050 -23.6002 -23.5146 -20.2760 -20.2311
   -20.2184 -20.1762 -20.1491 -20.1433 -20.1050 -20.0934 -20.0779 -20.0756
   -20.0398 -20.0153 -19.9980 -19.9760 -19.9574 -19.8664 -19.7547 -19.6162
   -19.5437 -19.3981 -12.0707 -12.0045 -10.8596 -10.7713 -10.2399 -10.1359
    -9.6346  -9.5097  -8.9012  -8.8160  -8.3466  -8.2499  -8.1157  -7.9990
    -7.7149  -7.6389  -7.4646  -7.2485

     occupation numbers 
     1.0000   1.0000   1.0000   1.0000   1.0000   1.0000   1.0000   1.0000
     1.0000   1.0000   1.0000   1.0000   1.0000   1.0000   1.0000   1.0000
     1.0000   1.0000   1.0000   1.0000   1.0000   1.0000   1.0000   1.0000
     1.0000   1.0000   1.0000   1.0000   1.0000   1.0000   1.0000   1.0000
     1.0000   1.0000   1.0000   1.0000   1.0000   1.0000   1.0000   1.0000
     1.0000   1.0000   1.0000   1.0000

          k = 0.3368-0.0737 0.0000 ( 45074 PWs)   bands (ev):

   -24.1924 -24.1152 -23.7786 -23.7180 -23.6874 -23.6201 -20.2644 -20.2379
   -20.2066 -20.1873 -20.1394 -20.1056 -20.0857 -20.0849 -20.0732 -20.0576
   -20.0516 -19.9778 -19.9705 -19.9538 -19.9297 -19.8419 -19.6358 -19.4998
   -19.4094 -19.2658 -12.4735 -12.4180 -11.6175 -11.5073 -10.7228 -10.6053
    -9.6452  -9.5572  -8.9608  -8.8385  -8.6802  -8.5763  -8.1509  -8.0121
    -7.8446  -7.7895  -7.5129  -7.3710

     occupation numbers 
     1.0000   1.0000   1.0000   1.0000   1.0000   1.0000   1.0000   1.0000
     1.0000   1.0000   1.0000   1.0000   1.0000   1.0000   1.0000   1.0000
     1.0000   1.0000   1.0000   1.0000   1.0000   1.0000   1.0000   1.0000
     1.0000   1.0000   1.0000   1.0000   1.0000   1.0000   1.0000   1.0000
     1.0000   1.0000   1.0000   1.0000   1.0000   1.0000   1.0000   1.0000
     1.0000   1.0000   1.0000   1.0000

          k = 0.3306 0.0695 0.0000 ( 45046 PWs)   bands (ev):

   -24.2012 -24.1275 -23.7837 -23.7068 -23.6724 -23.6177 -20.2782 -20.2397
   -20.1995 -20.1702 -20.1443 -20.1089 -20.0931 -20.0845 -20.0733 -20.0561
   -20.0491 -19.9811 -19.9759 -19.9473 -19.9364 -19.8493 -19.6134 -19.4700
   -19.4229 -19.2781 -12.5152 -12.4720 -11.6162 -11.4670 -10.7148 -10.6298
    -9.6584  -9.5857  -8.9184  -8.7985  -8.5489  -8.4712  -8.2408  -8.0598
    -7.8789  -7.8137  -7.5079  -7.3704

     occupation numbers 
     1.0000   1.0000   1.0000   1.0000   1.0000   1.0000   1.0000   1.0000
     1.0000   1.0000   1.0000   1.0000   1.0000   1.0000   1.0000   1.0000
     1.0000   1.0000   1.0000   1.0000   1.0000   1.0000   1.0000   1.0000
     1.0000   1.0000   1.0000   1.0000   1.0000   1.0000   1.0000   1.0000
     1.0000   1.0000   1.0000   1.0000   1.0000   1.0000   1.0000   1.0000
     1.0000   1.0000   1.0000   1.0000

          k = 0.3492-0.3599 0.0000 ( 45085 PWs)   bands (ev):

   -24.1369 -24.0443 -23.8517 -23.8120 -23.6722 -23.5989 -20.2653 -20.2383
   -20.1979 -20.1579 -20.1237 -20.1098 -20.0893 -20.0872 -20.0696 -20.0534
   -20.0466 -19.9799 -19.9491 -19.9345 -19.9311 -19.8016 -19.7666 -19.6206
   -19.3737 -19.2258 -12.2487 -12.1880 -11.8336 -11.7005 -10.4302 -10.3542
    -9.7955  -9.7410  -9.0872  -8.9806  -8.7659  -8.6650  -8.2222  -8.0577
    -7.7175  -7.6213  -7.5085  -7.3844

     occupation numbers 
     1.0000   1.0000   1.0000   1.0000   1.0000   1.0000   1.0000   1.0000
     1.0000   1.0000   1.0000   1.0000   1.0000   1.0000   1.0000   1.0000
     1.0000   1.0000   1.0000   1.0000   1.0000   1.0000   1.0000   1.0000
     1.0000   1.0000   1.0000   1.0000   1.0000   1.0000   1.0000   1.0000
     1.0000   1.0000   1.0000   1.0000   1.0000   1.0000   1.0000   1.0000
     1.0000   1.0000   1.0000   1.0000

          k = 0.3430-0.2168 0.0000 ( 45092 PWs)   bands (ev):

   -24.1244 -24.0210 -23.8553 -23.8344 -23.6821 -23.6012 -20.2541 -20.2303
   -20.2044 -20.1829 -20.1184 -20.1063 -20.0876 -20.0771 -20.0694 -20.0588
   -20.0474 -19.9780 -19.9475 -19.9282 -19.9186 -19.7923 -19.7785 -19.6621
   -19.3667 -19.2202 -12.1894 -12.0896 -11.8495 -11.7755 -10.3652 -10.2654
    -9.9257  -9.8453  -9.1359  -9.0510  -8.6963  -8.5894  -8.2692  -8.1113
    -7.6435  -7.5809  -7.5330  -7.3968

     occupation numbers 
     1.0000   1.0000   1.0000   1.0000   1.0000   1.0000   1.0000   1.0000
     1.0000   1.0000   1.0000   1.0000   1.0000   1.0000   1.0000   1.0000
     1.0000   1.0000   1.0000   1.0000   1.0000   1.0000   1.0000   1.0000
     1.0000   1.0000   1.0000   1.0000   1.0000   1.0000   1.0000   1.0000
     1.0000   1.0000   1.0000   1.0000   1.0000   1.0000   1.0000   1.0000
     1.0000   1.0000   1.0000   1.0000

          k =-0.5052 0.1105 0.0000 ( 45134 PWs)   bands (ev):

   -23.9765 -23.8646 -23.7943 -23.7482 -23.7472 -23.7023 -20.2600 -20.2222
   -20.2146 -20.1805 -20.1201 -20.1007 -20.0935 -20.0846 -20.0508 -20.0411
   -20.0372 -19.9665 -19.9423 -19.8928 -19.8893 -19.7647 -19.7028 -19.5754
   -19.3131 -19.1679 -12.5799 -12.5019 -12.1971 -12.0991 -10.5655 -10.4686
    -9.9177  -9.8271  -9.1071  -9.0061  -8.4994  -8.4431  -8.1838  -8.0310
    -7.9239  -7.7645  -7.6196  -7.5249

     occupation numbers 
     1.0000   1.0000   1.0000   1.0000   1.0000   1.0000   1.0000   1.0000
     1.0000   1.0000   1.0000   1.0000   1.0000   1.0000   1.0000   1.0000
     1.0000   1.0000   1.0000   1.0000   1.0000   1.0000   1.0000   1.0000
     1.0000   1.0000   1.0000   1.0000   1.0000   1.0000   1.0000   1.0000
     1.0000   1.0000   1.0000   1.0000   1.0000   1.0000   1.0000   1.0000
     1.0000   1.0000   1.0000   1.0000

          k =-0.5114 0.2536 0.0000 ( 45094 PWs)   bands (ev):

   -23.9661 -23.8556 -23.8251 -23.7642 -23.7274 -23.6937 -20.2579 -20.2399
   -20.2116 -20.1575 -20.1169 -20.1068 -20.0925 -20.0859 -20.0579 -20.0398
   -20.0175 -19.9762 -19.9304 -19.9033 -19.8906 -19.7709 -19.7116 -19.5762
   -19.3138 -19.1684 -12.5789 -12.4966 -12.2117 -12.1091 -10.4292 -10.3513
   -10.1161 -10.0339  -8.8472  -8.7740  -8.6665  -8.5541  -8.1176  -8.0232
    -7.9814  -7.8406  -7.6019  -7.5148

     occupation numbers 
     1.0000   1.0000   1.0000   1.0000   1.0000   1.0000   1.0000   1.0000
     1.0000   1.0000   1.0000   1.0000   1.0000   1.0000   1.0000   1.0000
     1.0000   1.0000   1.0000   1.0000   1.0000   1.0000   1.0000   1.0000
     1.0000   1.0000   1.0000   1.0000   1.0000   1.0000   1.0000   1.0000
     1.0000   1.0000   1.0000   1.0000   1.0000   1.0000   1.0000   1.0000
     1.0000   1.0000   1.0000   1.0000

          k =-0.4929-0.1758 0.0000 ( 45008 PWs)   bands (ev):

   -23.9526 -23.8509 -23.8435 -23.7818 -23.7148 -23.6876 -20.2618 -20.2472
   -20.2095 -20.1304 -20.1206 -20.0941 -20.0908 -20.0853 -20.0814 -20.0306
   -20.0030 -19.9694 -19.9391 -19.9220 -19.8969 -19.7761 -19.7158 -19.5720
   -19.3149 -19.1695 -12.5758 -12.4899 -12.2258 -12.1199 -10.5251 -10.4385
    -9.8928  -9.8525  -9.0031  -8.8945  -8.6244  -8.5264  -8.1699  -8.0169
    -7.9834  -7.8089  -7.5895  -7.5029

     occupation numbers 
     1.0000   1.0000   1.0000   1.0000   1.0000   1.0000   1.0000   1.0000
     1.0000   1.0000   1.0000   1.0000   1.0000   1.0000   1.0000   1.0000
     1.0000   1.0000   1.0000   1.0000   1.0000   1.0000   1.0000   1.0000
     1.0000   1.0000   1.0000   1.0000   1.0000   1.0000   1.0000   1.0000
     1.0000   1.0000   1.0000   1.0000   1.0000   1.0000   1.0000   1.0000
     1.0000   1.0000   1.0000   1.0000

     highest occupied level (ev):    -7.2387

!    total energy              =   -1361.94840963 Ry
     estimated scf accuracy    <          4.2E-09 Ry

     convergence has been achieved in  13 iterations

     negative rho (up, down):  4.287E-04 0.000E+00

     Forces acting on atoms (cartesian axes, Ry/au):

     atom    1 type  1   force =    -0.02113563   -0.02157018    0.00135996
     atom    2 type  1   force =    -0.00885116    0.03069330    0.01022991
     atom    3 type  2   force =    -0.01260164    0.02463882   -0.05009718
     atom    4 type  2   force =     0.05202597   -0.01952570    0.00225949
     atom    5 type  2   force =    -0.00943356   -0.01526186    0.03554085
     atom    6 type  1   force =    -0.01466383   -0.03036461   -0.00441564
     atom    7 type  1   force =    -0.01892126    0.03140497    0.00357553
     atom    8 type  2   force =    -0.00894478    0.01695866   -0.03562792
     atom    9 type  2   force =     0.04414362    0.00715639   -0.00131975
     atom   10 type  2   force =    -0.00161773   -0.02412979    0.03849475
     The non-local contrib.  to forces
     atom    1 type  1   force =     0.23987233    0.18167890    0.00819827
     atom    2 type  1   force =     0.23996546   -0.07006637   -0.09743319
     atom    3 type  2   force =    -0.12183103    0.44440960   -1.12970698
     atom    4 type  2   force =     1.10107228    0.12883251   -0.06214909
     atom    5 type  2   force =    -0.05175152   -0.44140522    1.06308601
     atom    6 type  1   force =     0.22608819    0.15092778    0.05818757
     atom    7 type  1   force =     0.19902881   -0.10659476   -0.05035866
     atom    8 type  2   force =    -0.13804601    0.43012600   -1.05928419
     atom    9 type  2   force =     1.11259329    0.11753446    0.00288815
     atom   10 type  2   force =    -0.08068124   -0.46191666    1.08813966
     The ionic contribution  to forces
     atom    1 type  1   force =     1.86582873   11.16609362  -87.03041403
     atom    2 type  1   force =     2.87852032   -9.79248287 -132.46359198
     atom    3 type  2   force =     0.24019196   -1.67281894  -14.31224075
     atom    4 type  2   force =    -4.89757657   -1.08210208  -49.61127402
     atom    5 type  2   force =    -0.12810241    2.28698043  -86.42904497
     atom    6 type  1   force =     2.01118908   10.29072411  131.91340783
     atom    7 type  1   force =     2.49914241  -10.46066840   86.76439307
     atom    8 type  2   force =     0.35076225   -2.30265034   86.46933355
     atom    9 type  2   force =    -5.04351655    0.03345626   49.78510512
     atom   10 type  2   force =     0.22356078    1.53346821   14.91432617
     The local contribution  to forces
     atom    1 type  1   force =    -2.12569283  -11.36933351   87.02332211
     atom    2 type  1   force =    -3.12583622    9.89556962  132.57058148
     atom    3 type  2   force =    -0.13224241    1.25726292   15.38206318
     atom    4 type  2   force =     3.85884461    0.93472716   49.67511105
     atom    5 type  2   force =     0.16977459   -1.86494212   85.41046450
     atom    6 type  1   force =    -2.25088445  -10.47312987 -131.97575791
     atom    7 type  1   force =    -2.71672911   10.60056737  -86.71072132
     atom    8 type  2   force =    -0.22307015    1.89351652  -85.45464464
     atom    9 type  2   force =     3.98543058   -0.14269045  -49.78929594
     atom   10 type  2   force =    -0.14532710   -1.10004132  -15.95468423
     The core correction contribution to forces
     atom    1 type  1   force =    -0.00119026    0.00002111    0.00012343
     atom    2 type  1   force =    -0.00149967   -0.00232723    0.00060481
     atom    3 type  2   force =     0.00128695   -0.00420514    0.00975124
     atom    4 type  2   force =    -0.01032117   -0.00099231    0.00054205
     atom    5 type  2   force =     0.00064682    0.00411426   -0.00900929
     atom    6 type  1   force =    -0.00105018    0.00113804   -0.00022352
     atom    7 type  1   force =    -0.00033924   -0.00192572    0.00028269
     atom    8 type  2   force =     0.00140903   -0.00401793    0.00897393
     atom    9 type  2   force =    -0.01035674   -0.00115394    0.00000372
     atom   10 type  2   force =     0.00082621    0.00436485   -0.00926492
     The Hubbard contrib.    to forces
     atom    1 type  1   force =     0.00000000    0.00000000    0.00000000
     atom    2 type  1   force =     0.00000000    0.00000000    0.00000000
     atom    3 type  2   force =     0.00000000    0.00000000    0.00000000
     atom    4 type  2   force =     0.00000000    0.00000000    0.00000000
     atom    5 type  2   force =     0.00000000    0.00000000    0.00000000
     atom    6 type  1   force =     0.00000000    0.00000000    0.00000000
     atom    7 type  1   force =     0.00000000    0.00000000    0.00000000
     atom    8 type  2   force =     0.00000000    0.00000000    0.00000000
     atom    9 type  2   force =     0.00000000    0.00000000    0.00000000
     atom   10 type  2   force =     0.00000000    0.00000000    0.00000000
     The SCF correction term to forces
     atom    1 type  1   force =     0.00004627   -0.00002864    0.00013137
     atom    2 type  1   force =    -0.00000119    0.00000182    0.00006999
     atom    3 type  2   force =    -0.00000723   -0.00000798    0.00003732
     atom    4 type  2   force =     0.00000669    0.00001068    0.00003069
     atom    5 type  2   force =    -0.00000116   -0.00000755    0.00004579
     atom    6 type  1   force =    -0.00000660   -0.00002302   -0.00002842
     atom    7 type  1   force =    -0.00002425    0.00002814   -0.00001907
     atom    8 type  2   force =    -0.00000004   -0.00001393   -0.00000537
     atom    9 type  2   force =    -0.00000710    0.00001172   -0.00001962
     atom   10 type  2   force =     0.00000350   -0.00000320   -0.00002074

     Total force =     0.134950     Total SCF correction =     0.000185


     Computing stress (Cartesian axis) and pressure


     negative rho (up, down):  4.287E-04 0.000E+00
          total   stress  (Ry/bohr**3)                   (kbar)     P=      -32.24
  -0.00026931   0.00000925  -0.00000728          -39.62        1.36       -1.07
   0.00000925  -0.00029780   0.00002430            1.36      -43.81        3.57
  -0.00000728   0.00002430  -0.00009041           -1.07        3.57      -13.30

     kinetic stress (kbar)   4664.98      2.89     -1.67
                                2.89   4664.86      0.78
                               -1.67      0.78   4741.76

     local   stress (kbar)-496365.16    -93.19     -9.79
                              -93.19-492630.09   -495.11
                               -9.79   -495.11 493713.80

     nonloc. stress (kbar)     -5.12      0.45     -0.91
                                0.45    -18.37     13.82
                               -0.91     13.82     79.25

     hartree stress (kbar) 250298.97     50.06      1.49
                               50.06 248517.54    244.74
                                1.49    244.74-240989.63

     exc-cor stress (kbar)    604.65     -0.08      0.08
                               -0.08    605.20     -0.89
                                0.08     -0.89    596.43

     corecor stress (kbar)  -2383.73     -0.01      0.00
                               -0.01  -2383.82      0.09
                                0.00      0.09  -2383.62

     ewald   stress (kbar) 243145.79     41.23      9.73
                               41.23 241200.88    240.15
                                9.73    240.15-255771.30

     hubbard stress (kbar)      0.00      0.00      0.00
                                0.00      0.00      0.00
                                0.00      0.00      0.00

     DFT-D   stress (kbar)      0.00      0.00      0.00
                                0.00      0.00      0.00
                                0.00      0.00      0.00

     XDM     stress (kbar)      0.00      0.00      0.00
                                0.00      0.00      0.00
                                0.00      0.00      0.00

     dft-nl  stress (kbar)      0.00      0.00      0.00
                                0.00      0.00      0.00
                                0.00      0.00      0.00

     TS-vdW  stress (kbar)      0.00      0.00      0.00
                                0.00      0.00      0.00
                                0.00      0.00      0.00


                                0.00      0.00      0.00
                                0.00      0.00      0.00


                                0.00      0.00      0.00


     Entering Dynamics:    iteration =     5
                           time      =   0.0048 pico-seconds


     Canonical sampling velocity rescaling

ATOMIC_POSITIONS (crystal)
Ga            0.8304851350        0.7188320099        0.4263525619
Ga            0.5150620366        0.3013922379        0.3999427490
O             0.3993745356        0.5596885609        0.4501398873
O             0.4225212245        0.0116057662        0.4139701105
O             0.9433264023        0.4550880709        0.3774819502
Ga            0.8257710076        0.7207834231        0.5996129552
Ga            0.5181485364        0.3012857187        0.5735517310
O             0.3888466749        0.5655328655        0.6223123683
O             0.4354146112        0.0052615272        0.5861674134
O             0.9360731283        0.4579157012        0.5510802493


     kinetic energy (Ekin) =           0.02617021 Ry
     temperature           =         306.07032607 K 
     Ekin + Etot (const)   =       -1361.92223942 Ry
     Ions kinetic stress =            0.69 (kbar)
                                      0.79          -0.02           0.09
                                     -0.02           0.50           0.21
                                      0.09           0.21           0.77



     Linear momentum :   -0.0000000000   -0.0000000000    0.0000000000

     Writing config-only to output data dir ./tmp/Ga2O3-BL-001-300K.save/

     second order wave-functions extrapolation
     second order charge density extrapolation

     negative rho (up, down):  4.302E-04 0.000E+00

     total cpu time spent up to now is      432.2 secs

     Self-consistent Calculation

     iteration #  1     ecut=    80.00 Ry     beta= 0.20
     Davidson diagonalization with overlap

---- Real-time Memory Report at c_bands before calling an iterative solver
           314 MiB given to the printing process from OS
             0 MiB allocation reported by mallinfo(arena+hblkhd)
        367108 MiB available memory on the node where the printing process lives
------------------
     ethr =  1.00E-06,  avg # of iterations =  2.0

     Threshold (ethr) on eigenvalues was too large:
     Diagonalizing with lowered threshold

     Davidson diagonalization with overlap

---- Real-time Memory Report at c_bands before calling an iterative solver
           314 MiB given to the printing process from OS
             0 MiB allocation reported by mallinfo(arena+hblkhd)
        367127 MiB available memory on the node where the printing process lives
------------------
     ethr =  3.44E-10,  avg # of iterations = 10.2

     negative rho (up, down):  4.301E-04 0.000E+00

     total cpu time spent up to now is      437.9 secs

     total energy              =   -1361.94953636 Ry
     estimated scf accuracy    <       0.00000098 Ry

     iteration #  2     ecut=    80.00 Ry     beta= 0.20
     Davidson diagonalization with overlap

---- Real-time Memory Report at c_bands before calling an iterative solver
           314 MiB given to the printing process from OS
             0 MiB allocation reported by mallinfo(arena+hblkhd)
        367128 MiB available memory on the node where the printing process lives
------------------
     ethr =  1.11E-09,  avg # of iterations =  2.0

     negative rho (up, down):  4.301E-04 0.000E+00

     total cpu time spent up to now is      439.8 secs

     total energy              =   -1361.94953612 Ry
     estimated scf accuracy    <       0.00000042 Ry

     iteration #  3     ecut=    80.00 Ry     beta= 0.20
     Davidson diagonalization with overlap

---- Real-time Memory Report at c_bands before calling an iterative solver
           314 MiB given to the printing process from OS
             0 MiB allocation reported by mallinfo(arena+hblkhd)
        367129 MiB available memory on the node where the printing process lives
------------------
     ethr =  4.73E-10,  avg # of iterations = 11.6

     negative rho (up, down):  4.300E-04 0.000E+00

     total cpu time spent up to now is      443.8 secs

     total energy              =   -1361.94953671 Ry
     estimated scf accuracy    <       0.00000270 Ry

     iteration #  4     ecut=    80.00 Ry     beta= 0.20
     Davidson diagonalization with overlap

---- Real-time Memory Report at c_bands before calling an iterative solver
           314 MiB given to the printing process from OS
             0 MiB allocation reported by mallinfo(arena+hblkhd)
        367130 MiB available memory on the node where the printing process lives
------------------
     ethr =  4.73E-10,  avg # of iterations =  2.3

     negative rho (up, down):  4.299E-04 0.000E+00

     total cpu time spent up to now is      445.7 secs

     total energy              =   -1361.94953704 Ry
     estimated scf accuracy    <       0.00000208 Ry

     iteration #  5     ecut=    80.00 Ry     beta= 0.20
     Davidson diagonalization with overlap

---- Real-time Memory Report at c_bands before calling an iterative solver
           314 MiB given to the printing process from OS
             0 MiB allocation reported by mallinfo(arena+hblkhd)
        367130 MiB available memory on the node where the printing process lives
------------------
     ethr =  4.73E-10,  avg # of iterations =  1.7

     negative rho (up, down):  4.299E-04 0.000E+00

     total cpu time spent up to now is      447.4 secs

     total energy              =   -1361.94953532 Ry
     estimated scf accuracy    <       0.00000264 Ry

     iteration #  6     ecut=    80.00 Ry     beta= 0.20
     Davidson diagonalization with overlap

---- Real-time Memory Report at c_bands before calling an iterative solver
           314 MiB given to the printing process from OS
             0 MiB allocation reported by mallinfo(arena+hblkhd)
        367130 MiB available memory on the node where the printing process lives
------------------
     ethr =  4.73E-10,  avg # of iterations = 13.2

     negative rho (up, down):  4.298E-04 0.000E+00

     total cpu time spent up to now is      452.2 secs

     total energy              =   -1361.94953693 Ry
     estimated scf accuracy    <       0.00000540 Ry

     iteration #  7     ecut=    80.00 Ry     beta= 0.20
     Davidson diagonalization with overlap

---- Real-time Memory Report at c_bands before calling an iterative solver
           314 MiB given to the printing process from OS
             0 MiB allocation reported by mallinfo(arena+hblkhd)
        367135 MiB available memory on the node where the printing process lives
------------------
     ethr =  4.73E-10,  avg # of iterations =  3.9

     negative rho (up, down):  4.298E-04 0.000E+00

     total cpu time spent up to now is      454.2 secs

     total energy              =   -1361.94953711 Ry
     estimated scf accuracy    <       0.00000415 Ry

     iteration #  8     ecut=    80.00 Ry     beta= 0.20
     Davidson diagonalization with overlap

---- Real-time Memory Report at c_bands before calling an iterative solver
           314 MiB given to the printing process from OS
             0 MiB allocation reported by mallinfo(arena+hblkhd)
        367135 MiB available memory on the node where the printing process lives
------------------
     ethr =  4.73E-10,  avg # of iterations =  1.5

     negative rho (up, down):  4.298E-04 0.000E+00

     total cpu time spent up to now is      455.9 secs

     total energy              =   -1361.94953605 Ry
     estimated scf accuracy    <       0.00000427 Ry

     iteration #  9     ecut=    80.00 Ry     beta= 0.20
     Davidson diagonalization with overlap

---- Real-time Memory Report at c_bands before calling an iterative solver
           314 MiB given to the printing process from OS
             0 MiB allocation reported by mallinfo(arena+hblkhd)
        367135 MiB available memory on the node where the printing process lives
------------------
     ethr =  4.73E-10,  avg # of iterations = 10.1

     negative rho (up, down):  4.298E-04 0.000E+00

     total cpu time spent up to now is      459.6 secs

     total energy              =   -1361.94953654 Ry
     estimated scf accuracy    <       0.00000019 Ry

     iteration # 10     ecut=    80.00 Ry     beta= 0.20
     Davidson diagonalization with overlap

---- Real-time Memory Report at c_bands before calling an iterative solver
           314 MiB given to the printing process from OS
             0 MiB allocation reported by mallinfo(arena+hblkhd)
        367132 MiB available memory on the node where the printing process lives
------------------
     ethr =  2.21E-10,  avg # of iterations =  2.2

     negative rho (up, down):  4.298E-04 0.000E+00

     total cpu time spent up to now is      461.4 secs

     total energy              =   -1361.94953665 Ry
     estimated scf accuracy    <       0.00000015 Ry

     iteration # 11     ecut=    80.00 Ry     beta= 0.20
     Davidson diagonalization with overlap

---- Real-time Memory Report at c_bands before calling an iterative solver
           314 MiB given to the printing process from OS
             0 MiB allocation reported by mallinfo(arena+hblkhd)
        367133 MiB available memory on the node where the printing process lives
------------------
     ethr =  1.67E-10,  avg # of iterations =  7.2

     negative rho (up, down):  4.298E-04 0.000E+00

     total cpu time spent up to now is      464.3 secs

     total energy              =   -1361.94953636 Ry
     estimated scf accuracy    <       0.00000085 Ry

     iteration # 12     ecut=    80.00 Ry     beta= 0.20
     Davidson diagonalization with overlap

---- Real-time Memory Report at c_bands before calling an iterative solver
           314 MiB given to the printing process from OS
             0 MiB allocation reported by mallinfo(arena+hblkhd)
        367133 MiB available memory on the node where the printing process lives
------------------
     ethr =  1.67E-10,  avg # of iterations = 10.0

     negative rho (up, down):  4.298E-04 0.000E+00

     total cpu time spent up to now is      468.0 secs

     total energy              =   -1361.94953655 Ry
     estimated scf accuracy    <       0.00000007 Ry

     iteration # 13     ecut=    80.00 Ry     beta= 0.20
     Davidson diagonalization with overlap

---- Real-time Memory Report at c_bands before calling an iterative solver
           314 MiB given to the printing process from OS
             0 MiB allocation reported by mallinfo(arena+hblkhd)
        367134 MiB available memory on the node where the printing process lives
------------------
     ethr =  7.49E-11,  avg # of iterations =  2.0

     negative rho (up, down):  4.297E-04 0.000E+00

     total cpu time spent up to now is      469.8 secs

     total energy              =   -1361.94953655 Ry
     estimated scf accuracy    <       0.00000004 Ry

     iteration # 14     ecut=    80.00 Ry     beta= 0.20
     Davidson diagonalization with overlap

---- Real-time Memory Report at c_bands before calling an iterative solver
           314 MiB given to the printing process from OS
             0 MiB allocation reported by mallinfo(arena+hblkhd)
        367117 MiB available memory on the node where the printing process lives
------------------
     ethr =  4.97E-11,  avg # of iterations =  5.5

     negative rho (up, down):  4.297E-04 0.000E+00

     total cpu time spent up to now is      472.1 secs

     total energy              =   -1361.94953655 Ry
     estimated scf accuracy    <       0.00000001 Ry

     iteration # 15     ecut=    80.00 Ry     beta= 0.20
     Davidson diagonalization with overlap

---- Real-time Memory Report at c_bands before calling an iterative solver
           314 MiB given to the printing process from OS
             0 MiB allocation reported by mallinfo(arena+hblkhd)
        367127 MiB available memory on the node where the printing process lives
------------------
     ethr =  1.48E-11,  avg # of iterations =  8.1

     negative rho (up, down):  4.297E-04 0.000E+00

     total cpu time spent up to now is      475.2 secs

     End of self-consistent calculation

          k = 0.0000 0.0000 0.0000 ( 45065 PWs)   bands (ev):

   -24.6173 -24.5353 -23.7770 -23.6947 -23.6601 -23.5663 -20.2944 -20.2355
   -20.2001 -20.1679 -20.1593 -20.1430 -20.1157 -20.0926 -20.0590 -20.0058
   -20.0037 -19.9980 -19.9910 -19.9756 -19.9390 -19.8545 -19.6560 -19.6317
   -19.4826 -19.4436 -12.6964 -12.6372 -10.4131 -10.2054  -9.4722  -9.3919
    -8.9034  -8.7538  -8.3865  -8.2813  -8.2324  -8.1318  -8.0700  -8.0230
    -7.9214  -7.8120  -7.5877  -7.2854

     occupation numbers 
     1.0000   1.0000   1.0000   1.0000   1.0000   1.0000   1.0000   1.0000
     1.0000   1.0000   1.0000   1.0000   1.0000   1.0000   1.0000   1.0000
     1.0000   1.0000   1.0000   1.0000   1.0000   1.0000   1.0000   1.0000
     1.0000   1.0000   1.0000   1.0000   1.0000   1.0000   1.0000   1.0000
     1.0000   1.0000   1.0000   1.0000   1.0000   1.0000   1.0000   1.0000
     1.0000   1.0000   1.0000   1.0000

          k =-0.0062 0.1431 0.0000 ( 45113 PWs)   bands (ev):

   -24.5460 -24.4544 -23.9336 -23.8691 -23.5862 -23.4796 -20.2770 -20.2347
   -20.2020 -20.1811 -20.1567 -20.1203 -20.1053 -20.0822 -20.0592 -20.0297
   -20.0069 -19.9977 -19.9886 -19.9519 -19.9296 -19.8456 -19.7190 -19.6282
   -19.5436 -19.4433 -12.3314 -12.2639 -10.5020 -10.3099  -9.8392  -9.7541
    -9.1922  -9.0441  -8.4779  -8.3695  -8.1868  -8.0732  -7.9084  -7.8226
    -7.7835  -7.7048  -7.5863  -7.3094

     occupation numbers 
     1.0000   1.0000   1.0000   1.0000   1.0000   1.0000   1.0000   1.0000
     1.0000   1.0000   1.0000   1.0000   1.0000   1.0000   1.0000   1.0000
     1.0000   1.0000   1.0000   1.0000   1.0000   1.0000   1.0000   1.0000
     1.0000   1.0000   1.0000   1.0000   1.0000   1.0000   1.0000   1.0000
     1.0000   1.0000   1.0000   1.0000   1.0000   1.0000   1.0000   1.0000
     1.0000   1.0000   1.0000   1.0000

          k = 0.0124-0.2862 0.0000 ( 45174 PWs)   bands (ev):

   -24.4413 -24.3201 -24.0821 -24.0532 -23.5508 -23.4395 -20.2650 -20.2297
   -20.2068 -20.1838 -20.1561 -20.0978 -20.0875 -20.0734 -20.0552 -20.0467
   -20.0149 -19.9919 -19.9875 -19.9285 -19.9210 -19.8360 -19.7920 -19.6234
   -19.6173 -19.4392 -11.7387 -11.6545 -10.7544 -10.6261 -10.3525 -10.2505
    -9.2536  -9.1191  -8.6079  -8.4978  -8.1430  -8.0092  -7.8491  -7.7463
    -7.6678  -7.5641  -7.4469  -7.3364

     occupation numbers 
     1.0000   1.0000   1.0000   1.0000   1.0000   1.0000   1.0000   1.0000
     1.0000   1.0000   1.0000   1.0000   1.0000   1.0000   1.0000   1.0000
     1.0000   1.0000   1.0000   1.0000   1.0000   1.0000   1.0000   1.0000
     1.0000   1.0000   1.0000   1.0000   1.0000   1.0000   1.0000   1.0000
     1.0000   1.0000   1.0000   1.0000   1.0000   1.0000   1.0000   1.0000
     1.0000   1.0000   1.0000   1.0000

          k = 0.1684-0.0368 0.0000 ( 45086 PWs)   bands (ev):

   -24.4905 -24.4054 -23.7850 -23.7050 -23.6492 -23.5528 -20.2904 -20.2317
   -20.2100 -20.1647 -20.1393 -20.1363 -20.1060 -20.0697 -20.0560 -20.0256
   -20.0023 -20.0009 -19.9761 -19.9394 -19.9251 -19.8488 -19.6188 -19.5701
   -19.4345 -19.3963 -12.5505 -12.4924 -10.6343 -10.4625 -10.1836 -10.0791
    -9.2737  -9.1310  -8.6609  -8.5183  -8.3516  -8.2678  -8.1165  -8.0164
    -7.9782  -7.9111  -7.4394  -7.2021

     occupation numbers 
     1.0000   1.0000   1.0000   1.0000   1.0000   1.0000   1.0000   1.0000
     1.0000   1.0000   1.0000   1.0000   1.0000   1.0000   1.0000   1.0000
     1.0000   1.0000   1.0000   1.0000   1.0000   1.0000   1.0000   1.0000
     1.0000   1.0000   1.0000   1.0000   1.0000   1.0000   1.0000   1.0000
     1.0000   1.0000   1.0000   1.0000   1.0000   1.0000   1.0000   1.0000
     1.0000   1.0000   1.0000   1.0000

          k = 0.1622 0.1063 0.0000 ( 45049 PWs)   bands (ev):

   -24.4651 -24.3764 -23.8420 -23.7676 -23.6209 -23.5212 -20.2914 -20.2279
   -20.1985 -20.1599 -20.1513 -20.1280 -20.1073 -20.0671 -20.0548 -20.0294
   -20.0002 -19.9908 -19.9800 -19.9383 -19.9225 -19.8400 -19.6766 -19.5432
   -19.4987 -19.3578 -12.4211 -12.3656 -10.7297 -10.5254 -10.1431 -10.0558
    -9.3907  -9.2710  -8.7297  -8.6048  -8.4075  -8.2838  -8.0379  -7.9627
    -7.9050  -7.8438  -7.4447  -7.2052

     occupation numbers 
     1.0000   1.0000   1.0000   1.0000   1.0000   1.0000   1.0000   1.0000
     1.0000   1.0000   1.0000   1.0000   1.0000   1.0000   1.0000   1.0000
     1.0000   1.0000   1.0000   1.0000   1.0000   1.0000   1.0000   1.0000
     1.0000   1.0000   1.0000   1.0000   1.0000   1.0000   1.0000   1.0000
     1.0000   1.0000   1.0000   1.0000   1.0000   1.0000   1.0000   1.0000
     1.0000   1.0000   1.0000   1.0000

          k = 0.1808-0.3231 0.0000 ( 45092 PWs)   bands (ev):

   -24.3562 -24.2379 -23.9979 -23.9634 -23.5829 -23.4743 -20.2748 -20.2282
   -20.1942 -20.1679 -20.1371 -20.1045 -20.0997 -20.0610 -20.0488 -20.0434
   -19.9974 -19.9759 -19.9648 -19.9293 -19.9192 -19.8064 -19.7962 -19.6201
   -19.5234 -19.3381 -11.8267 -11.7514 -11.0453 -10.8986 -10.2347 -10.1370
    -9.6885  -9.5734  -8.9868  -8.8736  -8.3410  -8.1941  -8.1183  -7.9819
    -7.6186  -7.5162  -7.4491  -7.2151

     occupation numbers 
     1.0000   1.0000   1.0000   1.0000   1.0000   1.0000   1.0000   1.0000
     1.0000   1.0000   1.0000   1.0000   1.0000   1.0000   1.0000   1.0000
     1.0000   1.0000   1.0000   1.0000   1.0000   1.0000   1.0000   1.0000
     1.0000   1.0000   1.0000   1.0000   1.0000   1.0000   1.0000   1.0000
     1.0000   1.0000   1.0000   1.0000   1.0000   1.0000   1.0000   1.0000
     1.0000   1.0000   1.0000   1.0000

          k = 0.1746-0.1799 0.0000 ( 45085 PWs)   bands (ev):

   -24.3974 -24.2938 -23.9419 -23.8919 -23.5952 -23.4871 -20.2710 -20.2258
   -20.2119 -20.1702 -20.1356 -20.1119 -20.0963 -20.0630 -20.0531 -20.0367
   -19.9981 -19.9874 -19.9755 -19.9358 -19.9159 -19.8237 -19.7437 -19.5712
   -19.5319 -19.3509 -12.0699 -11.9883 -10.8470 -10.7369 -10.2416 -10.1115
    -9.6355  -9.4885  -8.8901  -8.7861  -8.3378  -8.2244  -8.1070  -7.9684
    -7.7104  -7.6161  -7.4484  -7.2121

     occupation numbers 
     1.0000   1.0000   1.0000   1.0000   1.0000   1.0000   1.0000   1.0000
     1.0000   1.0000   1.0000   1.0000   1.0000   1.0000   1.0000   1.0000
     1.0000   1.0000   1.0000   1.0000   1.0000   1.0000   1.0000   1.0000
     1.0000   1.0000   1.0000   1.0000   1.0000   1.0000   1.0000   1.0000
     1.0000   1.0000   1.0000   1.0000   1.0000   1.0000   1.0000   1.0000
     1.0000   1.0000   1.0000   1.0000

          k = 0.3368-0.0737 0.0000 ( 45074 PWs)   bands (ev):

   -24.1967 -24.0985 -23.7802 -23.7045 -23.6772 -23.5907 -20.2589 -20.2347
   -20.1998 -20.1783 -20.1026 -20.0961 -20.0809 -20.0451 -20.0386 -20.0305
   -20.0157 -19.9588 -19.9372 -19.9156 -19.8868 -19.7988 -19.6264 -19.4566
   -19.3974 -19.2193 -12.4764 -12.4070 -11.6048 -11.4707 -10.7216 -10.5813
    -9.6445  -9.5340  -8.9544  -8.8042  -8.6697  -8.5536  -8.1428  -7.9809
    -7.8379  -7.7689  -7.5016  -7.3251

     occupation numbers 
     1.0000   1.0000   1.0000   1.0000   1.0000   1.0000   1.0000   1.0000
     1.0000   1.0000   1.0000   1.0000   1.0000   1.0000   1.0000   1.0000
     1.0000   1.0000   1.0000   1.0000   1.0000   1.0000   1.0000   1.0000
     1.0000   1.0000   1.0000   1.0000   1.0000   1.0000   1.0000   1.0000
     1.0000   1.0000   1.0000   1.0000   1.0000   1.0000   1.0000   1.0000
     1.0000   1.0000   1.0000   1.0000

          k = 0.3306 0.0695 0.0000 ( 45046 PWs)   bands (ev):

   -24.2050 -24.1108 -23.7854 -23.6931 -23.6626 -23.5885 -20.2739 -20.2363
   -20.1919 -20.1598 -20.1065 -20.1010 -20.0863 -20.0442 -20.0371 -20.0315
   -20.0166 -19.9637 -19.9407 -19.9052 -19.8962 -19.8063 -19.6050 -19.4255
   -19.4109 -19.2317 -12.5164 -12.4618 -11.6134 -11.4304 -10.7060 -10.6070
    -9.6510  -9.5590  -8.9127  -8.7641  -8.5440  -8.4531  -8.2318  -8.0238
    -7.8736  -7.7941  -7.4956  -7.3248

     occupation numbers 
     1.0000   1.0000   1.0000   1.0000   1.0000   1.0000   1.0000   1.0000
     1.0000   1.0000   1.0000   1.0000   1.0000   1.0000   1.0000   1.0000
     1.0000   1.0000   1.0000   1.0000   1.0000   1.0000   1.0000   1.0000
     1.0000   1.0000   1.0000   1.0000   1.0000   1.0000   1.0000   1.0000
     1.0000   1.0000   1.0000   1.0000   1.0000   1.0000   1.0000   1.0000
     1.0000   1.0000   1.0000   1.0000

          k = 0.3492-0.3599 0.0000 ( 45085 PWs)   bands (ev):

   -24.1423 -24.0241 -23.8503 -23.8010 -23.6640 -23.5706 -20.2615 -20.2346
   -20.1902 -20.1461 -20.1029 -20.0846 -20.0808 -20.0466 -20.0351 -20.0285
   -20.0150 -19.9396 -19.9201 -19.9074 -19.8945 -19.7590 -19.7573 -19.5758
   -19.3626 -19.1790 -12.2453 -12.1702 -11.8340 -11.6713 -10.4234 -10.3321
    -9.7889  -9.7208  -9.0831  -8.9505  -8.7589  -8.6329  -8.2112  -8.0273
    -7.7157  -7.5981  -7.4945  -7.3394

     occupation numbers 
     1.0000   1.0000   1.0000   1.0000   1.0000   1.0000   1.0000   1.0000
     1.0000   1.0000   1.0000   1.0000   1.0000   1.0000   1.0000   1.0000
     1.0000   1.0000   1.0000   1.0000   1.0000   1.0000   1.0000   1.0000
     1.0000   1.0000   1.0000   1.0000   1.0000   1.0000   1.0000   1.0000
     1.0000   1.0000   1.0000   1.0000   1.0000   1.0000   1.0000   1.0000
     1.0000   1.0000   1.0000   1.0000

          k = 0.3430-0.2168 0.0000 ( 45092 PWs)   bands (ev):

   -24.1308 -23.9998 -23.8525 -23.8246 -23.6742 -23.5728 -20.2500 -20.2264
   -20.1971 -20.1728 -20.0977 -20.0809 -20.0705 -20.0481 -20.0351 -20.0270
   -20.0171 -19.9378 -19.9099 -19.9085 -19.8862 -19.7812 -19.7348 -19.6190
   -19.3553 -19.1734 -12.1929 -12.0700 -11.8361 -11.7466 -10.3663 -10.2436
    -9.9254  -9.8258  -9.1261  -9.0210  -8.6905  -8.5569  -8.2570  -8.0818
    -7.6395  -7.5627  -7.5167  -7.3505

     occupation numbers 
     1.0000   1.0000   1.0000   1.0000   1.0000   1.0000   1.0000   1.0000
     1.0000   1.0000   1.0000   1.0000   1.0000   1.0000   1.0000   1.0000
     1.0000   1.0000   1.0000   1.0000   1.0000   1.0000   1.0000   1.0000
     1.0000   1.0000   1.0000   1.0000   1.0000   1.0000   1.0000   1.0000
     1.0000   1.0000   1.0000   1.0000   1.0000   1.0000   1.0000   1.0000
     1.0000   1.0000   1.0000   1.0000

          k =-0.5052 0.1105 0.0000 ( 45134 PWs)   bands (ev):

   -23.9872 -23.8533 -23.7920 -23.7354 -23.7169 -23.6839 -20.2558 -20.2173
   -20.2073 -20.1715 -20.0916 -20.0824 -20.0545 -20.0472 -20.0426 -20.0280
   -19.9933 -19.9247 -19.9054 -19.8770 -19.8496 -19.7217 -19.6929 -19.5338
   -19.3021 -19.1220 -12.5839 -12.4868 -12.1843 -12.0656 -10.5612 -10.4441
    -9.9213  -9.8066  -9.1036  -8.9811  -8.4874  -8.4149  -8.1749  -7.9970
    -7.9103  -7.7265  -7.6139  -7.4947

     occupation numbers 
     1.0000   1.0000   1.0000   1.0000   1.0000   1.0000   1.0000   1.0000
     1.0000   1.0000   1.0000   1.0000   1.0000   1.0000   1.0000   1.0000
     1.0000   1.0000   1.0000   1.0000   1.0000   1.0000   1.0000   1.0000
     1.0000   1.0000   1.0000   1.0000   1.0000   1.0000   1.0000   1.0000
     1.0000   1.0000   1.0000   1.0000   1.0000   1.0000   1.0000   1.0000
     1.0000   1.0000   1.0000   1.0000

          k =-0.5114 0.2536 0.0000 ( 45094 PWs)   bands (ev):

   -23.9773 -23.8440 -23.8206 -23.7370 -23.7165 -23.6725 -20.2538 -20.2365
   -20.2032 -20.1464 -20.0988 -20.0786 -20.0533 -20.0496 -20.0432 -20.0077
   -19.9989 -19.9359 -19.8916 -19.8897 -19.8500 -19.7267 -19.7031 -19.5339
   -19.3026 -19.1224 -12.5815 -12.4794 -12.2030 -12.0784 -10.4266 -10.3312
   -10.1103 -10.0068  -8.8479  -8.7575  -8.6583  -8.5189  -8.1081  -8.0080
    -7.9513  -7.7972  -7.5956  -7.4858

     occupation numbers 
     1.0000   1.0000   1.0000   1.0000   1.0000   1.0000   1.0000   1.0000
     1.0000   1.0000   1.0000   1.0000   1.0000   1.0000   1.0000   1.0000
     1.0000   1.0000   1.0000   1.0000   1.0000   1.0000   1.0000   1.0000
     1.0000   1.0000   1.0000   1.0000   1.0000   1.0000   1.0000   1.0000
     1.0000   1.0000   1.0000   1.0000   1.0000   1.0000   1.0000   1.0000
     1.0000   1.0000   1.0000   1.0000

          k =-0.4929-0.1758 0.0000 ( 45008 PWs)   bands (ev):

   -23.9649 -23.8449 -23.8320 -23.7554 -23.7044 -23.6655 -20.2579 -20.2439
   -20.2010 -20.1170 -20.0901 -20.0812 -20.0695 -20.0503 -20.0433 -19.9931
   -19.9919 -19.9297 -19.9119 -19.8955 -19.8590 -19.7307 -19.7086 -19.5290
   -19.3036 -19.1235 -12.5767 -12.4705 -12.2216 -12.0923 -10.5199 -10.4153
    -9.8832  -9.8313  -8.9952  -8.8635  -8.6281  -8.5076  -8.1634  -7.9782
    -7.9667  -7.7678  -7.5820  -7.4741

     occupation numbers 
     1.0000   1.0000   1.0000   1.0000   1.0000   1.0000   1.0000   1.0000
     1.0000   1.0000   1.0000   1.0000   1.0000   1.0000   1.0000   1.0000
     1.0000   1.0000   1.0000   1.0000   1.0000   1.0000   1.0000   1.0000
     1.0000   1.0000   1.0000   1.0000   1.0000   1.0000   1.0000   1.0000
     1.0000   1.0000   1.0000   1.0000   1.0000   1.0000   1.0000   1.0000
     1.0000   1.0000   1.0000   1.0000

     highest occupied level (ev):    -7.2021

!    total energy              =   -1361.94953656 Ry
     estimated scf accuracy    <          9.8E-10 Ry

     convergence has been achieved in  15 iterations

     negative rho (up, down):  4.297E-04 0.000E+00

     Forces acting on atoms (cartesian axes, Ry/au):

     atom    1 type  1   force =    -0.02104364   -0.02101268    0.00244273
     atom    2 type  1   force =    -0.00549404    0.03333135    0.01156362
     atom    3 type  2   force =    -0.01419949    0.02621844   -0.05040224
     atom    4 type  2   force =     0.05166226   -0.02534650    0.00252880
     atom    5 type  2   force =    -0.01095704   -0.01422382    0.03307292
     atom    6 type  1   force =    -0.01300032   -0.03209757   -0.00431409
     atom    7 type  1   force =    -0.01806878    0.03389174    0.00366592
     atom    8 type  2   force =    -0.00976832    0.01684381   -0.03322852
     atom    9 type  2   force =     0.04204154    0.00765257   -0.00140771
     atom   10 type  2   force =    -0.00117217   -0.02525735    0.03607858
     The non-local contrib.  to forces
     atom    1 type  1   force =     0.24461652    0.19113045    0.00192919
     atom    2 type  1   force =     0.24684881   -0.06453256   -0.11084511
     atom    3 type  2   force =    -0.11678338    0.45078233   -1.12928967
     atom    4 type  2   force =     1.09984037    0.13285313   -0.07997965
     atom    5 type  2   force =    -0.04383100   -0.43828269    1.05220265
     atom    6 type  1   force =     0.22696076    0.15454273    0.06267344
     atom    7 type  1   force =     0.19649526   -0.10781992   -0.05348304
     atom    8 type  2   force =    -0.13647417    0.43232254   -1.04770150
     atom    9 type  2   force =     1.11345176    0.12095064    0.00445146
     atom   10 type  2   force =    -0.07973231   -0.46431814    1.07726284
     The ionic contribution  to forces
     atom    1 type  1   force =     1.88498226   11.24364644  -87.08338985
     atom    2 type  1   force =     2.97262302   -9.71593016 -132.70433963
     atom    3 type  2   force =     0.19434133   -1.66683809  -14.32185158
     atom    4 type  2   force =    -4.89002229   -1.27044921  -49.38799254
     atom    5 type  2   force =    -0.20317461    2.30512807  -86.34919255
     atom    6 type  1   force =     2.05754390   10.27062688  131.98538306
     atom    7 type  1   force =     2.49678981  -10.42135767   86.72260370
     atom    8 type  2   force =     0.32190299   -2.29805388   86.36241388
     atom    9 type  2   force =    -5.06293015    0.03532742   49.74055836
     atom   10 type  2   force =     0.22794373    1.51790021   15.03580716
     The local contribution  to forces
     atom    1 type  1   force =    -2.14935513  -11.45564089   87.08379692
     atom    2 type  1   force =    -3.22320188    9.81634001  132.82610146
     atom    3 type  2   force =    -0.09301377    1.24654441   15.39099502
     atom    4 type  2   force =     3.85214923    1.11322923   49.46981545
     atom    5 type  2   force =     0.23545306   -1.88514919   85.33896699
     atom    6 type  1   force =    -2.29638867  -10.45847618 -132.05219636
     atom    7 type  1   force =    -2.71101971   10.56515231  -86.66587689
     atom    8 type  2   force =    -0.19660234    1.88660929  -85.35679642
     atom    9 type  2   force =     4.00186184   -0.14743045  -49.74643964
     atom   10 type  2   force =    -0.15019735   -1.08323700  -16.06785628
     The core correction contribution to forces
     atom    1 type  1   force =    -0.00129571   -0.00015886    0.00014109
     atom    2 type  1   force =    -0.00175703   -0.00255956    0.00070462
     atom    3 type  2   force =     0.00125416   -0.00427542    0.00974971
     atom    4 type  2   force =    -0.01030687   -0.00097019    0.00069552
     atom    5 type  2   force =     0.00059269    0.00407679   -0.00888796
     atom    6 type  1   force =    -0.00111099    0.00121037   -0.00027229
     atom    7 type  1   force =    -0.00032453   -0.00207284    0.00032068
     atom    8 type  2   force =     0.00140275   -0.00403678    0.00884717
     atom    9 type  2   force =    -0.01034635   -0.00118739   -0.00000914
     atom   10 type  2   force =     0.00081453    0.00439417   -0.00914275
     The Hubbard contrib.    to forces
     atom    1 type  1   force =     0.00000000    0.00000000    0.00000000
     atom    2 type  1   force =     0.00000000    0.00000000    0.00000000
     atom    3 type  2   force =     0.00000000    0.00000000    0.00000000
     atom    4 type  2   force =     0.00000000    0.00000000    0.00000000
     atom    5 type  2   force =     0.00000000    0.00000000    0.00000000
     atom    6 type  1   force =     0.00000000    0.00000000    0.00000000
     atom    7 type  1   force =     0.00000000    0.00000000    0.00000000
     atom    8 type  2   force =     0.00000000    0.00000000    0.00000000
     atom    9 type  2   force =     0.00000000    0.00000000    0.00000000
     atom   10 type  2   force =     0.00000000    0.00000000    0.00000000
     The SCF correction term to forces
     atom    1 type  1   force =     0.00000649    0.00001203   -0.00002582
     atom    2 type  1   force =    -0.00000888    0.00001548   -0.00004892
     atom    3 type  2   force =     0.00000025    0.00000705    0.00000308
     atom    4 type  2   force =    -0.00000009   -0.00000761   -0.00000118
     atom    5 type  2   force =     0.00000090    0.00000505   -0.00000741
     atom    6 type  1   force =    -0.00000723    0.00000047    0.00010686
     atom    7 type  1   force =    -0.00001152   -0.00000830    0.00011026
     atom    8 type  2   force =     0.00000052    0.00000449    0.00001715
     atom    9 type  2   force =     0.00000253   -0.00000580    0.00004005
     atom   10 type  2   force =    -0.00000269    0.00000525    0.00001641

     Total force =     0.135231     Total SCF correction =     0.000173


     Computing stress (Cartesian axis) and pressure


     negative rho (up, down):  4.297E-04 0.000E+00
          total   stress  (Ry/bohr**3)                   (kbar)     P=      -31.60
  -0.00026530   0.00001052  -0.00000836          -39.03        1.55       -1.23
   0.00001052  -0.00029274   0.00002364            1.55      -43.06        3.48
  -0.00000836   0.00002364  -0.00008640           -1.23        3.48      -12.71

     kinetic stress (kbar)   4669.73      3.31     -1.78
                                3.31   4669.69      0.49
                               -1.78      0.49   4745.65

     local   stress (kbar)-496413.41   -100.01     -5.42
                             -100.01-492728.16   -506.54
                               -5.42   -506.54 493796.56

     nonloc. stress (kbar)     -9.61      0.04     -0.80
                                0.04    -23.84     14.05
                               -0.80     14.05     75.72

     hartree stress (kbar) 250327.09     52.17      0.01
                               52.17 248564.45    250.08
                                0.01    250.08-241028.36

     exc-cor stress (kbar)    604.44     -0.06      0.07
                               -0.06    605.04     -0.89
                                0.07     -0.89    596.20

     corecor stress (kbar)  -2383.70     -0.01      0.00
                               -0.01  -2383.80      0.09
                                0.00      0.09  -2383.59

     ewald   stress (kbar) 243166.44     46.11      6.69
                               46.11 241253.56    246.19
                                6.69    246.19-255814.89

     hubbard stress (kbar)      0.00      0.00      0.00
                                0.00      0.00      0.00
                                0.00      0.00      0.00

     DFT-D   stress (kbar)      0.00      0.00      0.00
                                0.00      0.00      0.00
                                0.00      0.00      0.00

     XDM     stress (kbar)      0.00      0.00      0.00
                                0.00      0.00      0.00
                                0.00      0.00      0.00

     dft-nl  stress (kbar)      0.00      0.00      0.00
                                0.00      0.00      0.00
                                0.00      0.00      0.00

     TS-vdW  stress (kbar)      0.00      0.00      0.00
                                0.00      0.00      0.00
                                0.00      0.00      0.00


                                0.00      0.00      0.00
                                0.00      0.00      0.00


                                0.00      0.00      0.00


     Entering Dynamics:    iteration =     6
                           time      =   0.0058 pico-seconds


     Canonical sampling velocity rescaling

ATOMIC_POSITIONS (crystal)
Ga            0.8308716781        0.7187006010        0.4263282282
Ga            0.5142407146        0.3012049465        0.3998519252
O             0.4014517214        0.5591768660        0.4500952244
O             0.4226409561        0.0127280261        0.4141173545
O             0.9442196764        0.4548266587        0.3776358403
Ga            0.8252430830        0.7210259176        0.5996335557
Ga            0.5179123391        0.3010792960        0.5735749530
O             0.3888942972        0.5661295057        0.6221174302
O             0.4379304012        0.0053108856        0.5861446716
O             0.9356442865        0.4581522330        0.5513523331


     kinetic energy (Ekin) =           0.02804356 Ry
     temperature           =         327.97986147 K 
     Ekin + Etot (const)   =       -1361.92149299 Ry
     Ions kinetic stress =            0.74 (kbar)
                                      0.86           0.02           0.09
                                      0.02           0.47           0.19
                                      0.09           0.19           0.89



     Linear momentum :   -0.0000000000   -0.0000000000    0.0000000000

     Writing config-only to output data dir ./tmp/Ga2O3-BL-001-300K.save/

     second order wave-functions extrapolation
     second order charge density extrapolation

     negative rho (up, down):  4.316E-04 0.000E+00

     total cpu time spent up to now is      484.3 secs

     Self-consistent Calculation

     iteration #  1     ecut=    80.00 Ry     beta= 0.20
     Davidson diagonalization with overlap

---- Real-time Memory Report at c_bands before calling an iterative solver
           314 MiB given to the printing process from OS
             0 MiB allocation reported by mallinfo(arena+hblkhd)
        367134 MiB available memory on the node where the printing process lives
------------------
     ethr =  1.00E-06,  avg # of iterations =  2.0

     Threshold (ethr) on eigenvalues was too large:
     Diagonalizing with lowered threshold

     Davidson diagonalization with overlap

---- Real-time Memory Report at c_bands before calling an iterative solver
           314 MiB given to the printing process from OS
             0 MiB allocation reported by mallinfo(arena+hblkhd)
        367121 MiB available memory on the node where the printing process lives
------------------
     ethr =  2.53E-10,  avg # of iterations =  9.9

     negative rho (up, down):  4.314E-04 0.000E+00

     total cpu time spent up to now is      490.2 secs

     total energy              =   -1361.95079479 Ry
     estimated scf accuracy    <       0.00000111 Ry

     iteration #  2     ecut=    80.00 Ry     beta= 0.20
     Davidson diagonalization with overlap

---- Real-time Memory Report at c_bands before calling an iterative solver
           314 MiB given to the printing process from OS
             0 MiB allocation reported by mallinfo(arena+hblkhd)
        367122 MiB available memory on the node where the printing process lives
------------------
     ethr =  1.26E-09,  avg # of iterations =  2.4

     negative rho (up, down):  4.313E-04 0.000E+00

     total cpu time spent up to now is      492.1 secs

     total energy              =   -1361.95079453 Ry
     estimated scf accuracy    <       0.00000044 Ry

     iteration #  3     ecut=    80.00 Ry     beta= 0.20
     Davidson diagonalization with overlap

---- Real-time Memory Report at c_bands before calling an iterative solver
           314 MiB given to the printing process from OS
             0 MiB allocation reported by mallinfo(arena+hblkhd)
        367122 MiB available memory on the node where the printing process lives
------------------
     ethr =  5.05E-10,  avg # of iterations = 10.4

     negative rho (up, down):  4.312E-04 0.000E+00

     total cpu time spent up to now is      495.9 secs

     total energy              =   -1361.95079536 Ry
     estimated scf accuracy    <       0.00000290 Ry

     iteration #  4     ecut=    80.00 Ry     beta= 0.20
     Davidson diagonalization with overlap

---- Real-time Memory Report at c_bands before calling an iterative solver
           314 MiB given to the printing process from OS
             0 MiB allocation reported by mallinfo(arena+hblkhd)
        367123 MiB available memory on the node where the printing process lives
------------------
     ethr =  5.05E-10,  avg # of iterations =  1.0

     negative rho (up, down):  4.312E-04 0.000E+00

     total cpu time spent up to now is      497.5 secs

     total energy              =   -1361.95079541 Ry
     estimated scf accuracy    <       0.00000266 Ry

     iteration #  5     ecut=    80.00 Ry     beta= 0.20
     Davidson diagonalization with overlap

---- Real-time Memory Report at c_bands before calling an iterative solver
           314 MiB given to the printing process from OS
             0 MiB allocation reported by mallinfo(arena+hblkhd)
        367124 MiB available memory on the node where the printing process lives
------------------
     ethr =  5.05E-10,  avg # of iterations =  1.0

     negative rho (up, down):  4.311E-04 0.000E+00

     total cpu time spent up to now is      499.2 secs

     total energy              =   -1361.95079487 Ry
     estimated scf accuracy    <       0.00000275 Ry

     iteration #  6     ecut=    80.00 Ry     beta= 0.20
     Davidson diagonalization with overlap

---- Real-time Memory Report at c_bands before calling an iterative solver
           314 MiB given to the printing process from OS
             0 MiB allocation reported by mallinfo(arena+hblkhd)
        367123 MiB available memory on the node where the printing process lives
------------------
     ethr =  5.05E-10,  avg # of iterations =  6.9

     negative rho (up, down):  4.311E-04 0.000E+00

     total cpu time spent up to now is      501.9 secs

     total energy              =   -1361.95079480 Ry
     estimated scf accuracy    <       0.00000067 Ry

     iteration #  7     ecut=    80.00 Ry     beta= 0.20
     Davidson diagonalization with overlap

---- Real-time Memory Report at c_bands before calling an iterative solver
           314 MiB given to the printing process from OS
             0 MiB allocation reported by mallinfo(arena+hblkhd)
        367132 MiB available memory on the node where the printing process lives
------------------
     ethr =  5.05E-10,  avg # of iterations =  7.0

     negative rho (up, down):  4.310E-04 0.000E+00

     total cpu time spent up to now is      504.5 secs

     total energy              =   -1361.95079490 Ry
     estimated scf accuracy    <       0.00000004 Ry

     iteration #  8     ecut=    80.00 Ry     beta= 0.20
     Davidson diagonalization with overlap

---- Real-time Memory Report at c_bands before calling an iterative solver
           314 MiB given to the printing process from OS
             0 MiB allocation reported by mallinfo(arena+hblkhd)
        367133 MiB available memory on the node where the printing process lives
------------------
     ethr =  4.93E-11,  avg # of iterations = 14.4

     negative rho (up, down):  4.310E-04 0.000E+00

     total cpu time spent up to now is      509.6 secs

     total energy              =   -1361.95079507 Ry
     estimated scf accuracy    <       0.00000109 Ry

     iteration #  9     ecut=    80.00 Ry     beta= 0.20
     Davidson diagonalization with overlap

---- Real-time Memory Report at c_bands before calling an iterative solver
           314 MiB given to the printing process from OS
             0 MiB allocation reported by mallinfo(arena+hblkhd)
        367134 MiB available memory on the node where the printing process lives
------------------
     ethr =  4.93E-11,  avg # of iterations =  4.9

     negative rho (up, down):  4.310E-04 0.000E+00

     total cpu time spent up to now is      511.8 secs

     total energy              =   -1361.95079469 Ry
     estimated scf accuracy    <       0.00000087 Ry

     iteration # 10     ecut=    80.00 Ry     beta= 0.20
     Davidson diagonalization with overlap

---- Real-time Memory Report at c_bands before calling an iterative solver
           314 MiB given to the printing process from OS
             0 MiB allocation reported by mallinfo(arena+hblkhd)
        367122 MiB available memory on the node where the printing process lives
------------------
     ethr =  4.93E-11,  avg # of iterations = 14.1

     negative rho (up, down):  4.310E-04 0.000E+00

     total cpu time spent up to now is      516.9 secs

     total energy              =   -1361.95079494 Ry
     estimated scf accuracy    <       0.00000038 Ry

     iteration # 11     ecut=    80.00 Ry     beta= 0.20
     Davidson diagonalization with overlap

---- Real-time Memory Report at c_bands before calling an iterative solver
           314 MiB given to the printing process from OS
             0 MiB allocation reported by mallinfo(arena+hblkhd)
        367122 MiB available memory on the node where the printing process lives
------------------
     ethr =  4.93E-11,  avg # of iterations =  8.1

     negative rho (up, down):  4.310E-04 0.000E+00

     total cpu time spent up to now is      520.0 secs

     total energy              =   -1361.95079496 Ry
     estimated scf accuracy    <       0.00000005 Ry

     iteration # 12     ecut=    80.00 Ry     beta= 0.20
     Davidson diagonalization with overlap

---- Real-time Memory Report at c_bands before calling an iterative solver
           314 MiB given to the printing process from OS
             0 MiB allocation reported by mallinfo(arena+hblkhd)
        367122 MiB available memory on the node where the printing process lives
------------------
     ethr =  4.93E-11,  avg # of iterations =  3.9

     negative rho (up, down):  4.309E-04 0.000E+00

     total cpu time spent up to now is      522.1 secs

     total energy              =   -1361.95079495 Ry
     estimated scf accuracy    <       0.00000002 Ry

     iteration # 13     ecut=    80.00 Ry     beta= 0.20
     Davidson diagonalization with overlap

---- Real-time Memory Report at c_bands before calling an iterative solver
           314 MiB given to the printing process from OS
             0 MiB allocation reported by mallinfo(arena+hblkhd)
        367122 MiB available memory on the node where the printing process lives
------------------
     ethr =  2.57E-11,  avg # of iterations = 10.2

     negative rho (up, down):  4.309E-04 0.000E+00

     total cpu time spent up to now is      525.8 secs

     total energy              =   -1361.95079497 Ry
     estimated scf accuracy    <       0.00000005 Ry

     iteration # 14     ecut=    80.00 Ry     beta= 0.20
     Davidson diagonalization with overlap

---- Real-time Memory Report at c_bands before calling an iterative solver
           314 MiB given to the printing process from OS
             0 MiB allocation reported by mallinfo(arena+hblkhd)
        367124 MiB available memory on the node where the printing process lives
------------------
     ethr =  2.57E-11,  avg # of iterations =  1.1

     negative rho (up, down):  4.309E-04 0.000E+00

     total cpu time spent up to now is      527.4 secs

     total energy              =   -1361.95079495 Ry
     estimated scf accuracy    <       0.00000004 Ry

     iteration # 15     ecut=    80.00 Ry     beta= 0.20
     Davidson diagonalization with overlap

---- Real-time Memory Report at c_bands before calling an iterative solver
           314 MiB given to the printing process from OS
             0 MiB allocation reported by mallinfo(arena+hblkhd)
        367124 MiB available memory on the node where the printing process lives
------------------
     ethr =  2.57E-11,  avg # of iterations = 10.9

     negative rho (up, down):  4.309E-04 0.000E+00

     total cpu time spent up to now is      531.3 secs

     total energy              =   -1361.95079497 Ry
     estimated scf accuracy    <       0.00000007 Ry

     iteration # 16     ecut=    80.00 Ry     beta= 0.20
     Davidson diagonalization with overlap

---- Real-time Memory Report at c_bands before calling an iterative solver
           314 MiB given to the printing process from OS
             0 MiB allocation reported by mallinfo(arena+hblkhd)
        367122 MiB available memory on the node where the printing process lives
------------------
     ethr =  2.57E-11,  avg # of iterations =  2.8

     negative rho (up, down):  4.309E-04 0.000E+00

     total cpu time spent up to now is      533.2 secs

     total energy              =   -1361.95079496 Ry
     estimated scf accuracy    <       0.00000005 Ry

     iteration # 17     ecut=    80.00 Ry     beta= 0.20
     Davidson diagonalization with overlap

---- Real-time Memory Report at c_bands before calling an iterative solver
           314 MiB given to the printing process from OS
             0 MiB allocation reported by mallinfo(arena+hblkhd)
        367122 MiB available memory on the node where the printing process lives
------------------
     ethr =  2.57E-11,  avg # of iterations =  7.0

     negative rho (up, down):  4.309E-04 0.000E+00

     total cpu time spent up to now is      536.1 secs

     End of self-consistent calculation

          k = 0.0000 0.0000 0.0000 ( 45065 PWs)   bands (ev):

   -24.6212 -24.5207 -23.7796 -23.6838 -23.6506 -23.5334 -20.2867 -20.2284
   -20.1944 -20.1608 -20.1503 -20.1053 -20.1017 -20.0776 -20.0166 -19.9888
   -19.9651 -19.9554 -19.9479 -19.9301 -19.8964 -19.8101 -19.6405 -19.6184
   -19.4328 -19.3942 -12.6968 -12.6264 -10.4001 -10.1587  -9.4700  -9.3728
    -8.8920  -8.7102  -8.3820  -8.2701  -8.2265  -8.1273  -8.0413  -8.0008
    -7.9105  -7.7780  -7.5702  -7.2554

     occupation numbers 
     1.0000   1.0000   1.0000   1.0000   1.0000   1.0000   1.0000   1.0000
     1.0000   1.0000   1.0000   1.0000   1.0000   1.0000   1.0000   1.0000
     1.0000   1.0000   1.0000   1.0000   1.0000   1.0000   1.0000   1.0000
     1.0000   1.0000   1.0000   1.0000   1.0000   1.0000   1.0000   1.0000
     1.0000   1.0000   1.0000   1.0000   1.0000   1.0000   1.0000   1.0000
     1.0000   1.0000   1.0000   1.0000

          k =-0.0062 0.1431 0.0000 ( 45113 PWs)   bands (ev):

   -24.5511 -24.4388 -23.9308 -23.8547 -23.5808 -23.4516 -20.2695 -20.2274
   -20.1951 -20.1723 -20.1487 -20.0921 -20.0820 -20.0679 -20.0170 -19.9887
   -19.9833 -19.9632 -19.9458 -19.9083 -19.8866 -19.8011 -19.7037 -19.6147
   -19.4941 -19.3941 -12.3295 -12.2494 -10.4919 -10.2657  -9.8307  -9.7343
    -9.1967  -9.0183  -8.4643  -8.3372  -8.1795  -8.0490  -7.9078  -7.8082
    -7.7592  -7.6760  -7.5670  -7.2801

     occupation numbers 
     1.0000   1.0000   1.0000   1.0000   1.0000   1.0000   1.0000   1.0000
     1.0000   1.0000   1.0000   1.0000   1.0000   1.0000   1.0000   1.0000
     1.0000   1.0000   1.0000   1.0000   1.0000   1.0000   1.0000   1.0000
     1.0000   1.0000   1.0000   1.0000   1.0000   1.0000   1.0000   1.0000
     1.0000   1.0000   1.0000   1.0000   1.0000   1.0000   1.0000   1.0000
     1.0000   1.0000   1.0000   1.0000

          k = 0.0124-0.2862 0.0000 ( 45174 PWs)   bands (ev):

   -24.4496 -24.3010 -24.0753 -24.0423 -23.5460 -23.4117 -20.2581 -20.2223
   -20.1986 -20.1741 -20.1476 -20.0753 -20.0600 -20.0583 -20.0136 -20.0059
   -19.9781 -19.9712 -19.9444 -19.8853 -19.8784 -19.7915 -19.7767 -19.6098
   -19.5681 -19.3899 -11.7298 -11.6314 -10.7579 -10.6002 -10.3407 -10.2211
    -9.2614  -9.1010  -8.5895  -8.4596  -8.1383  -7.9781  -7.8412  -7.7167
    -7.6514  -7.5585  -7.4183  -7.3098

     occupation numbers 
     1.0000   1.0000   1.0000   1.0000   1.0000   1.0000   1.0000   1.0000
     1.0000   1.0000   1.0000   1.0000   1.0000   1.0000   1.0000   1.0000
     1.0000   1.0000   1.0000   1.0000   1.0000   1.0000   1.0000   1.0000
     1.0000   1.0000   1.0000   1.0000   1.0000   1.0000   1.0000   1.0000
     1.0000   1.0000   1.0000   1.0000   1.0000   1.0000   1.0000   1.0000
     1.0000   1.0000   1.0000   1.0000

          k = 0.1684-0.0368 0.0000 ( 45086 PWs)   bands (ev):

   -24.4947 -24.3904 -23.7866 -23.6924 -23.6400 -23.5217 -20.2829 -20.2248
   -20.2029 -20.1561 -20.1298 -20.0982 -20.0945 -20.0545 -20.0142 -19.9877
   -19.9837 -19.9565 -19.9336 -19.8977 -19.8807 -19.8041 -19.6073 -19.5532
   -19.3864 -19.3465 -12.5515 -12.4828 -10.6220 -10.4162 -10.1822 -10.0579
    -9.2664  -9.0969  -8.6562  -8.4923  -8.3461  -8.2472  -8.1098  -8.0039
    -7.9522  -7.8786  -7.4225  -7.1633

     occupation numbers 
     1.0000   1.0000   1.0000   1.0000   1.0000   1.0000   1.0000   1.0000
     1.0000   1.0000   1.0000   1.0000   1.0000   1.0000   1.0000   1.0000
     1.0000   1.0000   1.0000   1.0000   1.0000   1.0000   1.0000   1.0000
     1.0000   1.0000   1.0000   1.0000   1.0000   1.0000   1.0000   1.0000
     1.0000   1.0000   1.0000   1.0000   1.0000   1.0000   1.0000   1.0000
     1.0000   1.0000   1.0000   1.0000

          k = 0.1622 0.1063 0.0000 ( 45049 PWs)   bands (ev):

   -24.4695 -24.3609 -23.8414 -23.7538 -23.6137 -23.4920 -20.2846 -20.2214
   -20.1904 -20.1512 -20.1413 -20.0959 -20.0893 -20.0522 -20.0139 -19.9875
   -19.9761 -19.9569 -19.9367 -19.8961 -19.8779 -19.7958 -19.6627 -19.5292
   -19.4498 -19.3082 -12.4205 -12.3548 -10.7254 -10.4824 -10.1374 -10.0329
    -9.3816  -9.2435  -8.7217  -8.5794  -8.3993  -8.2531  -8.0312  -7.9555
    -7.8801  -7.8127  -7.4279  -7.1665

     occupation numbers 
     1.0000   1.0000   1.0000   1.0000   1.0000   1.0000   1.0000   1.0000
     1.0000   1.0000   1.0000   1.0000   1.0000   1.0000   1.0000   1.0000
     1.0000   1.0000   1.0000   1.0000   1.0000   1.0000   1.0000   1.0000
     1.0000   1.0000   1.0000   1.0000   1.0000   1.0000   1.0000   1.0000
     1.0000   1.0000   1.0000   1.0000   1.0000   1.0000   1.0000   1.0000
     1.0000   1.0000   1.0000   1.0000

          k = 0.1808-0.3231 0.0000 ( 45092 PWs)   bands (ev):

   -24.3636 -24.2187 -23.9926 -23.9525 -23.5774 -23.4461 -20.2683 -20.2213
   -20.1840 -20.1601 -20.1272 -20.0885 -20.0648 -20.0463 -20.0075 -20.0014
   -19.9543 -19.9519 -19.9340 -19.8868 -19.8750 -19.7819 -19.7622 -19.5715
   -19.5093 -19.2881 -11.8190 -11.7300 -11.0460 -10.8707 -10.2304 -10.1113
    -9.6896  -9.5546  -8.9733  -8.8397  -8.3322  -8.1641  -8.1041  -7.9497
    -7.6149  -7.4920  -7.4315  -7.1769

     occupation numbers 
     1.0000   1.0000   1.0000   1.0000   1.0000   1.0000   1.0000   1.0000
     1.0000   1.0000   1.0000   1.0000   1.0000   1.0000   1.0000   1.0000
     1.0000   1.0000   1.0000   1.0000   1.0000   1.0000   1.0000   1.0000
     1.0000   1.0000   1.0000   1.0000   1.0000   1.0000   1.0000   1.0000
     1.0000   1.0000   1.0000   1.0000   1.0000   1.0000   1.0000   1.0000
     1.0000   1.0000   1.0000   1.0000

          k = 0.1746-0.1799 0.0000 ( 45085 PWs)   bands (ev):

   -24.4036 -24.2768 -23.9381 -23.8786 -23.5894 -23.4588 -20.2641 -20.2183
   -20.2031 -20.1624 -20.1259 -20.0848 -20.0732 -20.0482 -20.0112 -19.9941
   -19.9742 -19.9545 -19.9338 -19.8937 -19.8720 -19.7786 -19.7300 -19.5239
   -19.5166 -19.3010 -12.0679 -11.9714 -10.8342 -10.7020 -10.2437 -10.0870
    -9.6364  -9.4670  -8.8783  -8.7552  -8.3276  -8.1973  -8.0953  -7.9354
    -7.7041  -7.5917  -7.4320  -7.1737

     occupation numbers 
     1.0000   1.0000   1.0000   1.0000   1.0000   1.0000   1.0000   1.0000
     1.0000   1.0000   1.0000   1.0000   1.0000   1.0000   1.0000   1.0000
     1.0000   1.0000   1.0000   1.0000   1.0000   1.0000   1.0000   1.0000
     1.0000   1.0000   1.0000   1.0000   1.0000   1.0000   1.0000   1.0000
     1.0000   1.0000   1.0000   1.0000   1.0000   1.0000   1.0000   1.0000
     1.0000   1.0000   1.0000   1.0000

          k = 0.3368-0.0737 0.0000 ( 45074 PWs)   bands (ev):

   -24.2024 -24.0828 -23.7820 -23.6908 -23.6658 -23.5607 -20.2516 -20.2290
   -20.1912 -20.1673 -20.0843 -20.0733 -20.0642 -20.0236 -20.0039 -19.9859
   -19.9718 -19.9446 -19.8949 -19.8753 -19.8418 -19.7533 -19.6143 -19.4107
   -19.3822 -19.1703 -12.4799 -12.3967 -11.5921 -11.4335 -10.7201 -10.5564
    -9.6425  -9.5094  -8.9468  -8.7686  -8.6583  -8.5298  -8.1340  -7.9477
    -7.8290  -7.7465  -7.4886  -7.2776

     occupation numbers 
     1.0000   1.0000   1.0000   1.0000   1.0000   1.0000   1.0000   1.0000
     1.0000   1.0000   1.0000   1.0000   1.0000   1.0000   1.0000   1.0000
     1.0000   1.0000   1.0000   1.0000   1.0000   1.0000   1.0000   1.0000
     1.0000   1.0000   1.0000   1.0000   1.0000   1.0000   1.0000   1.0000
     1.0000   1.0000   1.0000   1.0000   1.0000   1.0000   1.0000   1.0000
     1.0000   1.0000   1.0000   1.0000

          k = 0.3306 0.0695 0.0000 ( 45046 PWs)   bands (ev):

   -24.2103 -24.0949 -23.7873 -23.6793 -23.6518 -23.5586 -20.2674 -20.2304
   -20.1826 -20.1478 -20.0908 -20.0765 -20.0672 -20.0230 -20.0029 -19.9873
   -19.9750 -19.9488 -19.8983 -19.8621 -19.8529 -19.7609 -19.5938 -19.3962
   -19.3783 -19.1829 -12.5184 -12.4525 -11.6103 -11.3931 -10.6971 -10.5833
    -9.6419  -9.5304  -8.9060  -8.7286  -8.5384  -8.4343  -8.2216  -7.9851
    -7.8666  -7.7729  -7.4815  -7.2774

     occupation numbers 
     1.0000   1.0000   1.0000   1.0000   1.0000   1.0000   1.0000   1.0000
     1.0000   1.0000   1.0000   1.0000   1.0000   1.0000   1.0000   1.0000
     1.0000   1.0000   1.0000   1.0000   1.0000   1.0000   1.0000   1.0000
     1.0000   1.0000   1.0000   1.0000   1.0000   1.0000   1.0000   1.0000
     1.0000   1.0000   1.0000   1.0000   1.0000   1.0000   1.0000   1.0000
     1.0000   1.0000   1.0000   1.0000

          k = 0.3492-0.3599 0.0000 ( 45085 PWs)   bands (ev):

   -24.1495 -24.0051 -23.8486 -23.7895 -23.6549 -23.5418 -20.2555 -20.2284
   -20.1809 -20.1332 -20.0933 -20.0696 -20.0442 -20.0215 -20.0047 -19.9855
   -19.9742 -19.9064 -19.8971 -19.8646 -19.8516 -19.7462 -19.7131 -19.5285
   -19.3484 -19.1296 -12.2427 -12.1529 -11.8339 -11.6418 -10.4164 -10.3090
    -9.7815  -9.6997  -9.0776  -8.9196  -8.7497  -8.5992  -8.2000  -7.9946
    -7.7123  -7.5735  -7.4787  -7.2923

     occupation numbers 
     1.0000   1.0000   1.0000   1.0000   1.0000   1.0000   1.0000   1.0000
     1.0000   1.0000   1.0000   1.0000   1.0000   1.0000   1.0000   1.0000
     1.0000   1.0000   1.0000   1.0000   1.0000   1.0000   1.0000   1.0000
     1.0000   1.0000   1.0000   1.0000   1.0000   1.0000   1.0000   1.0000
     1.0000   1.0000   1.0000   1.0000   1.0000   1.0000   1.0000   1.0000
     1.0000   1.0000   1.0000   1.0000

          k = 0.3430-0.2168 0.0000 ( 45092 PWs)   bands (ev):

   -24.1388 -23.9798 -23.8497 -23.8142 -23.6653 -23.5438 -20.2437 -20.2202
   -20.1881 -20.1609 -20.0868 -20.0612 -20.0420 -20.0207 -20.0069 -19.9828
   -19.9732 -19.8977 -19.8954 -19.8685 -19.8421 -19.7673 -19.6887 -19.5733
   -19.3409 -19.1240 -12.1965 -12.0504 -11.8230 -11.7177 -10.3673 -10.2211
    -9.9241  -9.8056  -9.1152  -8.9900  -8.6825  -8.5220  -8.2446  -8.0505
    -7.6342  -7.5438  -7.4976  -7.3023

     occupation numbers 
     1.0000   1.0000   1.0000   1.0000   1.0000   1.0000   1.0000   1.0000
     1.0000   1.0000   1.0000   1.0000   1.0000   1.0000   1.0000   1.0000
     1.0000   1.0000   1.0000   1.0000   1.0000   1.0000   1.0000   1.0000
     1.0000   1.0000   1.0000   1.0000   1.0000   1.0000   1.0000   1.0000
     1.0000   1.0000   1.0000   1.0000   1.0000   1.0000   1.0000   1.0000
     1.0000   1.0000   1.0000   1.0000

          k =-0.5052 0.1105 0.0000 ( 45134 PWs)   bands (ev):

   -23.9985 -23.8430 -23.7925 -23.7198 -23.6873 -23.6639 -20.2492 -20.2108
   -20.1981 -20.1601 -20.0800 -20.0436 -20.0410 -20.0138 -20.0129 -19.9982
   -19.9475 -19.8809 -19.8666 -19.8623 -19.8046 -19.6803 -19.6761 -19.4896
   -19.2881 -19.0738 -12.5891 -12.4725 -12.1715 -12.0323 -10.5556 -10.4181
    -9.9239  -9.7848  -9.0988  -8.9547  -8.4746  -8.3864  -8.1653  -7.9619
    -7.8951  -7.6867  -7.6060  -7.4616

     occupation numbers 
     1.0000   1.0000   1.0000   1.0000   1.0000   1.0000   1.0000   1.0000
     1.0000   1.0000   1.0000   1.0000   1.0000   1.0000   1.0000   1.0000
     1.0000   1.0000   1.0000   1.0000   1.0000   1.0000   1.0000   1.0000
     1.0000   1.0000   1.0000   1.0000   1.0000   1.0000   1.0000   1.0000
     1.0000   1.0000   1.0000   1.0000   1.0000   1.0000   1.0000   1.0000
     1.0000   1.0000   1.0000   1.0000

          k =-0.5114 0.2536 0.0000 ( 45094 PWs)   bands (ev):

   -23.9892 -23.8336 -23.8177 -23.7106 -23.7037 -23.6495 -20.2473 -20.2308
   -20.1932 -20.1334 -20.0883 -20.0392 -20.0390 -20.0126 -19.9983 -19.9954
   -19.9560 -19.8936 -19.8770 -19.8472 -19.8073 -19.6920 -19.6799 -19.4891
   -19.2885 -19.0740 -12.5853 -12.4631 -12.1943 -12.0477 -10.4230 -10.3099
   -10.1025  -9.9777  -8.8484  -8.7408  -8.6482  -8.4818  -8.0984  -7.9920
    -7.9202  -7.7516  -7.5871  -7.4541

     occupation numbers 
     1.0000   1.0000   1.0000   1.0000   1.0000   1.0000   1.0000   1.0000
     1.0000   1.0000   1.0000   1.0000   1.0000   1.0000   1.0000   1.0000
     1.0000   1.0000   1.0000   1.0000   1.0000   1.0000   1.0000   1.0000
     1.0000   1.0000   1.0000   1.0000   1.0000   1.0000   1.0000   1.0000
     1.0000   1.0000   1.0000   1.0000   1.0000   1.0000   1.0000   1.0000
     1.0000   1.0000   1.0000   1.0000

          k =-0.4929-0.1758 0.0000 ( 45008 PWs)   bands (ev):

   -23.9780 -23.8401 -23.8219 -23.7294 -23.6924 -23.6418 -20.2518 -20.2381
   -20.1907 -20.1018 -20.0834 -20.0556 -20.0404 -20.0089 -19.9985 -19.9792
   -19.9534 -19.8987 -19.8877 -19.8500 -19.8191 -19.6988 -19.6829 -19.4835
   -19.2894 -19.0750 -12.5788 -12.4521 -12.2173 -12.0647 -10.5134 -10.3903
    -9.8722  -9.8086  -8.9857  -8.8315  -8.6313  -8.4881  -8.1561  -7.9503
    -7.9375  -7.7241  -7.5725  -7.4429

     occupation numbers 
     1.0000   1.0000   1.0000   1.0000   1.0000   1.0000   1.0000   1.0000
     1.0000   1.0000   1.0000   1.0000   1.0000   1.0000   1.0000   1.0000
     1.0000   1.0000   1.0000   1.0000   1.0000   1.0000   1.0000   1.0000
     1.0000   1.0000   1.0000   1.0000   1.0000   1.0000   1.0000   1.0000
     1.0000   1.0000   1.0000   1.0000   1.0000   1.0000   1.0000   1.0000
     1.0000   1.0000   1.0000   1.0000

     highest occupied level (ev):    -7.1633

!    total energy              =   -1361.95079497 Ry
     estimated scf accuracy    <          1.2E-09 Ry

     convergence has been achieved in  17 iterations

     negative rho (up, down):  4.309E-04 0.000E+00

     Forces acting on atoms (cartesian axes, Ry/au):

     atom    1 type  1   force =    -0.02083805   -0.02043321    0.00364300
     atom    2 type  1   force =    -0.00204806    0.03584516    0.01304236
     atom    3 type  2   force =    -0.01578521    0.02767714   -0.05043855
     atom    4 type  2   force =     0.05112308   -0.03100918    0.00278605
     atom    5 type  2   force =    -0.01250490   -0.01315626    0.03033779
     atom    6 type  1   force =    -0.01128772   -0.03374391   -0.00435942
     atom    7 type  1   force =    -0.01716459    0.03637840    0.00365083
     atom    8 type  2   force =    -0.01059803    0.01668830   -0.03058712
     atom    9 type  2   force =     0.03981126    0.00808044   -0.00148555
     atom   10 type  2   force =    -0.00070780   -0.02632689    0.03341060
     The non-local contrib.  to forces
     atom    1 type  1   force =     0.24910758    0.19974816   -0.00390138
     atom    2 type  1   force =     0.25324718   -0.05904780   -0.12411800
     atom    3 type  2   force =    -0.11201066    0.45707882   -1.12803101
     atom    4 type  2   force =     1.09862917    0.13649287   -0.09783429
     atom    5 type  2   force =    -0.03582665   -0.43530661    1.04025355
     atom    6 type  1   force =     0.22746033    0.15773831    0.06713518
     atom    7 type  1   force =     0.19362874   -0.10856882   -0.05689011
     atom    8 type  2   force =    -0.13499152    0.43460617   -1.03508262
     atom    9 type  2   force =     1.11397246    0.12439198    0.00609964
     atom   10 type  2   force =    -0.07878328   -0.46664522    1.06541495
     The ionic contribution  to forces
     atom    1 type  1   force =     1.90552424   11.32353730  -87.13154160
     atom    2 type  1   force =     3.06465719   -9.64889016 -132.94902480
     atom    3 type  2   force =     0.14932715   -1.66040274  -14.34094778
     atom    4 type  2   force =    -4.88256891   -1.44939227  -49.16338555
     atom    5 type  2   force =    -0.27824767    2.32021396  -86.26139124
     atom    6 type  1   force =     2.10201648   10.25539740  132.05996546
     atom    7 type  1   force =     2.49338819  -10.38429713   86.67796454
     atom    8 type  2   force =     0.29317071   -2.29077785   86.24631235
     atom    9 type  2   force =    -5.07983371    0.03515087   49.69507902
     atom   10 type  2   force =     0.23256635    1.49946063   15.16696961
     The local contribution  to forces
     atom    1 type  1   force =    -2.17408043  -11.54337147   87.13885549
     atom    2 type  1   force =    -3.31793744    9.74656936  133.08532452
     atom    3 type  2   force =    -0.05432622    1.23534832   15.40877674
     atom    4 type  2   force =     3.84535379    1.28283547   49.26313459
     atom    5 type  2   force =     0.30103058   -1.90210478   85.26020807
     atom    6 type  1   force =    -2.33959084  -10.44816732 -132.13114393
     atom    7 type  1   force =    -2.70387214   10.53146937  -86.61778942
     atom    8 type  2   force =    -0.17017634    1.87691958  -85.25052404
     atom    9 type  2   force =     4.01600468   -0.15024284  -49.70263458
     atom   10 type  2   force =    -0.15529449   -1.06356293  -16.18996007
     The core correction contribution to forces
     atom    1 type  1   force =    -0.00139664   -0.00032492    0.00015868
     atom    2 type  1   force =    -0.00200958   -0.00278814    0.00080115
     atom    3 type  2   force =     0.00122370   -0.00434406    0.00973740
     atom    4 type  2   force =    -0.01029184   -0.00094675    0.00084958
     atom    5 type  2   force =     0.00053789    0.00404055   -0.00875402
     atom    6 type  1   force =    -0.00116623    0.00128734   -0.00031852
     atom    7 type  1   force =    -0.00030534   -0.00222763    0.00036063
     atom    8 type  2   force =     0.00139709   -0.00405617    0.00870809
     atom    9 type  2   force =    -0.01033228   -0.00122031   -0.00002284
     atom   10 type  2   force =     0.00080250    0.00442242   -0.00900930
     The Hubbard contrib.    to forces
     atom    1 type  1   force =     0.00000000    0.00000000    0.00000000
     atom    2 type  1   force =     0.00000000    0.00000000    0.00000000
     atom    3 type  2   force =     0.00000000    0.00000000    0.00000000
     atom    4 type  2   force =     0.00000000    0.00000000    0.00000000
     atom    5 type  2   force =     0.00000000    0.00000000    0.00000000
     atom    6 type  1   force =     0.00000000    0.00000000    0.00000000
     atom    7 type  1   force =     0.00000000    0.00000000    0.00000000
     atom    8 type  2   force =     0.00000000    0.00000000    0.00000000
     atom    9 type  2   force =     0.00000000    0.00000000    0.00000000
     atom   10 type  2   force =     0.00000000    0.00000000    0.00000000
     The SCF correction term to forces
     atom    1 type  1   force =     0.00000586   -0.00002211    0.00007815
     atom    2 type  1   force =    -0.00000676    0.00000206    0.00006583
     atom    3 type  2   force =    -0.00000052   -0.00000305    0.00003243
     atom    4 type  2   force =    -0.00000048    0.00000165    0.00002805
     atom    5 type  2   force =    -0.00000040    0.00000076    0.00002775
     atom    6 type  1   force =    -0.00000881    0.00000051    0.00000872
     atom    7 type  1   force =    -0.00000538    0.00000277    0.00001152
     atom    8 type  2   force =     0.00000067   -0.00000328    0.00000543
     atom    9 type  2   force =    -0.00000123    0.00000089   -0.00000046
     atom   10 type  2   force =    -0.00000022   -0.00000164    0.00000174

     Total force =     0.135725     Total SCF correction =     0.000118


     Computing stress (Cartesian axis) and pressure


     negative rho (up, down):  4.309E-04 0.000E+00
          total   stress  (Ry/bohr**3)                   (kbar)     P=      -30.86
  -0.00026043   0.00001174  -0.00000943          -38.31        1.73       -1.39
   0.00001174  -0.00028693   0.00002282            1.73      -42.21        3.36
  -0.00000943   0.00002282  -0.00008192           -1.39        3.36      -12.05

     kinetic stress (kbar)   4675.39      3.73     -1.89
                                3.73   4675.37      0.15
                               -1.89      0.15   4750.19

     local   stress (kbar)-496476.27   -105.96     -1.06
                             -105.96-492840.31   -520.82
                               -1.06   -520.82 493894.42

     nonloc. stress (kbar)    -15.00     -0.34     -0.69
                               -0.34    -30.22     14.30
                               -0.69     14.30     71.51

     hartree stress (kbar) 250362.38     53.97     -1.49
                               53.97 248618.27    256.68
                               -1.49    256.68-241073.95

     exc-cor stress (kbar)    604.20     -0.05      0.07
                               -0.05    604.85     -0.89
                                0.07     -0.89    595.93

     corecor stress (kbar)  -2383.67     -0.02      0.00
                               -0.02  -2383.78      0.10
                                0.00      0.10  -2383.55

     ewald   stress (kbar) 243194.66     50.40      3.68
                               50.40 241313.60    253.83
                                3.68    253.83-255866.60

     hubbard stress (kbar)      0.00      0.00      0.00
                                0.00      0.00      0.00
                                0.00      0.00      0.00

     DFT-D   stress (kbar)      0.00      0.00      0.00
                                0.00      0.00      0.00
                                0.00      0.00      0.00

     XDM     stress (kbar)      0.00      0.00      0.00
                                0.00      0.00      0.00
                                0.00      0.00      0.00

     dft-nl  stress (kbar)      0.00      0.00      0.00
                                0.00      0.00      0.00
                                0.00      0.00      0.00

     TS-vdW  stress (kbar)      0.00      0.00      0.00
                                0.00      0.00      0.00
                                0.00      0.00      0.00


                                0.00      0.00      0.00
                                0.00      0.00      0.00


                                0.00      0.00      0.00


     Entering Dynamics:    iteration =     7
                           time      =   0.0068 pico-seconds


     Canonical sampling velocity rescaling

ATOMIC_POSITIONS (crystal)
Ga            0.8312352865        0.7185597641        0.4263046755
Ga            0.5134218590        0.3010416373        0.3997639545
O             0.4033982069        0.5587456054        0.4500268473
O             0.4230201945        0.0137479796        0.4142636687
O             0.9450556736        0.4545370308        0.3778020289
Ga            0.8247192766        0.7212451473        0.5996533535
Ga            0.5176537787        0.3008978477        0.5735982210
O             0.3888768754        0.5667607612        0.6219107080
O             0.4405789922        0.0053757421        0.5861215628
O             0.9352448685        0.4583178632        0.5516363737


     kinetic energy (Ekin) =           0.02841169 Ry
     temperature           =         332.28526290 K 
     Ekin + Etot (const)   =       -1361.92238328 Ry
     Ions kinetic stress =            0.75 (kbar)
                                      0.88           0.06           0.08
                                      0.06           0.41           0.14
                                      0.08           0.14           0.96



     Linear momentum :   -0.0000000000   -0.0000000000    0.0000000000

     Writing config-only to output data dir ./tmp/Ga2O3-BL-001-300K.save/

     second order wave-functions extrapolation
     second order charge density extrapolation

     negative rho (up, down):  4.326E-04 0.000E+00

     total cpu time spent up to now is      545.4 secs

     Self-consistent Calculation

     iteration #  1     ecut=    80.00 Ry     beta= 0.20
     Davidson diagonalization with overlap

---- Real-time Memory Report at c_bands before calling an iterative solver
           314 MiB given to the printing process from OS
             0 MiB allocation reported by mallinfo(arena+hblkhd)
        367115 MiB available memory on the node where the printing process lives
------------------
     ethr =  1.00E-06,  avg # of iterations =  2.0

     Threshold (ethr) on eigenvalues was too large:
     Diagonalizing with lowered threshold

     Davidson diagonalization with overlap

---- Real-time Memory Report at c_bands before calling an iterative solver
           314 MiB given to the printing process from OS
             0 MiB allocation reported by mallinfo(arena+hblkhd)
        367122 MiB available memory on the node where the printing process lives
------------------
     ethr =  3.34E-10,  avg # of iterations =  9.6

     negative rho (up, down):  4.325E-04 0.000E+00

     total cpu time spent up to now is      551.1 secs

     total energy              =   -1361.95214238 Ry
     estimated scf accuracy    <       0.00000095 Ry

     iteration #  2     ecut=    80.00 Ry     beta= 0.20
     Davidson diagonalization with overlap

---- Real-time Memory Report at c_bands before calling an iterative solver
           314 MiB given to the printing process from OS
             0 MiB allocation reported by mallinfo(arena+hblkhd)
        367119 MiB available memory on the node where the printing process lives
------------------
     ethr =  1.08E-09,  avg # of iterations =  4.4

     negative rho (up, down):  4.324E-04 0.000E+00

     total cpu time spent up to now is      553.2 secs

     total energy              =   -1361.95214236 Ry
     estimated scf accuracy    <       0.00000019 Ry

     iteration #  3     ecut=    80.00 Ry     beta= 0.20
     Davidson diagonalization with overlap

---- Real-time Memory Report at c_bands before calling an iterative solver
           314 MiB given to the printing process from OS
             0 MiB allocation reported by mallinfo(arena+hblkhd)
        367119 MiB available memory on the node where the printing process lives
------------------
     ethr =  2.16E-10,  avg # of iterations = 10.1

     negative rho (up, down):  4.323E-04 0.000E+00

     total cpu time spent up to now is      556.8 secs

     total energy              =   -1361.95214249 Ry
     estimated scf accuracy    <       0.00000076 Ry

     iteration #  4     ecut=    80.00 Ry     beta= 0.20
     Davidson diagonalization with overlap

---- Real-time Memory Report at c_bands before calling an iterative solver
           314 MiB given to the printing process from OS
             0 MiB allocation reported by mallinfo(arena+hblkhd)
        367120 MiB available memory on the node where the printing process lives
------------------
     ethr =  2.16E-10,  avg # of iterations =  6.7

     negative rho (up, down):  4.322E-04 0.000E+00

     total cpu time spent up to now is      559.6 secs

     total energy              =   -1361.95214256 Ry
     estimated scf accuracy    <       0.00000004 Ry

     iteration #  5     ecut=    80.00 Ry     beta= 0.20
     Davidson diagonalization with overlap

---- Real-time Memory Report at c_bands before calling an iterative solver
           314 MiB given to the printing process from OS
             0 MiB allocation reported by mallinfo(arena+hblkhd)
        367121 MiB available memory on the node where the printing process lives
------------------
     ethr =  4.69E-11,  avg # of iterations =  3.0

     negative rho (up, down):  4.322E-04 0.000E+00

     total cpu time spent up to now is      561.6 secs

     total energy              =   -1361.95214255 Ry
     estimated scf accuracy    <       0.00000004 Ry

     iteration #  6     ecut=    80.00 Ry     beta= 0.20
     Davidson diagonalization with overlap

---- Real-time Memory Report at c_bands before calling an iterative solver
           314 MiB given to the printing process from OS
             0 MiB allocation reported by mallinfo(arena+hblkhd)
        367121 MiB available memory on the node where the printing process lives
------------------
     ethr =  4.29E-11,  avg # of iterations =  8.6

     negative rho (up, down):  4.319E-04 0.000E+00

     total cpu time spent up to now is      564.6 secs

     End of self-consistent calculation

          k = 0.0000 0.0000 0.0000 ( 45065 PWs)   bands (ev):

   -24.6268 -24.5078 -23.7823 -23.6736 -23.6416 -23.5015 -20.2779 -20.2199
   -20.1867 -20.1523 -20.1405 -20.0870 -20.0677 -20.0613 -19.9740 -19.9728
   -19.9245 -19.9135 -19.9044 -19.8831 -19.8534 -19.7649 -19.6235 -19.6028
   -19.3823 -19.3438 -12.6970 -12.6156 -10.3874 -10.1127  -9.4700  -9.3557
    -8.8803  -8.6662  -8.3776  -8.2581  -8.2201  -8.1232  -8.0137  -7.9785
    -7.8972  -7.7416  -7.5535  -7.2255

     occupation numbers 
     1.0000   1.0000   1.0000   1.0000   1.0000   1.0000   1.0000   1.0000
     1.0000   1.0000   1.0000   1.0000   1.0000   1.0000   1.0000   1.0000
     1.0000   1.0000   1.0000   1.0000   1.0000   1.0000   1.0000   1.0000
     1.0000   1.0000   1.0000   1.0000   1.0000   1.0000   1.0000   1.0000
     1.0000   1.0000   1.0000   1.0000   1.0000   1.0000   1.0000   1.0000
     1.0000   1.0000   1.0000   1.0000

          k =-0.0062 0.1431 0.0000 ( 45113 PWs)   bands (ev):

   -24.5579 -24.4249 -23.9282 -23.8413 -23.5756 -23.4241 -20.2609 -20.2187
   -20.1866 -20.1624 -20.1395 -20.0778 -20.0522 -20.0437 -19.9747 -19.9678
   -19.9475 -19.9198 -19.9027 -19.8637 -19.8431 -19.7560 -19.6871 -19.5990
   -19.4440 -19.3437 -12.3271 -12.2349 -10.4820 -10.2221  -9.8229  -9.7151
    -9.2021  -8.9940  -8.4503  -8.3055  -8.1724  -8.0253  -7.9059  -7.7935
    -7.7331  -7.6466  -7.5473  -7.2510

     occupation numbers 
     1.0000   1.0000   1.0000   1.0000   1.0000   1.0000   1.0000   1.0000
     1.0000   1.0000   1.0000   1.0000   1.0000   1.0000   1.0000   1.0000
     1.0000   1.0000   1.0000   1.0000   1.0000   1.0000   1.0000   1.0000
     1.0000   1.0000   1.0000   1.0000   1.0000   1.0000   1.0000   1.0000
     1.0000   1.0000   1.0000   1.0000   1.0000   1.0000   1.0000   1.0000
     1.0000   1.0000   1.0000   1.0000

          k = 0.0124-0.2862 0.0000 ( 45174 PWs)   bands (ev):

   -24.4599 -24.2843 -24.0687 -24.0315 -23.5416 -23.3847 -20.2500 -20.2134
   -20.1894 -20.1635 -20.1379 -20.0618 -20.0452 -20.0189 -19.9722 -19.9645
   -19.9632 -19.9274 -19.9010 -19.8416 -19.8350 -19.7601 -19.7464 -19.5940
   -19.5185 -19.3395 -11.7194 -11.6081 -10.7622 -10.5744 -10.3287 -10.1925
    -9.2709  -9.0856  -8.5708  -8.4211  -8.1335  -7.9480  -7.8316  -7.6862
    -7.6350  -7.5517  -7.3893  -7.2836

     occupation numbers 
     1.0000   1.0000   1.0000   1.0000   1.0000   1.0000   1.0000   1.0000
     1.0000   1.0000   1.0000   1.0000   1.0000   1.0000   1.0000   1.0000
     1.0000   1.0000   1.0000   1.0000   1.0000   1.0000   1.0000   1.0000
     1.0000   1.0000   1.0000   1.0000   1.0000   1.0000   1.0000   1.0000
     1.0000   1.0000   1.0000   1.0000   1.0000   1.0000   1.0000   1.0000
     1.0000   1.0000   1.0000   1.0000

          k = 0.1684-0.0368 0.0000 ( 45086 PWs)   bands (ev):

   -24.5005 -24.3770 -23.7884 -23.6807 -23.6313 -23.4914 -20.2744 -20.2164
   -20.1942 -20.1467 -20.1192 -20.0813 -20.0601 -20.0384 -19.9723 -19.9720
   -19.9419 -19.9117 -19.8910 -19.8556 -19.8354 -19.7586 -19.5938 -19.5348
   -19.3373 -19.2958 -12.5526 -12.4734 -10.6097 -10.3715 -10.1823 -10.0384
    -9.2590  -9.0629  -8.6512  -8.4669  -8.3400  -8.2261  -8.1024  -7.9903
    -7.9264  -7.8435  -7.4061  -7.1245

     occupation numbers 
     1.0000   1.0000   1.0000   1.0000   1.0000   1.0000   1.0000   1.0000
     1.0000   1.0000   1.0000   1.0000   1.0000   1.0000   1.0000   1.0000
     1.0000   1.0000   1.0000   1.0000   1.0000   1.0000   1.0000   1.0000
     1.0000   1.0000   1.0000   1.0000   1.0000   1.0000   1.0000   1.0000
     1.0000   1.0000   1.0000   1.0000   1.0000   1.0000   1.0000   1.0000
     1.0000   1.0000   1.0000   1.0000

          k = 0.1622 0.1063 0.0000 ( 45049 PWs)   bands (ev):

   -24.4758 -24.3470 -23.8410 -23.7408 -23.6068 -23.4635 -20.2764 -20.2133
   -20.1812 -20.1418 -20.1300 -20.0828 -20.0506 -20.0362 -19.9729 -19.9605
   -19.9455 -19.9134 -19.8933 -19.8533 -19.8326 -19.7509 -19.6471 -19.5133
   -19.4002 -19.2577 -12.4200 -12.3443 -10.7207 -10.4407 -10.1335 -10.0114
    -9.3730  -9.2159  -8.7141  -8.5546  -8.3897  -8.2219  -8.0242  -7.9467
    -7.8554  -7.7795  -7.4115  -7.1279

     occupation numbers 
     1.0000   1.0000   1.0000   1.0000   1.0000   1.0000   1.0000   1.0000
     1.0000   1.0000   1.0000   1.0000   1.0000   1.0000   1.0000   1.0000
     1.0000   1.0000   1.0000   1.0000   1.0000   1.0000   1.0000   1.0000
     1.0000   1.0000   1.0000   1.0000   1.0000   1.0000   1.0000   1.0000
     1.0000   1.0000   1.0000   1.0000   1.0000   1.0000   1.0000   1.0000
     1.0000   1.0000   1.0000   1.0000

          k = 0.1808-0.3231 0.0000 ( 45092 PWs)   bands (ev):

   -24.3730 -24.2017 -23.9874 -23.9418 -23.5721 -23.4187 -20.2604 -20.2128
   -20.1731 -20.1511 -20.1161 -20.0756 -20.0307 -20.0252 -19.9664 -19.9591
   -19.9376 -19.9111 -19.8919 -19.8439 -19.8298 -19.7661 -19.7173 -19.5224
   -19.4931 -19.2371 -11.8106 -11.7090 -11.0470 -10.8436 -10.2272 -10.0866
    -9.6916  -9.5373  -8.9599  -8.8062  -8.3224  -8.1353  -8.0866  -7.9165
    -7.6102  -7.4677  -7.4140  -7.1388

     occupation numbers 
     1.0000   1.0000   1.0000   1.0000   1.0000   1.0000   1.0000   1.0000
     1.0000   1.0000   1.0000   1.0000   1.0000   1.0000   1.0000   1.0000
     1.0000   1.0000   1.0000   1.0000   1.0000   1.0000   1.0000   1.0000
     1.0000   1.0000   1.0000   1.0000   1.0000   1.0000   1.0000   1.0000
     1.0000   1.0000   1.0000   1.0000   1.0000   1.0000   1.0000   1.0000
     1.0000   1.0000   1.0000   1.0000

          k = 0.1746-0.1799 0.0000 ( 45085 PWs)   bands (ev):

   -24.4115 -24.2618 -23.9346 -23.8660 -23.5839 -23.4313 -20.2560 -20.2094
   -20.1932 -20.1535 -20.1151 -20.0718 -20.0346 -20.0325 -19.9692 -19.9598
   -19.9516 -19.9107 -19.8918 -19.8510 -19.8273 -19.7330 -19.7147 -19.5002
   -19.4752 -19.2501 -12.0654 -11.9546 -10.8221 -10.6683 -10.2468 -10.0637
    -9.6377  -9.4466  -8.8668  -8.7248  -8.3165  -8.1707  -8.0809  -7.9015
    -7.6968  -7.5666  -7.4162  -7.1353

     occupation numbers 
     1.0000   1.0000   1.0000   1.0000   1.0000   1.0000   1.0000   1.0000
     1.0000   1.0000   1.0000   1.0000   1.0000   1.0000   1.0000   1.0000
     1.0000   1.0000   1.0000   1.0000   1.0000   1.0000   1.0000   1.0000
     1.0000   1.0000   1.0000   1.0000   1.0000   1.0000   1.0000   1.0000
     1.0000   1.0000   1.0000   1.0000   1.0000   1.0000   1.0000   1.0000
     1.0000   1.0000   1.0000   1.0000

          k = 0.3368-0.0737 0.0000 ( 45074 PWs)   bands (ev):

   -24.2095 -24.0686 -23.7841 -23.6775 -23.6550 -23.5318 -20.2432 -20.2214
   -20.1815 -20.1555 -20.0720 -20.0632 -20.0258 -20.0079 -19.9627 -19.9412
   -19.9292 -19.9274 -19.8523 -19.8343 -19.7966 -19.7071 -19.6006 -19.3661
   -19.3631 -19.1206 -12.4845 -12.3877 -11.5803 -11.3975 -10.7187 -10.5322
    -9.6398  -9.4844  -8.9385  -8.7333  -8.6467  -8.5065  -8.1253  -7.9144
    -7.8183  -7.7232  -7.4747  -7.2304

     occupation numbers 
     1.0000   1.0000   1.0000   1.0000   1.0000   1.0000   1.0000   1.0000
     1.0000   1.0000   1.0000   1.0000   1.0000   1.0000   1.0000   1.0000
     1.0000   1.0000   1.0000   1.0000   1.0000   1.0000   1.0000   1.0000
     1.0000   1.0000   1.0000   1.0000   1.0000   1.0000   1.0000   1.0000
     1.0000   1.0000   1.0000   1.0000   1.0000   1.0000   1.0000   1.0000
     1.0000   1.0000   1.0000   1.0000

          k = 0.3306 0.0695 0.0000 ( 45046 PWs)   bands (ev):

   -24.2170 -24.0807 -23.7891 -23.6662 -23.6416 -23.5297 -20.2596 -20.2227
   -20.1724 -20.1354 -20.0795 -20.0648 -20.0281 -20.0080 -19.9618 -19.9429
   -19.9331 -19.9326 -19.8554 -19.8197 -19.8082 -19.7147 -19.5808 -19.3795
   -19.3304 -19.1334 -12.5216 -12.4447 -11.6074 -11.3569 -10.6888 -10.5601
    -9.6318  -9.5011  -8.8990  -8.6938  -8.5328  -8.4160  -8.2109  -7.9457
    -7.8584  -7.7510  -7.4668  -7.2304

     occupation numbers 
     1.0000   1.0000   1.0000   1.0000   1.0000   1.0000   1.0000   1.0000
     1.0000   1.0000   1.0000   1.0000   1.0000   1.0000   1.0000   1.0000
     1.0000   1.0000   1.0000   1.0000   1.0000   1.0000   1.0000   1.0000
     1.0000   1.0000   1.0000   1.0000   1.0000   1.0000   1.0000   1.0000
     1.0000   1.0000   1.0000   1.0000   1.0000   1.0000   1.0000   1.0000
     1.0000   1.0000   1.0000   1.0000

          k = 0.3492-0.3599 0.0000 ( 45085 PWs)   bands (ev):

   -24.1583 -23.9881 -23.8471 -23.7781 -23.6463 -23.5139 -20.2479 -20.2206
   -20.1706 -20.1201 -20.0820 -20.0570 -20.0070 -20.0041 -19.9630 -19.9424
   -19.9325 -19.8913 -19.8541 -19.8223 -19.8074 -19.7329 -19.6670 -19.4805
   -19.3324 -19.0795 -12.2414 -12.1371 -11.8340 -11.6136 -10.4098 -10.2861
    -9.7742  -9.6788  -9.0713  -8.8893  -8.7392  -8.5653  -8.1892  -7.9612
    -7.7078  -7.5486  -7.4620  -7.2454

     occupation numbers 
     1.0000   1.0000   1.0000   1.0000   1.0000   1.0000   1.0000   1.0000
     1.0000   1.0000   1.0000   1.0000   1.0000   1.0000   1.0000   1.0000
     1.0000   1.0000   1.0000   1.0000   1.0000   1.0000   1.0000   1.0000
     1.0000   1.0000   1.0000   1.0000   1.0000   1.0000   1.0000   1.0000
     1.0000   1.0000   1.0000   1.0000   1.0000   1.0000   1.0000   1.0000
     1.0000   1.0000   1.0000   1.0000

          k = 0.3430-0.2168 0.0000 ( 45092 PWs)   bands (ev):

   -24.1483 -23.9621 -23.8474 -23.8035 -23.6566 -23.5160 -20.2359 -20.2123
   -20.1781 -20.1482 -20.0748 -20.0500 -20.0057 -20.0033 -19.9655 -19.9386
   -19.9290 -19.8844 -19.8529 -19.8277 -19.7975 -19.7519 -19.6420 -19.5267
   -19.3245 -19.0738 -12.2007 -12.0320 -11.8111 -11.6904 -10.3686 -10.1992
    -9.9222  -9.7855  -9.1042  -8.9595  -8.6729  -8.4864  -8.2324  -8.0188
    -7.6280  -7.5251  -7.4766  -7.2545

     occupation numbers 
     1.0000   1.0000   1.0000   1.0000   1.0000   1.0000   1.0000   1.0000
     1.0000   1.0000   1.0000   1.0000   1.0000   1.0000   1.0000   1.0000
     1.0000   1.0000   1.0000   1.0000   1.0000   1.0000   1.0000   1.0000
     1.0000   1.0000   1.0000   1.0000   1.0000   1.0000   1.0000   1.0000
     1.0000   1.0000   1.0000   1.0000   1.0000   1.0000   1.0000   1.0000
     1.0000   1.0000   1.0000   1.0000

          k =-0.5052 0.1105 0.0000 ( 45134 PWs)   bands (ev):

   -24.0102 -23.8340 -23.7938 -23.7050 -23.6596 -23.6438 -20.2409 -20.2032
   -20.1877 -20.1475 -20.0670 -20.0328 -20.0049 -19.9972 -19.9729 -19.9535
   -19.9015 -19.8467 -19.8368 -19.8270 -19.7594 -19.6662 -19.6297 -19.4445
   -19.2723 -19.0250 -12.5958 -12.4597 -12.1598 -12.0008 -10.5493 -10.3917
    -9.9257  -9.7626  -9.0932  -8.9284  -8.4625  -8.3585  -8.1553  -7.9281
    -7.8788  -7.6475  -7.5962  -7.4270

     occupation numbers 
     1.0000   1.0000   1.0000   1.0000   1.0000   1.0000   1.0000   1.0000
     1.0000   1.0000   1.0000   1.0000   1.0000   1.0000   1.0000   1.0000
     1.0000   1.0000   1.0000   1.0000   1.0000   1.0000   1.0000   1.0000
     1.0000   1.0000   1.0000   1.0000   1.0000   1.0000   1.0000   1.0000
     1.0000   1.0000   1.0000   1.0000   1.0000   1.0000   1.0000   1.0000
     1.0000   1.0000   1.0000   1.0000

          k =-0.5114 0.2536 0.0000 ( 45094 PWs)   bands (ev):

   -24.0015 -23.8245 -23.8161 -23.6915 -23.6860 -23.6263 -20.2393 -20.2234
   -20.1823 -20.1199 -20.0764 -20.0275 -19.9996 -19.9819 -19.9718 -19.9532
   -19.9126 -19.8612 -19.8508 -19.8042 -19.7643 -19.6791 -19.6323 -19.4436
   -19.2727 -19.0251 -12.5905 -12.4485 -12.1865 -12.0186 -10.4191 -10.2885
   -10.0936  -9.9480  -8.8489  -8.7250  -8.6372  -8.4443  -8.0888  -7.9763
    -7.8897  -7.7059  -7.5774  -7.4212

     occupation numbers 
     1.0000   1.0000   1.0000   1.0000   1.0000   1.0000   1.0000   1.0000
     1.0000   1.0000   1.0000   1.0000   1.0000   1.0000   1.0000   1.0000
     1.0000   1.0000   1.0000   1.0000   1.0000   1.0000   1.0000   1.0000
     1.0000   1.0000   1.0000   1.0000   1.0000   1.0000   1.0000   1.0000
     1.0000   1.0000   1.0000   1.0000   1.0000   1.0000   1.0000   1.0000
     1.0000   1.0000   1.0000   1.0000

          k =-0.4929-0.1758 0.0000 ( 45008 PWs)   bands (ev):

   -23.9913 -23.8366 -23.8128 -23.7057 -23.6810 -23.6180 -20.2442 -20.2304
   -20.1795 -20.0859 -20.0749 -20.0407 -19.9998 -19.9678 -19.9658 -19.9534
   -19.9132 -19.8835 -19.8450 -19.8042 -19.7788 -19.6872 -19.6344 -19.4373
   -19.2736 -19.0259 -12.5823 -12.4356 -12.2139 -12.0385 -10.5062 -10.3650
    -9.8606  -9.7854  -8.9759  -8.7998  -8.6342  -8.4692  -8.1485  -7.9337
    -7.8978  -7.6801  -7.5617  -7.4106

     occupation numbers 
     1.0000   1.0000   1.0000   1.0000   1.0000   1.0000   1.0000   1.0000
     1.0000   1.0000   1.0000   1.0000   1.0000   1.0000   1.0000   1.0000
     1.0000   1.0000   1.0000   1.0000   1.0000   1.0000   1.0000   1.0000
     1.0000   1.0000   1.0000   1.0000   1.0000   1.0000   1.0000   1.0000
     1.0000   1.0000   1.0000   1.0000   1.0000   1.0000   1.0000   1.0000
     1.0000   1.0000   1.0000   1.0000

     highest occupied level (ev):    -7.1245

!    total energy              =   -1361.95214257 Ry
     estimated scf accuracy    <          1.9E-09 Ry

     convergence has been achieved in   6 iterations

     negative rho (up, down):  4.319E-04 0.000E+00

     Forces acting on atoms (cartesian axes, Ry/au):

     atom    1 type  1   force =    -0.02050777   -0.01976829    0.00461365
     atom    2 type  1   force =     0.00134692    0.03814091    0.01429625
     atom    3 type  2   force =    -0.01731989    0.02894221   -0.05013410
     atom    4 type  2   force =     0.05044233   -0.03629410    0.00300927
     atom    5 type  2   force =    -0.01402107   -0.01209988    0.02744981
     atom    6 type  1   force =    -0.00958156   -0.03521818   -0.00428453
     atom    7 type  1   force =    -0.01624503    0.03874982    0.00378374
     atom    8 type  2   force =    -0.01139263    0.01647556   -0.02777178
     atom    9 type  2   force =     0.03751506    0.00839619   -0.00153699
     atom   10 type  2   force =    -0.00023635   -0.02732424    0.03057469
     The non-local contrib.  to forces
     atom    1 type  1   force =     0.25324571    0.20723638   -0.00927436
     atom    2 type  1   force =     0.25888928   -0.05383820   -0.13703446
     atom    3 type  2   force =    -0.10768558    0.46306390   -1.12581255
     atom    4 type  2   force =     1.09746912    0.13957763   -0.11509023
     atom    5 type  2   force =    -0.02799066   -0.43260001    1.02772057
     atom    6 type  1   force =     0.22754936    0.16041400    0.07152371
     atom    7 type  1   force =     0.19051075   -0.10876757   -0.06032597
     atom    8 type  2   force =    -0.13363651    0.43687247   -1.02191590
     atom    9 type  2   force =     1.11404402    0.12772884    0.00775935
     atom   10 type  2   force =    -0.07787125   -0.46885232    1.05281954
     The ionic contribution  to forces
     atom    1 type  1   force =     1.92724816   11.40265341  -87.17318319
     atom    2 type  1   force =     3.15088769   -9.59448314 -133.18968871
     atom    3 type  2   force =     0.10642187   -1.65387956  -14.36918819
     atom    4 type  2   force =    -4.87510784   -1.61115787  -48.94456779
     atom    5 type  2   force =    -0.35075673    2.33144020  -86.16850646
     atom    6 type  1   force =     2.14277059   10.24554487  132.13453855
     atom    7 type  1   force =     2.48893479  -10.35050416   86.63209388
     atom    8 type  2   force =     0.26558195   -2.28091767   86.12464286
     atom    9 type  2   force =    -5.09322206    0.03261604   49.65002369
     atom   10 type  2   force =     0.23724157    1.47868789   15.30383536
     The local contribution  to forces
     atom    1 type  1   force =    -2.19953975  -11.62920008   87.18697922
     atom    2 type  1   force =    -3.40617085    9.68946682  133.34024696
     atom    3 type  2   force =    -0.01724595    1.22416781   15.43516633
     atom    4 type  2   force =     3.83835710    1.43619664   49.06169895
     atom    5 type  2   force =     0.36424257   -1.91494144   85.17685789
     atom    6 type  1   force =    -2.37868394  -10.44255272 -132.21008353
     atom    7 type  1   force =    -2.69540147   10.50040873  -86.56849232
     atom    8 type  2   force =    -0.14473236    1.86460261  -85.13908003
     atom    9 type  2   force =     4.02701214   -0.15068218  -49.65931874
     atom   10 type  2   force =    -0.16039597   -1.04161432  -16.31722291
     The core correction contribution to forces
     atom    1 type  1   force =    -0.00149138   -0.00047057    0.00017368
     atom    2 type  1   force =    -0.00224753   -0.00300303    0.00089067
     atom    3 type  2   force =     0.00119688   -0.00440861    0.00971309
     atom    4 type  2   force =    -0.01027683   -0.00092279    0.00099878
     atom    5 type  2   force =     0.00048410    0.00400694   -0.00861303
     atom    6 type  1   force =    -0.00121351    0.00136572   -0.00036279
     atom    7 type  1   force =    -0.00028186   -0.00238490    0.00039876
     atom    8 type  2   force =     0.00139207   -0.00407511    0.00856263
     atom    9 type  2   force =    -0.01031425   -0.00125125   -0.00003683
     atom   10 type  2   force =     0.00079072    0.00444915   -0.00886721
     The Hubbard contrib.    to forces
     atom    1 type  1   force =     0.00000000    0.00000000    0.00000000
     atom    2 type  1   force =     0.00000000    0.00000000    0.00000000
     atom    3 type  2   force =     0.00000000    0.00000000    0.00000000
     atom    4 type  2   force =     0.00000000    0.00000000    0.00000000
     atom    5 type  2   force =     0.00000000    0.00000000    0.00000000
     atom    6 type  1   force =     0.00000000    0.00000000    0.00000000
     atom    7 type  1   force =     0.00000000    0.00000000    0.00000000
     atom    8 type  2   force =     0.00000000    0.00000000    0.00000000
     atom    9 type  2   force =     0.00000000    0.00000000    0.00000000
     atom   10 type  2   force =     0.00000000    0.00000000    0.00000000
     The SCF correction term to forces
     atom    1 type  1   force =     0.00002901    0.00001619   -0.00008102
     atom    2 type  1   force =    -0.00001215    0.00000208   -0.00011754
     atom    3 type  2   force =    -0.00000760    0.00000228   -0.00001210
     atom    4 type  2   force =     0.00000031    0.00001592   -0.00002977
     atom    5 type  2   force =    -0.00000082   -0.00000194   -0.00000848
     atom    6 type  1   force =    -0.00000455    0.00001357    0.00010020
     atom    7 type  1   force =    -0.00000771    0.00000135    0.00011007
     atom    8 type  2   force =     0.00000174   -0.00000312    0.00001933
     atom    9 type  2   force =    -0.00000527   -0.00001164    0.00003623
     atom   10 type  2   force =    -0.00000189    0.00000899    0.00001058

     Total force =     0.136295     Total SCF correction =     0.000218


     Computing stress (Cartesian axis) and pressure


     negative rho (up, down):  4.319E-04 0.000E+00
          total   stress  (Ry/bohr**3)                   (kbar)     P=      -30.02
  -0.00025472   0.00001287  -0.00001047          -37.47        1.89       -1.54
   0.00001287  -0.00028041   0.00002189            1.89      -41.25        3.22
  -0.00001047   0.00002189  -0.00007698           -1.54        3.22      -11.32

     kinetic stress (kbar)   4681.73      4.12     -1.98
                                4.12   4681.69     -0.22
                               -1.98     -0.22   4755.16

     local   stress (kbar)-496551.62   -110.78      3.13
                             -110.78-492962.67   -537.54
                                3.13   -537.54 494004.06

     nonloc. stress (kbar)    -21.03     -0.68     -0.60
                               -0.68    -37.20     14.56
                               -0.60     14.56     66.87

     hartree stress (kbar) 250403.75     55.39     -2.96
                               55.39 248677.25    264.35
                               -2.96    264.35-241124.96

     exc-cor stress (kbar)    603.94     -0.04      0.06
                               -0.04    604.64     -0.88
                                0.06     -0.88    595.63

     corecor stress (kbar)  -2383.64     -0.02      0.01
                               -0.02  -2383.75      0.10
                                0.01      0.10  -2383.50

     ewald   stress (kbar) 243229.41     53.91      0.81
                               53.91 241378.80    262.85
                                0.81    262.85-255924.57

     hubbard stress (kbar)      0.00      0.00      0.00
                                0.00      0.00      0.00
                                0.00      0.00      0.00

     DFT-D   stress (kbar)      0.00      0.00      0.00
                                0.00      0.00      0.00
                                0.00      0.00      0.00

     XDM     stress (kbar)      0.00      0.00      0.00
                                0.00      0.00      0.00
                                0.00      0.00      0.00

     dft-nl  stress (kbar)      0.00      0.00      0.00
                                0.00      0.00      0.00
                                0.00      0.00      0.00

     TS-vdW  stress (kbar)      0.00      0.00      0.00
                                0.00      0.00      0.00
                                0.00      0.00      0.00


                                0.00      0.00      0.00
                                0.00      0.00      0.00


                                0.00      0.00      0.00


     Entering Dynamics:    iteration =     8
                           time      =   0.0077 pico-seconds


     Canonical sampling velocity rescaling

ATOMIC_POSITIONS (crystal)
Ga            0.8315818139        0.7184079710        0.4262816555
Ga            0.5125964755        0.3009008164        0.3996776480
O             0.4052362498        0.5583906445        0.4499342723
O             0.4236626042        0.0146686581        0.4144113111
O             0.9458395965        0.4542182651        0.3779813541
Ga            0.8241939800        0.7214437636        0.5996726583
Ga            0.5173698426        0.3007397070        0.5736218889
O             0.3887917850        0.5674348545        0.6216907288
O             0.4433863134        0.0054578649        0.5860977304
O             0.9348717015        0.4584135038        0.5519349600


     kinetic energy (Ekin) =           0.02970752 Ry
     temperature           =         347.44044340 K 
     Ekin + Etot (const)   =       -1361.92243505 Ry
     Ions kinetic stress =            0.78 (kbar)
                                      0.93           0.09           0.07
                                      0.09           0.36           0.08
                                      0.07           0.08           1.05



     Linear momentum :   -0.0000000000    0.0000000000    0.0000000000

     Writing config-only to output data dir ./tmp/Ga2O3-BL-001-300K.save/

     second order wave-functions extrapolation
     second order charge density extrapolation

     negative rho (up, down):  4.336E-04 0.000E+00

     total cpu time spent up to now is      573.7 secs

     Self-consistent Calculation

     iteration #  1     ecut=    80.00 Ry     beta= 0.20
     Davidson diagonalization with overlap

---- Real-time Memory Report at c_bands before calling an iterative solver
           314 MiB given to the printing process from OS
             0 MiB allocation reported by mallinfo(arena+hblkhd)
        367104 MiB available memory on the node where the printing process lives
------------------
     ethr =  1.00E-06,  avg # of iterations =  2.0

     Threshold (ethr) on eigenvalues was too large:
     Diagonalizing with lowered threshold

     Davidson diagonalization with overlap

---- Real-time Memory Report at c_bands before calling an iterative solver
           314 MiB given to the printing process from OS
             0 MiB allocation reported by mallinfo(arena+hblkhd)
        367118 MiB available memory on the node where the printing process lives
------------------
     ethr =  1.07E-10,  avg # of iterations = 14.6

     negative rho (up, down):  4.334E-04 0.000E+00

     total cpu time spent up to now is      581.1 secs

     total energy              =   -1361.95358879 Ry
     estimated scf accuracy    <       0.00000041 Ry

     iteration #  2     ecut=    80.00 Ry     beta= 0.20
     Davidson diagonalization with overlap

---- Real-time Memory Report at c_bands before calling an iterative solver
           314 MiB given to the printing process from OS
             0 MiB allocation reported by mallinfo(arena+hblkhd)
        367126 MiB available memory on the node where the printing process lives
------------------
     ethr =  4.70E-10,  avg # of iterations =  4.4

     negative rho (up, down):  4.333E-04 0.000E+00

     total cpu time spent up to now is      583.2 secs

     total energy              =   -1361.95358877 Ry
     estimated scf accuracy    <       0.00000010 Ry

     iteration #  3     ecut=    80.00 Ry     beta= 0.20
     Davidson diagonalization with overlap

---- Real-time Memory Report at c_bands before calling an iterative solver
           314 MiB given to the printing process from OS
             0 MiB allocation reported by mallinfo(arena+hblkhd)
        367117 MiB available memory on the node where the printing process lives
------------------
     ethr =  1.13E-10,  avg # of iterations = 10.9

     negative rho (up, down):  4.332E-04 0.000E+00

     total cpu time spent up to now is      587.0 secs

     total energy              =   -1361.95358885 Ry
     estimated scf accuracy    <       0.00000039 Ry

     iteration #  4     ecut=    80.00 Ry     beta= 0.20
     Davidson diagonalization with overlap

---- Real-time Memory Report at c_bands before calling an iterative solver
           314 MiB given to the printing process from OS
             0 MiB allocation reported by mallinfo(arena+hblkhd)
        367123 MiB available memory on the node where the printing process lives
------------------
     ethr =  1.13E-10,  avg # of iterations =  6.7

     negative rho (up, down):  4.331E-04 0.000E+00

     total cpu time spent up to now is      589.6 secs

     total energy              =   -1361.95358889 Ry
     estimated scf accuracy    <       0.00000008 Ry

     iteration #  5     ecut=    80.00 Ry     beta= 0.20
     Davidson diagonalization with overlap

---- Real-time Memory Report at c_bands before calling an iterative solver
           314 MiB given to the printing process from OS
             0 MiB allocation reported by mallinfo(arena+hblkhd)
        367123 MiB available memory on the node where the printing process lives
------------------
     ethr =  9.52E-11,  avg # of iterations =  1.8

     negative rho (up, down):  4.330E-04 0.000E+00

     total cpu time spent up to now is      591.4 secs

     total energy              =   -1361.95358888 Ry
     estimated scf accuracy    <       0.00000009 Ry

     iteration #  6     ecut=    80.00 Ry     beta= 0.20
     Davidson diagonalization with overlap

---- Real-time Memory Report at c_bands before calling an iterative solver
           314 MiB given to the printing process from OS
             0 MiB allocation reported by mallinfo(arena+hblkhd)
        367123 MiB available memory on the node where the printing process lives
------------------
     ethr =  9.52E-11,  avg # of iterations =  1.8

     negative rho (up, down):  4.330E-04 0.000E+00

     total cpu time spent up to now is      593.2 secs

     total energy              =   -1361.95358885 Ry
     estimated scf accuracy    <       0.00000007 Ry

     iteration #  7     ecut=    80.00 Ry     beta= 0.20
     Davidson diagonalization with overlap

---- Real-time Memory Report at c_bands before calling an iterative solver
           314 MiB given to the printing process from OS
             0 MiB allocation reported by mallinfo(arena+hblkhd)
        367115 MiB available memory on the node where the printing process lives
------------------
     ethr =  7.84E-11,  avg # of iterations =  7.4

     negative rho (up, down):  4.330E-04 0.000E+00

     total cpu time spent up to now is      596.2 secs

     total energy              =   -1361.95358889 Ry
     estimated scf accuracy    <       0.00000004 Ry

     iteration #  8     ecut=    80.00 Ry     beta= 0.20
     Davidson diagonalization with overlap

---- Real-time Memory Report at c_bands before calling an iterative solver
           314 MiB given to the printing process from OS
             0 MiB allocation reported by mallinfo(arena+hblkhd)
        367123 MiB available memory on the node where the printing process lives
------------------
     ethr =  3.98E-11,  avg # of iterations =  2.0

     negative rho (up, down):  4.329E-04 0.000E+00

     total cpu time spent up to now is      598.1 secs

     total energy              =   -1361.95358889 Ry
     estimated scf accuracy    <       0.00000004 Ry

     iteration #  9     ecut=    80.00 Ry     beta= 0.20
     Davidson diagonalization with overlap

---- Real-time Memory Report at c_bands before calling an iterative solver
           314 MiB given to the printing process from OS
             0 MiB allocation reported by mallinfo(arena+hblkhd)
        367123 MiB available memory on the node where the printing process lives
------------------
     ethr =  3.98E-11,  avg # of iterations =  6.9

     negative rho (up, down):  4.329E-04 0.000E+00

     total cpu time spent up to now is      600.5 secs

     total energy              =   -1361.95358888 Ry
     estimated scf accuracy    <       0.00000004 Ry

     iteration # 10     ecut=    80.00 Ry     beta= 0.20
     Davidson diagonalization with overlap

---- Real-time Memory Report at c_bands before calling an iterative solver
           314 MiB given to the printing process from OS
             0 MiB allocation reported by mallinfo(arena+hblkhd)
        367124 MiB available memory on the node where the printing process lives
------------------
     ethr =  3.98E-11,  avg # of iterations =  2.5

     negative rho (up, down):  4.329E-04 0.000E+00

     total cpu time spent up to now is      602.5 secs

     total energy              =   -1361.95358888 Ry
     estimated scf accuracy    <       0.00000002 Ry

     iteration # 11     ecut=    80.00 Ry     beta= 0.20
     Davidson diagonalization with overlap

---- Real-time Memory Report at c_bands before calling an iterative solver
           314 MiB given to the printing process from OS
             0 MiB allocation reported by mallinfo(arena+hblkhd)
        367124 MiB available memory on the node where the printing process lives
------------------
     ethr =  2.14E-11,  avg # of iterations =  8.0

     negative rho (up, down):  4.329E-04 0.000E+00

     total cpu time spent up to now is      605.5 secs

     total energy              =   -1361.95358889 Ry
     estimated scf accuracy    <       0.00000002 Ry

     iteration # 12     ecut=    80.00 Ry     beta= 0.20
     Davidson diagonalization with overlap

---- Real-time Memory Report at c_bands before calling an iterative solver
           314 MiB given to the printing process from OS
             0 MiB allocation reported by mallinfo(arena+hblkhd)
        367112 MiB available memory on the node where the printing process lives
------------------
     ethr =  1.93E-11,  avg # of iterations =  6.9

     negative rho (up, down):  4.329E-04 0.000E+00

     total cpu time spent up to now is      608.3 secs

     total energy              =   -1361.95358889 Ry
     estimated scf accuracy    <       0.00000001 Ry

     iteration # 13     ecut=    80.00 Ry     beta= 0.20
     Davidson diagonalization with overlap

---- Real-time Memory Report at c_bands before calling an iterative solver
           314 MiB given to the printing process from OS
             0 MiB allocation reported by mallinfo(arena+hblkhd)
        367122 MiB available memory on the node where the printing process lives
------------------
     ethr =  1.36E-11,  avg # of iterations =  1.8

     negative rho (up, down):  4.328E-04 0.000E+00

     total cpu time spent up to now is      610.2 secs

     End of self-consistent calculation

          k = 0.0000 0.0000 0.0000 ( 45065 PWs)   bands (ev):

   -24.6336 -24.4957 -23.7846 -23.6629 -23.6321 -23.4702 -20.2669 -20.2088
   -20.1759 -20.1413 -20.1283 -20.0703 -20.0428 -20.0292 -19.9549 -19.9303
   -19.8828 -19.8705 -19.8598 -19.8344 -19.8090 -19.7181 -19.6040 -19.5841
   -19.3300 -19.2914 -12.6964 -12.6041 -10.3739 -10.0668  -9.4715  -9.3398
    -8.8674  -8.6209  -8.3728  -8.2449  -8.2124  -8.1180  -7.9865  -7.9561
    -7.8809  -7.7021  -7.5366  -7.1949

     occupation numbers 
     1.0000   1.0000   1.0000   1.0000   1.0000   1.0000   1.0000   1.0000
     1.0000   1.0000   1.0000   1.0000   1.0000   1.0000   1.0000   1.0000
     1.0000   1.0000   1.0000   1.0000   1.0000   1.0000   1.0000   1.0000
     1.0000   1.0000   1.0000   1.0000   1.0000   1.0000   1.0000   1.0000
     1.0000   1.0000   1.0000   1.0000   1.0000   1.0000   1.0000   1.0000
     1.0000   1.0000   1.0000   1.0000

          k =-0.0062 0.1431 0.0000 ( 45113 PWs)   bands (ev):

   -24.5662 -24.4121 -23.9253 -23.8278 -23.5698 -23.3967 -20.2500 -20.2074
   -20.1755 -20.1503 -20.1277 -20.0615 -20.0343 -20.0045 -19.9502 -19.9313
   -19.9052 -19.8753 -19.8584 -19.8173 -19.7981 -19.7092 -19.6681 -19.5801
   -19.3924 -19.2912 -12.3237 -12.2196 -10.4716 -10.1784  -9.8150  -9.6957
    -9.2081  -8.9706  -8.4353  -8.2735  -8.1646  -8.0013  -7.9020  -7.7772
    -7.7050  -7.6159  -7.5259  -7.2215

     occupation numbers 
     1.0000   1.0000   1.0000   1.0000   1.0000   1.0000   1.0000   1.0000
     1.0000   1.0000   1.0000   1.0000   1.0000   1.0000   1.0000   1.0000
     1.0000   1.0000   1.0000   1.0000   1.0000   1.0000   1.0000   1.0000
     1.0000   1.0000   1.0000   1.0000   1.0000   1.0000   1.0000   1.0000
     1.0000   1.0000   1.0000   1.0000   1.0000   1.0000   1.0000   1.0000
     1.0000   1.0000   1.0000   1.0000

          k = 0.0124-0.2862 0.0000 ( 45174 PWs)   bands (ev):

   -24.4717 -24.2692 -24.0613 -24.0201 -23.5365 -23.3576 -20.2393 -20.2017
   -20.1777 -20.1507 -20.1258 -20.0462 -20.0280 -19.9786 -19.9461 -19.9298
   -19.9219 -19.8825 -19.8565 -19.7964 -19.7900 -19.7413 -19.6997 -19.5750
   -19.4673 -19.2868 -11.7070 -11.5841 -10.7667 -10.5478 -10.3159 -10.1639
    -9.2816  -9.0721  -8.5508  -8.3814  -8.1280  -7.9177  -7.8198  -7.6550
    -7.6169  -7.5432  -7.3591  -7.2572

     occupation numbers 
     1.0000   1.0000   1.0000   1.0000   1.0000   1.0000   1.0000   1.0000
     1.0000   1.0000   1.0000   1.0000   1.0000   1.0000   1.0000   1.0000
     1.0000   1.0000   1.0000   1.0000   1.0000   1.0000   1.0000   1.0000
     1.0000   1.0000   1.0000   1.0000   1.0000   1.0000   1.0000   1.0000
     1.0000   1.0000   1.0000   1.0000   1.0000   1.0000   1.0000   1.0000
     1.0000   1.0000   1.0000   1.0000

          k = 0.1684-0.0368 0.0000 ( 45086 PWs)   bands (ev):

   -24.5075 -24.3645 -23.7899 -23.6687 -23.6220 -23.4613 -20.2637 -20.2054
   -20.1828 -20.1350 -20.1062 -20.0656 -20.0211 -20.0202 -19.9544 -19.9293
   -19.8991 -19.8658 -19.8472 -19.8120 -19.7886 -19.7116 -19.5772 -19.5136
   -19.2864 -19.2434 -12.5533 -12.4636 -10.5967 -10.3276 -10.1829 -10.0197
    -9.2507  -9.0279  -8.6452  -8.4415  -8.3327  -8.2038  -8.0935  -7.9745
    -7.9001  -7.8053  -7.3894  -7.0848

     occupation numbers 
     1.0000   1.0000   1.0000   1.0000   1.0000   1.0000   1.0000   1.0000
     1.0000   1.0000   1.0000   1.0000   1.0000   1.0000   1.0000   1.0000
     1.0000   1.0000   1.0000   1.0000   1.0000   1.0000   1.0000   1.0000
     1.0000   1.0000   1.0000   1.0000   1.0000   1.0000   1.0000   1.0000
     1.0000   1.0000   1.0000   1.0000   1.0000   1.0000   1.0000   1.0000
     1.0000   1.0000   1.0000   1.0000

          k = 0.1622 0.1063 0.0000 ( 45049 PWs)   bands (ev):

   -24.4832 -24.3340 -23.8402 -23.7278 -23.5992 -23.4351 -20.2658 -20.2024
   -20.1696 -20.1301 -20.1164 -20.0671 -20.0183 -20.0112 -19.9427 -19.9307
   -19.9025 -19.8686 -19.8489 -19.8090 -19.7858 -19.7043 -19.6287 -19.4944
   -19.3489 -19.2052 -12.4190 -12.3333 -10.7151 -10.3994 -10.1304  -9.9904
    -9.3641  -9.1874  -8.7061  -8.5294  -8.3780  -8.1895  -8.0162  -7.9357
    -7.8300  -7.7433  -7.3947  -7.0886

     occupation numbers 
     1.0000   1.0000   1.0000   1.0000   1.0000   1.0000   1.0000   1.0000
     1.0000   1.0000   1.0000   1.0000   1.0000   1.0000   1.0000   1.0000
     1.0000   1.0000   1.0000   1.0000   1.0000   1.0000   1.0000   1.0000
     1.0000   1.0000   1.0000   1.0000   1.0000   1.0000   1.0000   1.0000
     1.0000   1.0000   1.0000   1.0000   1.0000   1.0000   1.0000   1.0000
     1.0000   1.0000   1.0000   1.0000

          k = 0.1808-0.3231 0.0000 ( 45092 PWs)   bands (ev):

   -24.3839 -24.1861 -23.9815 -23.9306 -23.5663 -23.3914 -20.2499 -20.2016
   -20.1602 -20.1397 -20.1028 -20.0602 -20.0131 -19.9848 -19.9243 -19.9210
   -19.9157 -19.8667 -19.8485 -19.7994 -19.7832 -19.7479 -19.6709 -19.4745
   -19.4712 -19.1841 -11.8010 -11.6874 -11.0476 -10.8164 -10.2243 -10.0621
    -9.6940  -9.5207  -8.9458  -8.7723  -8.3106  -8.1088  -8.0633  -7.8815
    -7.6039  -7.4428  -7.3954  -7.1001

     occupation numbers 
     1.0000   1.0000   1.0000   1.0000   1.0000   1.0000   1.0000   1.0000
     1.0000   1.0000   1.0000   1.0000   1.0000   1.0000   1.0000   1.0000
     1.0000   1.0000   1.0000   1.0000   1.0000   1.0000   1.0000   1.0000
     1.0000   1.0000   1.0000   1.0000   1.0000   1.0000   1.0000   1.0000
     1.0000   1.0000   1.0000   1.0000   1.0000   1.0000   1.0000   1.0000
     1.0000   1.0000   1.0000   1.0000

          k = 0.1746-0.1799 0.0000 ( 45085 PWs)   bands (ev):

   -24.4207 -24.2478 -23.9306 -23.8532 -23.5778 -23.4039 -20.2455 -20.1977
   -20.1810 -20.1421 -20.1019 -20.0564 -20.0147 -19.9948 -19.9431 -19.9261
   -19.9083 -19.8657 -19.8486 -19.8067 -19.7810 -19.6970 -19.6857 -19.4801
   -19.4253 -19.1972 -12.0620 -11.9373 -10.8098 -10.6349 -10.2504 -10.0405
    -9.6386  -9.4265  -8.8547  -8.6939  -8.3038  -8.1444  -8.0622  -7.8659
    -7.6878  -7.5402  -7.4000  -7.0962

     occupation numbers 
     1.0000   1.0000   1.0000   1.0000   1.0000   1.0000   1.0000   1.0000
     1.0000   1.0000   1.0000   1.0000   1.0000   1.0000   1.0000   1.0000
     1.0000   1.0000   1.0000   1.0000   1.0000   1.0000   1.0000   1.0000
     1.0000   1.0000   1.0000   1.0000   1.0000   1.0000   1.0000   1.0000
     1.0000   1.0000   1.0000   1.0000   1.0000   1.0000   1.0000   1.0000
     1.0000   1.0000   1.0000   1.0000

          k = 0.3368-0.0737 0.0000 ( 45074 PWs)   bands (ev):

   -24.2177 -24.0552 -23.7855 -23.6639 -23.6438 -23.5034 -20.2324 -20.2109
   -20.1694 -20.1416 -20.0585 -20.0490 -19.9904 -19.9864 -19.9202 -19.9116
   -19.8957 -19.8819 -19.8085 -19.7917 -19.7501 -19.6591 -19.5840 -19.3459
   -19.3149 -19.0694 -12.4897 -12.3794 -11.5686 -11.3619 -10.7167 -10.5076
    -9.6359  -9.4583  -8.9289  -8.6974  -8.6341  -8.4827  -8.1155  -7.8807
    -7.8048  -7.6983  -7.4594  -7.1825

     occupation numbers 
     1.0000   1.0000   1.0000   1.0000   1.0000   1.0000   1.0000   1.0000
     1.0000   1.0000   1.0000   1.0000   1.0000   1.0000   1.0000   1.0000
     1.0000   1.0000   1.0000   1.0000   1.0000   1.0000   1.0000   1.0000
     1.0000   1.0000   1.0000   1.0000   1.0000   1.0000   1.0000   1.0000
     1.0000   1.0000   1.0000   1.0000   1.0000   1.0000   1.0000   1.0000
     1.0000   1.0000   1.0000   1.0000

          k = 0.3306 0.0695 0.0000 ( 45046 PWs)   bands (ev):

   -24.2249 -24.0672 -23.7903 -23.6526 -23.6310 -23.5014 -20.2492 -20.2120
   -20.1600 -20.1212 -20.0657 -20.0502 -19.9910 -19.9881 -19.9195 -19.9146
   -19.8977 -19.8890 -19.8111 -19.7764 -19.7617 -19.6669 -19.5649 -19.3604
   -19.2807 -19.0822 -12.5256 -12.4376 -11.6041 -11.3211 -10.6804 -10.5367
    -9.6201  -9.4704  -8.8911  -8.6587  -8.5264  -8.3972  -8.1988  -7.9054
    -7.8481  -7.7277  -7.4507  -7.1828

     occupation numbers 
     1.0000   1.0000   1.0000   1.0000   1.0000   1.0000   1.0000   1.0000
     1.0000   1.0000   1.0000   1.0000   1.0000   1.0000   1.0000   1.0000
     1.0000   1.0000   1.0000   1.0000   1.0000   1.0000   1.0000   1.0000
     1.0000   1.0000   1.0000   1.0000   1.0000   1.0000   1.0000   1.0000
     1.0000   1.0000   1.0000   1.0000   1.0000   1.0000   1.0000   1.0000
     1.0000   1.0000   1.0000   1.0000

          k = 0.3492-0.3599 0.0000 ( 45085 PWs)   bands (ev):

   -24.1683 -23.9722 -23.8448 -23.7661 -23.6372 -23.4865 -20.2376 -20.2098
   -20.1581 -20.1056 -20.0678 -20.0419 -19.9905 -19.9633 -19.9202 -19.8987
   -19.8889 -19.8738 -19.8095 -19.7792 -19.7614 -19.7168 -19.6191 -19.4309
   -19.3137 -19.0276 -12.2407 -12.1220 -11.8337 -11.5857 -10.4031 -10.2629
    -9.7661  -9.6571  -9.0637  -8.8586  -8.7265  -8.5303  -8.1781  -7.9265
    -7.7016  -7.5226  -7.4437  -7.1977

     occupation numbers 
     1.0000   1.0000   1.0000   1.0000   1.0000   1.0000   1.0000   1.0000
     1.0000   1.0000   1.0000   1.0000   1.0000   1.0000   1.0000   1.0000
     1.0000   1.0000   1.0000   1.0000   1.0000   1.0000   1.0000   1.0000
     1.0000   1.0000   1.0000   1.0000   1.0000   1.0000   1.0000   1.0000
     1.0000   1.0000   1.0000   1.0000   1.0000   1.0000   1.0000   1.0000
     1.0000   1.0000   1.0000   1.0000

          k = 0.3430-0.2168 0.0000 ( 45092 PWs)   bands (ev):

   -24.1589 -23.9457 -23.8445 -23.7921 -23.6475 -23.4885 -20.2254 -20.2016
   -20.1659 -20.1337 -20.0605 -20.0359 -19.9888 -19.9635 -19.9229 -19.8936
   -19.8836 -19.8687 -19.8090 -19.7853 -19.7516 -19.7339 -19.5937 -19.4783
   -19.3054 -19.0220 -12.2049 -12.0139 -11.7997 -11.6638 -10.3696 -10.1771
    -9.9193  -9.7648  -9.0922  -8.9284  -8.6612  -8.4490  -8.2196  -7.9863
    -7.6203  -7.5059  -7.4532  -7.2060

     occupation numbers 
     1.0000   1.0000   1.0000   1.0000   1.0000   1.0000   1.0000   1.0000
     1.0000   1.0000   1.0000   1.0000   1.0000   1.0000   1.0000   1.0000
     1.0000   1.0000   1.0000   1.0000   1.0000   1.0000   1.0000   1.0000
     1.0000   1.0000   1.0000   1.0000   1.0000   1.0000   1.0000   1.0000
     1.0000   1.0000   1.0000   1.0000   1.0000   1.0000   1.0000   1.0000
     1.0000   1.0000   1.0000   1.0000

          k =-0.5052 0.1105 0.0000 ( 45134 PWs)   bands (ev):

   -24.0225 -23.8250 -23.7945 -23.6903 -23.6338 -23.6226 -20.2298 -20.1931
   -20.1752 -20.1328 -20.0517 -20.0212 -19.9799 -19.9652 -19.9306 -19.9075
   -19.8544 -19.8289 -19.7916 -19.7860 -19.7133 -19.6494 -19.5814 -19.3976
   -19.2539 -18.9748 -12.6033 -12.4479 -12.1486 -11.9702 -10.5416 -10.3643
    -9.9263  -9.7393  -9.0864  -8.9010  -8.4498  -8.3306  -8.1448  -7.8953
    -7.8588  -7.6102  -7.5821  -7.3903

     occupation numbers 
     1.0000   1.0000   1.0000   1.0000   1.0000   1.0000   1.0000   1.0000
     1.0000   1.0000   1.0000   1.0000   1.0000   1.0000   1.0000   1.0000
     1.0000   1.0000   1.0000   1.0000   1.0000   1.0000   1.0000   1.0000
     1.0000   1.0000   1.0000   1.0000   1.0000   1.0000   1.0000   1.0000
     1.0000   1.0000   1.0000   1.0000   1.0000   1.0000   1.0000   1.0000
     1.0000   1.0000   1.0000   1.0000

          k =-0.5114 0.2536 0.0000 ( 45094 PWs)   bands (ev):

   -24.0144 -23.8155 -23.8142 -23.6786 -23.6627 -23.6028 -20.2284 -20.2133
   -20.1693 -20.1046 -20.0618 -20.0132 -19.9663 -19.9593 -19.9297 -19.9070
   -19.8681 -19.8431 -19.8066 -19.7598 -19.7200 -19.6635 -19.5830 -19.3963
   -19.2544 -18.9746 -12.5966 -12.4349 -12.1791 -11.9904 -10.4142 -10.2662
   -10.0830  -9.9168  -8.8492  -8.7090  -8.6245  -8.4055  -8.0788  -7.9594
    -7.8589  -7.6596  -7.5656  -7.3863

     occupation numbers 
     1.0000   1.0000   1.0000   1.0000   1.0000   1.0000   1.0000   1.0000
     1.0000   1.0000   1.0000   1.0000   1.0000   1.0000   1.0000   1.0000
     1.0000   1.0000   1.0000   1.0000   1.0000   1.0000   1.0000   1.0000
     1.0000   1.0000   1.0000   1.0000   1.0000   1.0000   1.0000   1.0000
     1.0000   1.0000   1.0000   1.0000   1.0000   1.0000   1.0000   1.0000
     1.0000   1.0000   1.0000   1.0000

          k =-0.4929-0.1758 0.0000 ( 45008 PWs)   bands (ev):

   -24.0053 -23.8329 -23.8038 -23.6826 -23.6691 -23.5943 -20.2339 -20.2197
   -20.1663 -20.0686 -20.0634 -20.0237 -19.9583 -19.9506 -19.9255 -19.9072
   -19.8714 -19.8655 -19.8007 -19.7573 -19.7370 -19.6728 -19.5844 -19.3893
   -19.2554 -18.9753 -12.5865 -12.4204 -12.2109 -12.0129 -10.4978 -10.3385
    -9.8475  -9.7610  -8.9647  -8.7679  -8.6366  -8.4493  -8.1395  -7.9170
    -7.8576  -7.6348  -7.5491  -7.3765

     occupation numbers 
     1.0000   1.0000   1.0000   1.0000   1.0000   1.0000   1.0000   1.0000
     1.0000   1.0000   1.0000   1.0000   1.0000   1.0000   1.0000   1.0000
     1.0000   1.0000   1.0000   1.0000   1.0000   1.0000   1.0000   1.0000
     1.0000   1.0000   1.0000   1.0000   1.0000   1.0000   1.0000   1.0000
     1.0000   1.0000   1.0000   1.0000   1.0000   1.0000   1.0000   1.0000
     1.0000   1.0000   1.0000   1.0000

     highest occupied level (ev):    -7.0848

!    total energy              =   -1361.95358888 Ry
     estimated scf accuracy    <          9.6E-09 Ry

     convergence has been achieved in  13 iterations

     negative rho (up, down):  4.328E-04 0.000E+00

     Forces acting on atoms (cartesian axes, Ry/au):

     atom    1 type  1   force =    -0.02010398   -0.01907366    0.00570945
     atom    2 type  1   force =     0.00473764    0.04020764    0.01579469
     atom    3 type  2   force =    -0.01884237    0.03003618   -0.04955725
     atom    4 type  2   force =     0.04965899   -0.04120575    0.00320749
     atom    5 type  2   force =    -0.01552420   -0.01106627    0.02438019
     atom    6 type  1   force =    -0.00786315   -0.03655329   -0.00442534
     atom    7 type  1   force =    -0.01528502    0.04104858    0.00370889
     atom    8 type  2   force =    -0.01216885    0.01621920   -0.02477783
     atom    9 type  2   force =     0.03514712    0.00861877   -0.00157825
     atom   10 type  2   force =     0.00024381   -0.02823140    0.02753796
     The non-local contrib.  to forces
     atom    1 type  1   force =     0.25741776    0.21360447   -0.01414989
     atom    2 type  1   force =     0.26368712   -0.04884937   -0.14993615
     atom    3 type  2   force =    -0.10373721    0.46878470   -1.12281623
     atom    4 type  2   force =     1.09632177    0.14207485   -0.13196617
     atom    5 type  2   force =    -0.02021911   -0.43019007    1.01436153
     atom    6 type  1   force =     0.22713879    0.16266174    0.07587567
     atom    7 type  1   force =     0.18701976   -0.10843861   -0.06379233
     atom    8 type  2   force =    -0.13240618    0.43916319   -1.00790003
     atom    9 type  2   force =     1.11362005    0.13102106    0.00947998
     atom   10 type  2   force =    -0.07696717   -0.47093055    1.03949120
     The ionic contribution  to forces
     atom    1 type  1   force =     1.95077567   11.48131703  -87.20885160
     atom    2 type  1   force =     3.23163087   -9.55267832 -133.42901128
     atom    3 type  2   force =     0.06492159   -1.64733961  -14.40691480
     atom    4 type  2   force =    -4.86717109   -1.75602781  -48.72882552
     atom    5 type  2   force =    -0.42140389    2.33872528  -86.06968400
     atom    6 type  1   force =     2.17994582   10.24078694  132.20970009
     atom    7 type  1   force =     2.48328571  -10.31932246   86.58472265
     atom    8 type  2   force =     0.23890309   -2.26829009   85.99608657
     atom    9 type  2   force =    -5.10286462    0.02746383   49.60475860
     atom   10 type  2   force =     0.24197686    1.45536521   15.44801930
     The local contribution  to forces
     atom    1 type  1   force =    -2.22672134  -11.71337483   87.22840599
     atom    2 type  1   force =    -3.48811187    9.64494073  133.59365301
     atom    3 type  2   force =     0.01879332    1.21307332   15.47043532
     atom    4 type  2   force =     3.83077050    1.57364701   48.86279561
     atom    5 type  2   force =     0.42566988   -1.92357627   85.08810168
     atom    6 type  1   force =    -2.41369140  -10.44145986 -132.28941112
     atom    7 type  1   force =    -2.68532211   10.47133551  -86.51746833
     atom    8 type  2   force =    -0.12005279    1.84944834  -85.02132365
     atom    9 type  2   force =     4.03468491   -0.14859584  -49.61569792
     atom   10 type  2   force =    -0.16554639   -1.01713458  -16.45119690
     The core correction contribution to forces
     atom    1 type  1   force =    -0.00158837   -0.00059719    0.00018889
     atom    2 type  1   force =    -0.00247014   -0.00320525    0.00098154
     atom    3 type  2   force =     0.00117315   -0.00446925    0.00967845
     atom    4 type  2   force =    -0.01026158   -0.00089751    0.00114504
     atom    5 type  2   force =     0.00043057    0.00397637   -0.00846237
     atom    6 type  1   force =    -0.00125196    0.00144424   -0.00040674
     atom    7 type  1   force =    -0.00025281   -0.00254662    0.00043292
     atom    8 type  2   force =     0.00138784   -0.00409401    0.00840712
     atom    9 type  2   force =    -0.01029160   -0.00128081   -0.00005151
     atom   10 type  2   force =     0.00077867    0.00447403   -0.00871655
     The Hubbard contrib.    to forces
     atom    1 type  1   force =     0.00000000    0.00000000    0.00000000
     atom    2 type  1   force =     0.00000000    0.00000000    0.00000000
     atom    3 type  2   force =     0.00000000    0.00000000    0.00000000
     atom    4 type  2   force =     0.00000000    0.00000000    0.00000000
     atom    5 type  2   force =     0.00000000    0.00000000    0.00000000
     atom    6 type  1   force =     0.00000000    0.00000000    0.00000000
     atom    7 type  1   force =     0.00000000    0.00000000    0.00000000
     atom    8 type  2   force =     0.00000000    0.00000000    0.00000000
     atom    9 type  2   force =     0.00000000    0.00000000    0.00000000
     atom   10 type  2   force =     0.00000000    0.00000000    0.00000000
     The SCF correction term to forces
     atom    1 type  1   force =     0.00001222   -0.00002177    0.00010444
     atom    2 type  1   force =     0.00000158    0.00000121    0.00009595
     atom    3 type  2   force =     0.00000669   -0.00001162    0.00004840
     atom    4 type  2   force =    -0.00000071   -0.00000092    0.00004690
     atom    5 type  2   force =    -0.00000173   -0.00000023    0.00005172
     atom    6 type  1   force =    -0.00000449    0.00001501   -0.00019486
     atom    7 type  1   force =    -0.00001566    0.00002212   -0.00019764
     atom    8 type  2   force =    -0.00000089   -0.00000687   -0.00005946
     atom    9 type  2   force =    -0.00000172    0.00001189   -0.00007903
     atom   10 type  2   force =     0.00000175   -0.00000416   -0.00007070

     Total force =     0.137029     Total SCF correction =     0.000348


     Computing stress (Cartesian axis) and pressure


     negative rho (up, down):  4.328E-04 0.000E+00
          total   stress  (Ry/bohr**3)                   (kbar)     P=      -29.09
  -0.00024825   0.00001390  -0.00001148          -36.52        2.04       -1.69
   0.00001390  -0.00027327   0.00002085            2.04      -40.20        3.07
  -0.00001148   0.00002085  -0.00007169           -1.69        3.07      -10.55

     kinetic stress (kbar)   4688.87      4.49     -2.08
                                4.49   4688.73     -0.62
                               -2.08     -0.62   4760.67

     local   stress (kbar)-496639.27   -114.48      7.19
                             -114.48-493095.40   -556.84
                                7.19   -556.84 494125.67

     nonloc. stress (kbar)    -27.86     -0.98     -0.52
                               -0.98    -44.96     14.83
                               -0.52     14.83     61.64

     hartree stress (kbar) 250451.02     56.43     -4.40
                               56.43 248741.34    273.15
                               -4.40    273.15-241181.30

     exc-cor stress (kbar)    603.65     -0.03      0.06
                               -0.03    604.40     -0.88
                                0.06     -0.88    595.29

     corecor stress (kbar)  -2383.61     -0.03      0.01
                               -0.03  -2383.72      0.11
                                0.01      0.11  -2383.45

     ewald   stress (kbar) 243270.69     56.64     -1.94
                               56.64 241449.41    273.32
                               -1.94    273.32-255989.06

     hubbard stress (kbar)      0.00      0.00      0.00
                                0.00      0.00      0.00
                                0.00      0.00      0.00

     DFT-D   stress (kbar)      0.00      0.00      0.00
                                0.00      0.00      0.00
                                0.00      0.00      0.00

     XDM     stress (kbar)      0.00      0.00      0.00
                                0.00      0.00      0.00
                                0.00      0.00      0.00

     dft-nl  stress (kbar)      0.00      0.00      0.00
                                0.00      0.00      0.00
                                0.00      0.00      0.00

     TS-vdW  stress (kbar)      0.00      0.00      0.00
                                0.00      0.00      0.00
                                0.00      0.00      0.00


                                0.00      0.00      0.00
                                0.00      0.00      0.00


                                0.00      0.00      0.00


     Entering Dynamics:    iteration =     9
                           time      =   0.0087 pico-seconds


     Canonical sampling velocity rescaling

ATOMIC_POSITIONS (crystal)
Ga            0.8319073619        0.7182474571        0.4262595669
Ga            0.5117775559        0.3007852871        0.3995942101
O             0.4069358528        0.5581191581        0.4498189146
O             0.4245615290        0.0154665852        0.4145585981
O             0.9465542428        0.4538770361        0.3781701591
Ga            0.8236756044        0.7216185651        0.5996912224
Ga            0.5170644468        0.3006080831        0.5736456627
O             0.3886368593        0.5681430586        0.6214616026
O             0.4463075026        0.0055570807        0.5860734424
O             0.9345323201        0.4584356910        0.5522430132


     kinetic energy (Ekin) =           0.03036330 Ry
     temperature           =         355.11003581 K 
     Ekin + Etot (const)   =       -1361.92322559 Ry
     Ions kinetic stress =            0.80 (kbar)
                                      0.96           0.11           0.06
                                      0.11           0.31           0.02
                                      0.06           0.02           1.13



     Linear momentum :   -0.0000000000   -0.0000000000   -0.0000000000

     Writing config-only to output data dir ./tmp/Ga2O3-BL-001-300K.save/

     second order wave-functions extrapolation
     second order charge density extrapolation

     negative rho (up, down):  4.340E-04 0.000E+00

     total cpu time spent up to now is      619.0 secs

     Self-consistent Calculation

     iteration #  1     ecut=    80.00 Ry     beta= 0.20
     Davidson diagonalization with overlap

---- Real-time Memory Report at c_bands before calling an iterative solver
           314 MiB given to the printing process from OS
             0 MiB allocation reported by mallinfo(arena+hblkhd)
        367114 MiB available memory on the node where the printing process lives
------------------
     ethr =  1.00E-06,  avg # of iterations =  2.0

     Threshold (ethr) on eigenvalues was too large:
     Diagonalizing with lowered threshold

     Davidson diagonalization with overlap

---- Real-time Memory Report at c_bands before calling an iterative solver
           314 MiB given to the printing process from OS
             0 MiB allocation reported by mallinfo(arena+hblkhd)
        367123 MiB available memory on the node where the printing process lives
------------------
     ethr =  9.64E-10,  avg # of iterations =  7.7

     negative rho (up, down):  4.339E-04 0.000E+00

     total cpu time spent up to now is      624.0 secs

     total energy              =   -1361.95511135 Ry
     estimated scf accuracy    <       0.00000244 Ry

     iteration #  2     ecut=    80.00 Ry     beta= 0.20
     Davidson diagonalization with overlap

---- Real-time Memory Report at c_bands before calling an iterative solver
           314 MiB given to the printing process from OS
             0 MiB allocation reported by mallinfo(arena+hblkhd)
        367110 MiB available memory on the node where the printing process lives
------------------
     ethr =  2.77E-09,  avg # of iterations =  1.8

     negative rho (up, down):  4.337E-04 0.000E+00

     total cpu time spent up to now is      625.9 secs

     total energy              =   -1361.95511068 Ry
     estimated scf accuracy    <       0.00000103 Ry

     iteration #  3     ecut=    80.00 Ry     beta= 0.20
     Davidson diagonalization with overlap

---- Real-time Memory Report at c_bands before calling an iterative solver
           314 MiB given to the printing process from OS
             0 MiB allocation reported by mallinfo(arena+hblkhd)
        367113 MiB available memory on the node where the printing process lives
------------------
     ethr =  1.17E-09,  avg # of iterations = 11.1

     negative rho (up, down):  4.336E-04 0.000E+00

     total cpu time spent up to now is      629.8 secs

     total energy              =   -1361.95511157 Ry
     estimated scf accuracy    <       0.00000800 Ry

     iteration #  4     ecut=    80.00 Ry     beta= 0.20
     Davidson diagonalization with overlap

---- Real-time Memory Report at c_bands before calling an iterative solver
           314 MiB given to the printing process from OS
             0 MiB allocation reported by mallinfo(arena+hblkhd)
        367113 MiB available memory on the node where the printing process lives
------------------
     ethr =  1.17E-09,  avg # of iterations =  7.8

     negative rho (up, down):  4.336E-04 0.000E+00

     total cpu time spent up to now is      632.5 secs

     total energy              =   -1361.95511187 Ry
     estimated scf accuracy    <       0.00000227 Ry

     iteration #  5     ecut=    80.00 Ry     beta= 0.20
     Davidson diagonalization with overlap

---- Real-time Memory Report at c_bands before calling an iterative solver
           314 MiB given to the printing process from OS
             0 MiB allocation reported by mallinfo(arena+hblkhd)
        367115 MiB available memory on the node where the printing process lives
------------------
     ethr =  1.17E-09,  avg # of iterations =  1.7

     negative rho (up, down):  4.335E-04 0.000E+00

     total cpu time spent up to now is      634.4 secs

     total energy              =   -1361.95511188 Ry
     estimated scf accuracy    <       0.00000204 Ry

     iteration #  6     ecut=    80.00 Ry     beta= 0.20
     Davidson diagonalization with overlap

---- Real-time Memory Report at c_bands before calling an iterative solver
           314 MiB given to the printing process from OS
             0 MiB allocation reported by mallinfo(arena+hblkhd)
        367113 MiB available memory on the node where the printing process lives
------------------
     ethr =  1.17E-09,  avg # of iterations =  1.4

     negative rho (up, down):  4.334E-04 0.000E+00

     total cpu time spent up to now is      636.1 secs

     total energy              =   -1361.95511118 Ry
     estimated scf accuracy    <       0.00000190 Ry

     iteration #  7     ecut=    80.00 Ry     beta= 0.20
     Davidson diagonalization with overlap

---- Real-time Memory Report at c_bands before calling an iterative solver
           314 MiB given to the printing process from OS
             0 MiB allocation reported by mallinfo(arena+hblkhd)
        367113 MiB available memory on the node where the printing process lives
------------------
     ethr =  1.17E-09,  avg # of iterations =  6.6

     negative rho (up, down):  4.334E-04 0.000E+00

     total cpu time spent up to now is      639.0 secs

     total energy              =   -1361.95511173 Ry
     estimated scf accuracy    <       0.00000018 Ry

     iteration #  8     ecut=    80.00 Ry     beta= 0.20
     Davidson diagonalization with overlap

---- Real-time Memory Report at c_bands before calling an iterative solver
           314 MiB given to the printing process from OS
             0 MiB allocation reported by mallinfo(arena+hblkhd)
        367113 MiB available memory on the node where the printing process lives
------------------
     ethr =  2.05E-10,  avg # of iterations =  3.8

     negative rho (up, down):  4.334E-04 0.000E+00

     total cpu time spent up to now is      641.1 secs

     total energy              =   -1361.95511172 Ry
     estimated scf accuracy    <       0.00000020 Ry

     iteration #  9     ecut=    80.00 Ry     beta= 0.20
     Davidson diagonalization with overlap

---- Real-time Memory Report at c_bands before calling an iterative solver
           314 MiB given to the printing process from OS
             0 MiB allocation reported by mallinfo(arena+hblkhd)
        367113 MiB available memory on the node where the printing process lives
------------------
     ethr =  2.05E-10,  avg # of iterations =  1.9

     negative rho (up, down):  4.333E-04 0.000E+00

     total cpu time spent up to now is      642.9 secs

     total energy              =   -1361.95511168 Ry
     estimated scf accuracy    <       0.00000014 Ry

     iteration # 10     ecut=    80.00 Ry     beta= 0.20
     Davidson diagonalization with overlap

---- Real-time Memory Report at c_bands before calling an iterative solver
           314 MiB given to the printing process from OS
             0 MiB allocation reported by mallinfo(arena+hblkhd)
        367113 MiB available memory on the node where the printing process lives
------------------
     ethr =  1.54E-10,  avg # of iterations =  5.2

     negative rho (up, down):  4.333E-04 0.000E+00

     total cpu time spent up to now is      645.1 secs

     total energy              =   -1361.95511170 Ry
     estimated scf accuracy    <       0.00000003 Ry

     iteration # 11     ecut=    80.00 Ry     beta= 0.20
     Davidson diagonalization with overlap

---- Real-time Memory Report at c_bands before calling an iterative solver
           314 MiB given to the printing process from OS
             0 MiB allocation reported by mallinfo(arena+hblkhd)
        367115 MiB available memory on the node where the printing process lives
------------------
     ethr =  3.63E-11,  avg # of iterations =  8.0

     negative rho (up, down):  4.332E-04 0.000E+00

     total cpu time spent up to now is      648.1 secs

     End of self-consistent calculation

          k = 0.0000 0.0000 0.0000 ( 45065 PWs)   bands (ev):

   -24.6419 -24.4851 -23.7866 -23.6527 -23.6235 -23.4403 -20.2551 -20.1966
   -20.1633 -20.1291 -20.1149 -20.0534 -20.0239 -19.9909 -19.9366 -19.8866
   -19.8411 -19.8275 -19.8154 -19.7852 -19.7643 -19.6709 -19.5835 -19.5638
   -19.2772 -19.2383 -12.6958 -12.5926 -10.3608 -10.0223  -9.4750  -9.3260
    -8.8540  -8.5755  -8.3679  -8.2317  -8.2040  -8.1127  -7.9609  -7.9337
    -7.8624  -7.6607  -7.5202  -7.1651

     occupation numbers 
     1.0000   1.0000   1.0000   1.0000   1.0000   1.0000   1.0000   1.0000
     1.0000   1.0000   1.0000   1.0000   1.0000   1.0000   1.0000   1.0000
     1.0000   1.0000   1.0000   1.0000   1.0000   1.0000   1.0000   1.0000
     1.0000   1.0000   1.0000   1.0000   1.0000   1.0000   1.0000   1.0000
     1.0000   1.0000   1.0000   1.0000   1.0000   1.0000   1.0000   1.0000
     1.0000   1.0000   1.0000   1.0000

          k =-0.0062 0.1431 0.0000 ( 45113 PWs)   bands (ev):

   -24.5759 -24.4009 -23.9225 -23.8151 -23.5644 -23.3702 -20.2381 -20.1948
   -20.1628 -20.1371 -20.1148 -20.0448 -20.0160 -19.9656 -19.9323 -19.8879
   -19.8629 -19.8310 -19.8143 -19.7703 -19.7527 -19.6621 -19.6484 -19.5595
   -19.3406 -19.2377 -12.3199 -12.2042 -10.4614 -10.1358  -9.8076  -9.6769
    -9.2150  -8.9489  -8.4201  -8.2424  -8.1569  -7.9782  -7.8966  -7.7601
    -7.6762  -7.5856  -7.5032  -7.1928

     occupation numbers 
     1.0000   1.0000   1.0000   1.0000   1.0000   1.0000   1.0000   1.0000
     1.0000   1.0000   1.0000   1.0000   1.0000   1.0000   1.0000   1.0000
     1.0000   1.0000   1.0000   1.0000   1.0000   1.0000   1.0000   1.0000
     1.0000   1.0000   1.0000   1.0000   1.0000   1.0000   1.0000   1.0000
     1.0000   1.0000   1.0000   1.0000   1.0000   1.0000   1.0000   1.0000
     1.0000   1.0000   1.0000   1.0000

          k = 0.0124-0.2862 0.0000 ( 45174 PWs)   bands (ev):

   -24.4851 -24.2565 -24.0541 -24.0086 -23.5320 -23.3317 -20.2274 -20.1888
   -20.1650 -20.1369 -20.1125 -20.0300 -20.0102 -19.9386 -19.9286 -19.8875
   -19.8791 -19.8377 -19.8121 -19.7507 -19.7445 -19.7220 -19.6525 -19.5543
   -19.4161 -19.2331 -11.6936 -11.5600 -10.7714 -10.5213 -10.3035 -10.1361
    -9.2939  -9.0613  -8.5306  -8.3415  -8.1228  -7.8885  -7.8063  -7.6272
    -7.5945  -7.5337  -7.3287  -7.2318

     occupation numbers 
     1.0000   1.0000   1.0000   1.0000   1.0000   1.0000   1.0000   1.0000
     1.0000   1.0000   1.0000   1.0000   1.0000   1.0000   1.0000   1.0000
     1.0000   1.0000   1.0000   1.0000   1.0000   1.0000   1.0000   1.0000
     1.0000   1.0000   1.0000   1.0000   1.0000   1.0000   1.0000   1.0000
     1.0000   1.0000   1.0000   1.0000   1.0000   1.0000   1.0000   1.0000
     1.0000   1.0000   1.0000   1.0000

          k = 0.1684-0.0368 0.0000 ( 45086 PWs)   bands (ev):

   -24.5158 -24.3534 -23.7911 -23.6572 -23.6136 -23.4326 -20.2520 -20.1931
   -20.1701 -20.1222 -20.0923 -20.0491 -20.0018 -19.9822 -19.9363 -19.8864
   -19.8563 -19.8201 -19.8033 -19.7681 -19.7414 -19.6641 -19.5592 -19.4916
   -19.2348 -19.1904 -12.5541 -12.4539 -10.5840 -10.2865 -10.1839 -10.0027
    -9.2424  -8.9932  -8.6389  -8.4170  -8.3250  -8.1812  -8.0839  -7.9572
    -7.8743  -7.7651  -7.3730  -7.0460

     occupation numbers 
     1.0000   1.0000   1.0000   1.0000   1.0000   1.0000   1.0000   1.0000
     1.0000   1.0000   1.0000   1.0000   1.0000   1.0000   1.0000   1.0000
     1.0000   1.0000   1.0000   1.0000   1.0000   1.0000   1.0000   1.0000
     1.0000   1.0000   1.0000   1.0000   1.0000   1.0000   1.0000   1.0000
     1.0000   1.0000   1.0000   1.0000   1.0000   1.0000   1.0000   1.0000
     1.0000   1.0000   1.0000   1.0000

          k = 0.1622 0.1063 0.0000 ( 45049 PWs)   bands (ev):

   -24.4921 -24.3225 -23.8394 -23.7155 -23.5924 -23.4078 -20.2540 -20.1902
   -20.1568 -20.1173 -20.1020 -20.0506 -20.0001 -19.9720 -19.9244 -19.8885
   -19.8595 -19.8239 -19.8046 -19.7642 -19.7386 -19.6573 -19.6093 -19.4743
   -19.2972 -19.1520 -12.4181 -12.3226 -10.7095 -10.3599 -10.1289  -9.9708
    -9.3557  -9.1591  -8.6985  -8.5049  -8.3653  -8.1568  -8.0075  -7.9235
    -7.8047  -7.7057  -7.3783  -7.0501

     occupation numbers 
     1.0000   1.0000   1.0000   1.0000   1.0000   1.0000   1.0000   1.0000
     1.0000   1.0000   1.0000   1.0000   1.0000   1.0000   1.0000   1.0000
     1.0000   1.0000   1.0000   1.0000   1.0000   1.0000   1.0000   1.0000
     1.0000   1.0000   1.0000   1.0000   1.0000   1.0000   1.0000   1.0000
     1.0000   1.0000   1.0000   1.0000   1.0000   1.0000   1.0000   1.0000
     1.0000   1.0000   1.0000   1.0000

          k = 0.1808-0.3231 0.0000 ( 45092 PWs)   bands (ev):

   -24.3962 -24.1726 -23.9757 -23.9194 -23.5610 -23.3652 -20.2381 -20.1890
   -20.1465 -20.1271 -20.0885 -20.0439 -19.9951 -19.9446 -19.9038 -19.8822
   -19.8724 -19.8224 -19.8049 -19.7545 -19.7361 -19.7289 -19.6239 -19.4534
   -19.4208 -19.1303 -11.7909 -11.6661 -11.0486 -10.7902 -10.2223 -10.0387
    -9.6972  -9.5058  -8.9320  -8.7390  -8.2979  -8.0864  -8.0341  -7.8459
    -7.5967  -7.4185  -7.3762  -7.0622

     occupation numbers 
     1.0000   1.0000   1.0000   1.0000   1.0000   1.0000   1.0000   1.0000
     1.0000   1.0000   1.0000   1.0000   1.0000   1.0000   1.0000   1.0000
     1.0000   1.0000   1.0000   1.0000   1.0000   1.0000   1.0000   1.0000
     1.0000   1.0000   1.0000   1.0000   1.0000   1.0000   1.0000   1.0000
     1.0000   1.0000   1.0000   1.0000   1.0000   1.0000   1.0000   1.0000
     1.0000   1.0000   1.0000   1.0000

          k = 0.1746-0.1799 0.0000 ( 45085 PWs)   bands (ev):

   -24.4314 -24.2356 -23.9267 -23.8408 -23.5722 -23.3775 -20.2338 -20.1846
   -20.1680 -20.1295 -20.0878 -20.0401 -19.9966 -19.9553 -19.9258 -19.8831
   -19.8651 -19.8210 -19.8051 -19.7619 -19.7343 -19.6784 -19.6381 -19.4587
   -19.3749 -19.1436 -12.0582 -11.9201 -10.7982 -10.6029 -10.2549 -10.0186
    -9.6398  -9.4077  -8.8431  -8.6635  -8.2903  -8.1202  -8.0396  -7.8296
    -7.6777  -7.5132  -7.3842  -7.0579

     occupation numbers 
     1.0000   1.0000   1.0000   1.0000   1.0000   1.0000   1.0000   1.0000
     1.0000   1.0000   1.0000   1.0000   1.0000   1.0000   1.0000   1.0000
     1.0000   1.0000   1.0000   1.0000   1.0000   1.0000   1.0000   1.0000
     1.0000   1.0000   1.0000   1.0000   1.0000   1.0000   1.0000   1.0000
     1.0000   1.0000   1.0000   1.0000   1.0000   1.0000   1.0000   1.0000
     1.0000   1.0000   1.0000   1.0000

          k = 0.3368-0.0737 0.0000 ( 45074 PWs)   bands (ev):

   -24.2269 -24.0431 -23.7865 -23.6507 -23.6338 -23.4765 -20.2206 -20.1986
   -20.1564 -20.1272 -20.0446 -20.0330 -19.9728 -19.9470 -19.8935 -19.8776
   -19.8506 -19.8362 -19.7647 -19.7486 -19.7035 -19.6107 -19.5660 -19.3252
   -19.2656 -19.0178 -12.4960 -12.3723 -11.5579 -11.3279 -10.7149 -10.4838
    -9.6314  -9.4320  -8.9186  -8.6627  -8.6206  -8.4595  -8.1057  -7.8484
    -7.7886  -7.6725  -7.4435  -7.1354

     occupation numbers 
     1.0000   1.0000   1.0000   1.0000   1.0000   1.0000   1.0000   1.0000
     1.0000   1.0000   1.0000   1.0000   1.0000   1.0000   1.0000   1.0000
     1.0000   1.0000   1.0000   1.0000   1.0000   1.0000   1.0000   1.0000
     1.0000   1.0000   1.0000   1.0000   1.0000   1.0000   1.0000   1.0000
     1.0000   1.0000   1.0000   1.0000   1.0000   1.0000   1.0000   1.0000
     1.0000   1.0000   1.0000   1.0000

          k = 0.3306 0.0695 0.0000 ( 45046 PWs)   bands (ev):

   -24.2339 -24.0550 -23.7910 -23.6397 -23.6216 -23.4743 -20.2376 -20.1997
   -20.1466 -20.1066 -20.0511 -20.0344 -19.9737 -19.9483 -19.8959 -19.8771
   -19.8532 -19.8445 -19.7664 -19.7332 -19.7148 -19.6186 -19.5473 -19.3404
   -19.2304 -19.0307 -12.5309 -12.4318 -11.6012 -11.2867 -10.6726 -10.5139
    -9.6076  -9.4392  -8.8829  -8.6248  -8.5199  -8.3788  -8.1861  -7.8673
    -7.8345  -7.7036  -7.4341  -7.1359

     occupation numbers 
     1.0000   1.0000   1.0000   1.0000   1.0000   1.0000   1.0000   1.0000
     1.0000   1.0000   1.0000   1.0000   1.0000   1.0000   1.0000   1.0000
     1.0000   1.0000   1.0000   1.0000   1.0000   1.0000   1.0000   1.0000
     1.0000   1.0000   1.0000   1.0000   1.0000   1.0000   1.0000   1.0000
     1.0000   1.0000   1.0000   1.0000   1.0000   1.0000   1.0000   1.0000
     1.0000   1.0000   1.0000   1.0000

          k = 0.3492-0.3599 0.0000 ( 45085 PWs)   bands (ev):

   -24.1795 -23.9580 -23.8422 -23.7543 -23.6291 -23.4604 -20.2260 -20.1975
   -20.1446 -20.0908 -20.0524 -20.0260 -19.9736 -19.9229 -19.8776 -19.8555
   -19.8553 -19.8447 -19.7645 -19.7362 -19.7149 -19.6996 -19.5708 -19.3808
   -19.2938 -18.9753 -12.2412 -12.1083 -11.8338 -11.5592 -10.3967 -10.2402
    -9.7583  -9.6356  -9.0556  -8.8288  -8.7127  -8.4949  -8.1672  -7.8916
    -7.6943  -7.4965  -7.4247  -7.1508

     occupation numbers 
     1.0000   1.0000   1.0000   1.0000   1.0000   1.0000   1.0000   1.0000
     1.0000   1.0000   1.0000   1.0000   1.0000   1.0000   1.0000   1.0000
     1.0000   1.0000   1.0000   1.0000   1.0000   1.0000   1.0000   1.0000
     1.0000   1.0000   1.0000   1.0000   1.0000   1.0000   1.0000   1.0000
     1.0000   1.0000   1.0000   1.0000   1.0000   1.0000   1.0000   1.0000
     1.0000   1.0000   1.0000   1.0000

          k = 0.3430-0.2168 0.0000 ( 45092 PWs)   bands (ev):

   -24.1706 -23.9311 -23.8415 -23.7805 -23.6393 -23.4624 -20.2136 -20.1894
   -20.1528 -20.1187 -20.0454 -20.0206 -19.9717 -19.9239 -19.8802 -19.8520
   -19.8487 -19.8382 -19.7649 -19.7425 -19.7150 -19.7054 -19.5450 -19.4292
   -19.2850 -18.9698 -12.2096 -11.9970 -11.7897 -11.6389 -10.3709 -10.1557
    -9.9160  -9.7444  -9.0803  -8.8977  -8.6483  -8.4111  -8.2067  -7.9540
    -7.6117  -7.4868  -7.4285  -7.1584

     occupation numbers 
     1.0000   1.0000   1.0000   1.0000   1.0000   1.0000   1.0000   1.0000
     1.0000   1.0000   1.0000   1.0000   1.0000   1.0000   1.0000   1.0000
     1.0000   1.0000   1.0000   1.0000   1.0000   1.0000   1.0000   1.0000
     1.0000   1.0000   1.0000   1.0000   1.0000   1.0000   1.0000   1.0000
     1.0000   1.0000   1.0000   1.0000   1.0000   1.0000   1.0000   1.0000
     1.0000   1.0000   1.0000   1.0000

          k =-0.5052 0.1105 0.0000 ( 45134 PWs)   bands (ev):

   -24.0351 -23.8164 -23.7945 -23.6777 -23.6111 -23.6009 -20.2173 -20.1818
   -20.1617 -20.1175 -20.0357 -20.0078 -19.9625 -19.9256 -19.8881 -19.8616
   -19.8106 -19.8074 -19.7463 -19.7445 -19.6671 -19.6313 -19.5326 -19.3500
   -19.2343 -18.9243 -12.6122 -12.4375 -12.1388 -11.9416 -10.5334 -10.3366
    -9.9262  -9.7158  -9.0789  -8.8740  -8.4378  -8.3029  -8.1339  -7.8670
    -7.8346  -7.5836  -7.5565  -7.3527

     occupation numbers 
     1.0000   1.0000   1.0000   1.0000   1.0000   1.0000   1.0000   1.0000
     1.0000   1.0000   1.0000   1.0000   1.0000   1.0000   1.0000   1.0000
     1.0000   1.0000   1.0000   1.0000   1.0000   1.0000   1.0000   1.0000
     1.0000   1.0000   1.0000   1.0000   1.0000   1.0000   1.0000   1.0000
     1.0000   1.0000   1.0000   1.0000   1.0000   1.0000   1.0000   1.0000
     1.0000   1.0000   1.0000   1.0000

          k =-0.5114 0.2536 0.0000 ( 45094 PWs)   bands (ev):

   -24.0278 -23.8124 -23.8065 -23.6674 -23.6416 -23.5799 -20.2162 -20.2017
   -20.1555 -20.0889 -20.0463 -19.9979 -19.9501 -19.9193 -19.8874 -19.8610
   -19.8244 -19.8234 -19.7621 -19.7154 -19.6754 -19.6466 -19.5332 -19.3484
   -19.2350 -18.9239 -12.6038 -12.4230 -12.1731 -11.9640 -10.4091 -10.2438
   -10.0713  -9.8849  -8.8494  -8.6938  -8.6113  -8.3662  -8.0689  -7.9426
    -7.8289  -7.6142  -7.5525  -7.3505

     occupation numbers 
     1.0000   1.0000   1.0000   1.0000   1.0000   1.0000   1.0000   1.0000
     1.0000   1.0000   1.0000   1.0000   1.0000   1.0000   1.0000   1.0000
     1.0000   1.0000   1.0000   1.0000   1.0000   1.0000   1.0000   1.0000
     1.0000   1.0000   1.0000   1.0000   1.0000   1.0000   1.0000   1.0000
     1.0000   1.0000   1.0000   1.0000   1.0000   1.0000   1.0000   1.0000
     1.0000   1.0000   1.0000   1.0000

          k =-0.4929-0.1758 0.0000 ( 45008 PWs)   bands (ev):

   -24.0196 -23.8292 -23.7948 -23.6625 -23.6582 -23.5710 -20.2222 -20.2074
   -20.1523 -20.0523 -20.0493 -20.0063 -19.9349 -19.9171 -19.8833 -19.8612
   -19.8464 -19.8294 -19.7559 -19.7103 -19.6949 -19.6570 -19.5339 -19.3409
   -19.2362 -18.9245 -12.5918 -12.4071 -12.2092 -11.9889 -10.4889 -10.3117
    -9.8339  -9.7360  -8.9535  -8.7365  -8.6387  -8.4296  -8.1301  -7.9007
    -7.8180  -7.5901  -7.5356  -7.3416

     occupation numbers 
     1.0000   1.0000   1.0000   1.0000   1.0000   1.0000   1.0000   1.0000
     1.0000   1.0000   1.0000   1.0000   1.0000   1.0000   1.0000   1.0000
     1.0000   1.0000   1.0000   1.0000   1.0000   1.0000   1.0000   1.0000
     1.0000   1.0000   1.0000   1.0000   1.0000   1.0000   1.0000   1.0000
     1.0000   1.0000   1.0000   1.0000   1.0000   1.0000   1.0000   1.0000
     1.0000   1.0000   1.0000   1.0000

     highest occupied level (ev):    -7.0460

!    total energy              =   -1361.95511171 Ry
     estimated scf accuracy    <          4.5E-09 Ry

     convergence has been achieved in  11 iterations

     negative rho (up, down):  4.332E-04 0.000E+00

     Forces acting on atoms (cartesian axes, Ry/au):

     atom    1 type  1   force =    -0.01956399   -0.01829823    0.00651201
     atom    2 type  1   force =     0.00799891    0.04195264    0.01704070
     atom    3 type  2   force =    -0.02033519    0.03091509   -0.04866240
     atom    4 type  2   force =     0.04878512   -0.04561007    0.00331757
     atom    5 type  2   force =    -0.01697404   -0.01007916    0.02117244
     atom    6 type  1   force =    -0.00618662   -0.03769868   -0.00427795
     atom    7 type  1   force =    -0.01428491    0.04320684    0.00396883
     atom    8 type  2   force =    -0.01290593    0.01591719   -0.02171712
     atom    9 type  2   force =     0.03273654    0.00872443   -0.00162845
     atom   10 type  2   force =     0.00073014   -0.02903004    0.02427438
     The non-local contrib.  to forces
     atom    1 type  1   force =     0.26123183    0.21871098   -0.01858905
     atom    2 type  1   force =     0.26769234   -0.04421767   -0.16238165
     atom    3 type  2   force =    -0.10024819    0.47411079   -1.11884497
     atom    4 type  2   force =     1.09516300    0.14391796   -0.14815798
     atom    5 type  2   force =    -0.01262716   -0.42814605    1.00055858
     atom    6 type  1   force =     0.22628245    0.16430771    0.08024040
     atom    7 type  1   force =     0.18333779   -0.10754894   -0.06709145
     atom    8 type  2   force =    -0.13131450    0.44143273   -0.99355429
     atom    9 type  2   force =     1.11261196    0.13424289    0.01115672
     atom   10 type  2   force =    -0.07608645   -0.47283037    1.02531564
     The ionic contribution  to forces
     atom    1 type  1   force =     1.97609033   11.55767740  -87.23795437
     atom    2 type  1   force =     3.30486402   -9.52485137 -133.66310719
     atom    3 type  2   force =     0.02529737   -1.64099686  -14.45374731
     atom    4 type  2   force =    -4.85849291   -1.87999038  -48.51936204
     atom    5 type  2   force =    -0.48888823    2.34169297  -85.96660570
     atom    6 type  1   force =     2.21258969   10.24107372  132.28399862
     atom    7 type  1   force =     2.47642946  -10.29101448   86.53681648
     atom    8 type  2   force =     0.21367164   -2.25298088   85.86264642
     atom    9 type  2   force =    -5.10820944    0.01953022   49.55987827
     atom   10 type  2   force =     0.24664808    1.42985967   15.59743682
     The local contribution  to forces
     atom    1 type  1   force =    -2.25523468  -11.79397269   87.26292395
     atom    2 type  1   force =    -3.56186951    9.61439408  133.84155575
     atom    3 type  2   force =     0.05346462    1.20232567   15.51432367
     atom    4 type  2   force =     3.82236023    1.69133022   48.66956733
     atom    5 type  2   force =     0.48416333   -1.92758017   84.99554810
     atom    6 type  1   force =    -2.44376043  -10.44460784 -132.36819319
     atom    7 type  1   force =    -2.67383416   10.44450483  -86.46635585
     atom    8 type  2   force =    -0.09665190    1.83157888  -84.89910916
     atom    9 type  2   force =     4.03859830   -0.14374074  -49.57263643
     atom   10 type  2   force =    -0.17059755   -0.99055291  -16.58997627
     The core correction contribution to forces
     atom    1 type  1   force =    -0.00167952   -0.00070212    0.00019946
     atom    2 type  1   force =    -0.00267574   -0.00338697    0.00106042
     atom    3 type  2   force =     0.00115340   -0.00452493    0.00963183
     atom    4 type  2   force =    -0.01024656   -0.00087211    0.00128582
     atom    5 type  2   force =     0.00037795    0.00394972   -0.00830670
     atom    6 type  1   force =    -0.00128109    0.00152291   -0.00044376
     atom    7 type  1   force =    -0.00022117   -0.00271107    0.00046831
     atom    8 type  2   force =     0.00138428   -0.00411241    0.00824804
     atom    9 type  2   force =    -0.01026403   -0.00130866   -0.00006575
     atom   10 type  2   force =     0.00076668    0.00449672   -0.00855646
     The Hubbard contrib.    to forces
     atom    1 type  1   force =     0.00000000    0.00000000    0.00000000
     atom    2 type  1   force =     0.00000000    0.00000000    0.00000000
     atom    3 type  2   force =     0.00000000    0.00000000    0.00000000
     atom    4 type  2   force =     0.00000000    0.00000000    0.00000000
     atom    5 type  2   force =     0.00000000    0.00000000    0.00000000
     atom    6 type  1   force =     0.00000000    0.00000000    0.00000000
     atom    7 type  1   force =     0.00000000    0.00000000    0.00000000
     atom    8 type  2   force =     0.00000000    0.00000000    0.00000000
     atom    9 type  2   force =     0.00000000    0.00000000    0.00000000
     atom   10 type  2   force =     0.00000000    0.00000000    0.00000000
     The SCF correction term to forces
     atom    1 type  1   force =     0.00002734   -0.00001192   -0.00006404
     atom    2 type  1   force =    -0.00001293    0.00001445   -0.00008270
     atom    3 type  2   force =    -0.00000311    0.00000029   -0.00002169
     atom    4 type  2   force =     0.00000064    0.00000411   -0.00001162
     atom    5 type  2   force =    -0.00000064    0.00000425   -0.00001790
     atom    6 type  1   force =    -0.00001795    0.00000470    0.00012391
     atom    7 type  1   force =     0.00000245   -0.00002361    0.00013528
     atom    8 type  2   force =     0.00000383   -0.00000126    0.00005580
     atom    9 type  2   force =    -0.00000096    0.00000060    0.00004269
     atom   10 type  2   force =    -0.00000133   -0.00000327    0.00005859

     Total force =     0.137695     Total SCF correction =     0.000237


     Computing stress (Cartesian axis) and pressure


     negative rho (up, down):  4.332E-04 0.000E+00
          total   stress  (Ry/bohr**3)                   (kbar)     P=      -28.07
  -0.00024101   0.00001480  -0.00001245          -35.45        2.18       -1.83
   0.00001480  -0.00026553   0.00001975            2.18      -39.06        2.91
  -0.00001245   0.00001975  -0.00006600           -1.83        2.91       -9.71

     kinetic stress (kbar)   4696.63      4.82     -2.16
                                4.82   4696.33     -1.06
                               -2.16     -1.06   4766.54

     local   stress (kbar)-496737.85   -116.95     11.04
                             -116.95-493236.28   -578.42
                               11.04   -578.42 494257.29

     nonloc. stress (kbar)    -35.27     -1.23     -0.46
                               -1.23    -53.24     15.11
                               -0.46     15.11     56.03

     hartree stress (kbar) 250503.66     57.07     -5.78
                               57.07 248809.71    282.93
                               -5.78    282.93-241242.34

     exc-cor stress (kbar)    603.34     -0.03      0.05
                               -0.03    604.14     -0.88
                                0.05     -0.88    594.93

     corecor stress (kbar)  -2383.57     -0.03      0.01
                               -0.03  -2383.69      0.11
                                0.01      0.11  -2383.40

     ewald   stress (kbar) 243317.62     58.52     -4.53
                               58.52 241523.98    285.11
                               -4.53    285.11-256058.76

     hubbard stress (kbar)      0.00      0.00      0.00
                                0.00      0.00      0.00
                                0.00      0.00      0.00

     DFT-D   stress (kbar)      0.00      0.00      0.00
                                0.00      0.00      0.00
                                0.00      0.00      0.00

     XDM     stress (kbar)      0.00      0.00      0.00
                                0.00      0.00      0.00
                                0.00      0.00      0.00

     dft-nl  stress (kbar)      0.00      0.00      0.00
                                0.00      0.00      0.00
                                0.00      0.00      0.00

     TS-vdW  stress (kbar)      0.00      0.00      0.00
                                0.00      0.00      0.00
                                0.00      0.00      0.00


                                0.00      0.00      0.00
                                0.00      0.00      0.00


                                0.00      0.00      0.00


     Entering Dynamics:    iteration =    10
                           time      =   0.0097 pico-seconds


     Canonical sampling velocity rescaling

ATOMIC_POSITIONS (crystal)
Ga            0.8322209909        0.7180746319        0.4262379163
Ga            0.5109468548        0.3006926810        0.3995115878
O             0.4085350827        0.5579254704        0.4496785231
O             0.4257372681        0.0161527835        0.4147093905
O             0.9472114414        0.4535075077        0.3783716443
Ga            0.8231526715        0.7217736583        0.5997095510
Ga            0.5167305303        0.3005004759        0.5736701839
O             0.3884059715        0.5689025277        0.6212190124
O             0.4494055290        0.0056762669        0.5860480530
O             0.9342205085        0.4583838508        0.5525667859


     kinetic energy (Ekin) =           0.03270353 Ry
     temperature           =         382.47989867 K 
     Ekin + Etot (const)   =       -1361.92240818 Ry
     Ions kinetic stress =            0.86 (kbar)
                                      1.04           0.13           0.06
                                      0.13           0.28          -0.05
                                      0.06          -0.05           1.26



     Linear momentum :    0.0000000000   -0.0000000000   -0.0000000000

     Writing config-only to output data dir ./tmp/Ga2O3-BL-001-300K.save/

     second order wave-functions extrapolation
     second order charge density extrapolation

     negative rho (up, down):  4.340E-04 0.000E+00

     total cpu time spent up to now is      658.0 secs

     Self-consistent Calculation

     iteration #  1     ecut=    80.00 Ry     beta= 0.20
     Davidson diagonalization with overlap

---- Real-time Memory Report at c_bands before calling an iterative solver
           314 MiB given to the printing process from OS
             0 MiB allocation reported by mallinfo(arena+hblkhd)
        367096 MiB available memory on the node where the printing process lives
------------------
     ethr =  1.00E-06,  avg # of iterations =  2.0

     Threshold (ethr) on eigenvalues was too large:
     Diagonalizing with lowered threshold

     Davidson diagonalization with overlap

---- Real-time Memory Report at c_bands before calling an iterative solver
           314 MiB given to the printing process from OS
             0 MiB allocation reported by mallinfo(arena+hblkhd)
        367098 MiB available memory on the node where the printing process lives
------------------
     ethr =  1.45E-09,  avg # of iterations =  8.6

     negative rho (up, down):  4.338E-04 0.000E+00

     total cpu time spent up to now is      663.1 secs

     total energy              =   -1361.95673491 Ry
     estimated scf accuracy    <       0.00000399 Ry

     iteration #  2     ecut=    80.00 Ry     beta= 0.20
     Davidson diagonalization with overlap

---- Real-time Memory Report at c_bands before calling an iterative solver
           314 MiB given to the printing process from OS
             0 MiB allocation reported by mallinfo(arena+hblkhd)
        367113 MiB available memory on the node where the printing process lives
------------------
     ethr =  4.53E-09,  avg # of iterations =  4.6

     negative rho (up, down):  4.336E-04 0.000E+00

     total cpu time spent up to now is      665.2 secs

     total energy              =   -1361.95673446 Ry
     estimated scf accuracy    <       0.00000114 Ry

     iteration #  3     ecut=    80.00 Ry     beta= 0.20
     Davidson diagonalization with overlap

---- Real-time Memory Report at c_bands before calling an iterative solver
           314 MiB given to the printing process from OS
             0 MiB allocation reported by mallinfo(arena+hblkhd)
        367111 MiB available memory on the node where the printing process lives
------------------
     ethr =  1.30E-09,  avg # of iterations =  9.7

     negative rho (up, down):  4.335E-04 0.000E+00

     total cpu time spent up to now is      668.8 secs

     total energy              =   -1361.95673523 Ry
     estimated scf accuracy    <       0.00000381 Ry

     iteration #  4     ecut=    80.00 Ry     beta= 0.20
     Davidson diagonalization with overlap

---- Real-time Memory Report at c_bands before calling an iterative solver
           314 MiB given to the printing process from OS
             0 MiB allocation reported by mallinfo(arena+hblkhd)
        367111 MiB available memory on the node where the printing process lives
------------------
     ethr =  1.30E-09,  avg # of iterations =  6.1

     negative rho (up, down):  4.334E-04 0.000E+00

     total cpu time spent up to now is      671.2 secs

     total energy              =   -1361.95673521 Ry
     estimated scf accuracy    <       0.00000136 Ry

     iteration #  5     ecut=    80.00 Ry     beta= 0.20
     Davidson diagonalization with overlap

---- Real-time Memory Report at c_bands before calling an iterative solver
           314 MiB given to the printing process from OS
             0 MiB allocation reported by mallinfo(arena+hblkhd)
        367111 MiB available memory on the node where the printing process lives
------------------
     ethr =  1.30E-09,  avg # of iterations =  3.7

     negative rho (up, down):  4.333E-04 0.000E+00

     total cpu time spent up to now is      673.3 secs

     total energy              =   -1361.95673526 Ry
     estimated scf accuracy    <       0.00000058 Ry

     iteration #  6     ecut=    80.00 Ry     beta= 0.20
     Davidson diagonalization with overlap

---- Real-time Memory Report at c_bands before calling an iterative solver
           314 MiB given to the printing process from OS
             0 MiB allocation reported by mallinfo(arena+hblkhd)
        367111 MiB available memory on the node where the printing process lives
------------------
     ethr =  6.63E-10,  avg # of iterations =  6.7

     negative rho (up, down):  4.330E-04 0.000E+00

     total cpu time spent up to now is      676.0 secs

     End of self-consistent calculation

          k = 0.0000 0.0000 0.0000 ( 45065 PWs)   bands (ev):

   -24.6511 -24.4752 -23.7876 -23.6419 -23.6145 -23.4109 -20.2413 -20.1819
   -20.1479 -20.1146 -20.0992 -20.0349 -20.0036 -19.9515 -19.9169 -19.8415
   -19.7981 -19.7829 -19.7697 -19.7345 -19.7179 -19.6219 -19.5610 -19.5407
   -19.2225 -19.1830 -12.6942 -12.5801 -10.3469  -9.9778  -9.4800  -9.3131
    -8.8390  -8.5286  -8.3621  -8.2185  -8.1934  -8.1061  -7.9354  -7.9109
    -7.8408  -7.6160  -7.5033  -7.1349

     occupation numbers 
     1.0000   1.0000   1.0000   1.0000   1.0000   1.0000   1.0000   1.0000
     1.0000   1.0000   1.0000   1.0000   1.0000   1.0000   1.0000   1.0000
     1.0000   1.0000   1.0000   1.0000   1.0000   1.0000   1.0000   1.0000
     1.0000   1.0000   1.0000   1.0000   1.0000   1.0000   1.0000   1.0000
     1.0000   1.0000   1.0000   1.0000   1.0000   1.0000   1.0000   1.0000
     1.0000   1.0000   1.0000   1.0000

          k =-0.0062 0.1431 0.0000 ( 45113 PWs)   bands (ev):

   -24.5867 -24.3905 -23.9189 -23.8020 -23.5586 -23.3438 -20.2240 -20.1799
   -20.1476 -20.1218 -20.0994 -20.0265 -19.9960 -19.9256 -19.9128 -19.8432
   -19.8193 -19.7854 -19.7689 -19.7216 -19.7057 -19.6269 -19.6132 -19.5359
   -19.2872 -19.1817 -12.3151 -12.1878 -10.4506 -10.0931  -9.7999  -9.6578
    -9.2222  -8.9279  -8.4038  -8.2116  -8.1477  -7.9551  -7.8888  -7.7408
    -7.6461  -7.5546  -7.4772  -7.1638

     occupation numbers 
     1.0000   1.0000   1.0000   1.0000   1.0000   1.0000   1.0000   1.0000
     1.0000   1.0000   1.0000   1.0000   1.0000   1.0000   1.0000   1.0000
     1.0000   1.0000   1.0000   1.0000   1.0000   1.0000   1.0000   1.0000
     1.0000   1.0000   1.0000   1.0000   1.0000   1.0000   1.0000   1.0000
     1.0000   1.0000   1.0000   1.0000   1.0000   1.0000   1.0000   1.0000
     1.0000   1.0000   1.0000   1.0000

          k = 0.0124-0.2862 0.0000 ( 45174 PWs)   bands (ev):

   -24.4997 -24.2454 -24.0459 -23.9960 -23.5269 -23.3057 -20.2133 -20.1733
   -20.1500 -20.1210 -20.0968 -20.0121 -19.9907 -19.9095 -19.8975 -19.8440
   -19.8349 -19.7915 -19.7664 -19.7033 -19.7010 -19.6972 -19.6037 -19.5306
   -19.3634 -19.1769 -11.6782 -11.5350 -10.7758 -10.4939 -10.2905 -10.1080
    -9.3075  -9.0524  -8.5091  -8.3002  -8.1169  -7.8592  -7.7902  -7.6055
    -7.5630  -7.5223  -7.2968  -7.2064

     occupation numbers 
     1.0000   1.0000   1.0000   1.0000   1.0000   1.0000   1.0000   1.0000
     1.0000   1.0000   1.0000   1.0000   1.0000   1.0000   1.0000   1.0000
     1.0000   1.0000   1.0000   1.0000   1.0000   1.0000   1.0000   1.0000
     1.0000   1.0000   1.0000   1.0000   1.0000   1.0000   1.0000   1.0000
     1.0000   1.0000   1.0000   1.0000   1.0000   1.0000   1.0000   1.0000
     1.0000   1.0000   1.0000   1.0000

          k = 0.1684-0.0368 0.0000 ( 45086 PWs)   bands (ev):

   -24.5251 -24.3429 -23.7913 -23.6453 -23.6049 -23.4043 -20.2382 -20.1783
   -20.1549 -20.1071 -20.0762 -20.0309 -19.9818 -19.9423 -19.9167 -19.8423
   -19.8121 -19.7732 -19.7581 -19.7224 -19.6924 -19.6149 -19.5385 -19.4673
   -19.1811 -19.1354 -12.5543 -12.4435 -10.5707 -10.2493 -10.1826  -9.9862
    -9.2330  -8.9571  -8.6315  -8.3925  -8.3157  -8.1572  -8.0725  -7.9371
    -7.8476  -7.7222  -7.3558  -7.0066

     occupation numbers 
     1.0000   1.0000   1.0000   1.0000   1.0000   1.0000   1.0000   1.0000
     1.0000   1.0000   1.0000   1.0000   1.0000   1.0000   1.0000   1.0000
     1.0000   1.0000   1.0000   1.0000   1.0000   1.0000   1.0000   1.0000
     1.0000   1.0000   1.0000   1.0000   1.0000   1.0000   1.0000   1.0000
     1.0000   1.0000   1.0000   1.0000   1.0000   1.0000   1.0000   1.0000
     1.0000   1.0000   1.0000   1.0000

          k = 0.1622 0.1063 0.0000 ( 45049 PWs)   bands (ev):

   -24.5020 -24.3117 -23.8376 -23.7027 -23.5852 -23.3806 -20.2401 -20.1755
   -20.1418 -20.1022 -20.0856 -20.0323 -19.9804 -19.9318 -19.9046 -19.8449
   -19.8150 -19.7778 -19.7591 -19.7176 -19.6897 -19.6085 -19.5874 -19.4517
   -19.2437 -19.0965 -12.4167 -12.3112 -10.7032 -10.3210 -10.1280  -9.9515
    -9.3466  -9.1298  -8.6904  -8.4799  -8.3505  -8.1227  -7.9970  -7.9091
    -7.7783  -7.6652  -7.3611  -7.0111

     occupation numbers 
     1.0000   1.0000   1.0000   1.0000   1.0000   1.0000   1.0000   1.0000
     1.0000   1.0000   1.0000   1.0000   1.0000   1.0000   1.0000   1.0000
     1.0000   1.0000   1.0000   1.0000   1.0000   1.0000   1.0000   1.0000
     1.0000   1.0000   1.0000   1.0000   1.0000   1.0000   1.0000   1.0000
     1.0000   1.0000   1.0000   1.0000   1.0000   1.0000   1.0000   1.0000
     1.0000   1.0000   1.0000   1.0000

          k = 0.1808-0.3231 0.0000 ( 45092 PWs)   bands (ev):

   -24.4096 -24.1603 -23.9688 -23.9074 -23.5554 -23.3391 -20.2240 -20.1738
   -20.1308 -20.1122 -20.0723 -20.0258 -19.9756 -19.9034 -19.8847 -19.8389
   -19.8278 -19.7769 -19.7599 -19.7084 -19.7074 -19.6873 -19.5752 -19.4300
   -19.3682 -19.0743 -11.7795 -11.6441 -11.0492 -10.7638 -10.2207 -10.0154
    -9.7006  -9.4914  -8.9175  -8.7049  -8.2831  -8.0653  -7.9996  -7.8081
    -7.5878  -7.3946  -7.3544  -7.0240

     occupation numbers 
     1.0000   1.0000   1.0000   1.0000   1.0000   1.0000   1.0000   1.0000
     1.0000   1.0000   1.0000   1.0000   1.0000   1.0000   1.0000   1.0000
     1.0000   1.0000   1.0000   1.0000   1.0000   1.0000   1.0000   1.0000
     1.0000   1.0000   1.0000   1.0000   1.0000   1.0000   1.0000   1.0000
     1.0000   1.0000   1.0000   1.0000   1.0000   1.0000   1.0000   1.0000
     1.0000   1.0000   1.0000   1.0000

          k = 0.1746-0.1799 0.0000 ( 45085 PWs)   bands (ev):

   -24.4432 -24.2242 -23.9218 -23.8279 -23.5662 -23.3513 -20.2199 -20.1690
   -20.1529 -20.1146 -20.0715 -20.0221 -19.9769 -19.9145 -19.9069 -19.8388
   -19.8208 -19.7751 -19.7602 -19.7154 -19.6859 -19.6577 -19.5887 -19.4346
   -19.3227 -19.0877 -12.0534 -11.9021 -10.7863 -10.5713 -10.2600  -9.9967
    -9.6405  -9.3890  -8.8309  -8.6325  -8.2750  -8.0969  -8.0118  -7.7913
    -7.6657  -7.4847  -7.3677  -7.0193

     occupation numbers 
     1.0000   1.0000   1.0000   1.0000   1.0000   1.0000   1.0000   1.0000
     1.0000   1.0000   1.0000   1.0000   1.0000   1.0000   1.0000   1.0000
     1.0000   1.0000   1.0000   1.0000   1.0000   1.0000   1.0000   1.0000
     1.0000   1.0000   1.0000   1.0000   1.0000   1.0000   1.0000   1.0000
     1.0000   1.0000   1.0000   1.0000   1.0000   1.0000   1.0000   1.0000
     1.0000   1.0000   1.0000   1.0000

          k = 0.3368-0.0737 0.0000 ( 45074 PWs)   bands (ev):

   -24.2370 -24.0313 -23.7861 -23.6371 -23.6237 -23.4501 -20.2067 -20.1836
   -20.1411 -20.1109 -20.0286 -20.0147 -19.9538 -19.9064 -19.8736 -19.8335
   -19.8044 -19.7894 -19.7194 -19.7037 -19.6554 -19.5605 -19.5455 -19.3024
   -19.2140 -18.9645 -12.5030 -12.3656 -11.5472 -11.2944 -10.7126 -10.4597
    -9.6254  -9.4043  -8.9067  -8.6304  -8.6027  -8.4357  -8.0945  -7.8175
    -7.7675  -7.6449  -7.4260  -7.0876

     occupation numbers 
     1.0000   1.0000   1.0000   1.0000   1.0000   1.0000   1.0000   1.0000
     1.0000   1.0000   1.0000   1.0000   1.0000   1.0000   1.0000   1.0000
     1.0000   1.0000   1.0000   1.0000   1.0000   1.0000   1.0000   1.0000
     1.0000   1.0000   1.0000   1.0000   1.0000   1.0000   1.0000   1.0000
     1.0000   1.0000   1.0000   1.0000   1.0000   1.0000   1.0000   1.0000
     1.0000   1.0000   1.0000   1.0000

          k = 0.3306 0.0695 0.0000 ( 45046 PWs)   bands (ev):

   -24.2439 -24.0431 -23.7905 -23.6263 -23.6118 -23.4479 -20.2237 -20.1847
   -20.1311 -20.0903 -20.0344 -20.0164 -19.9548 -19.9075 -19.8754 -19.8333
   -19.8079 -19.7983 -19.7201 -19.6885 -19.6664 -19.5685 -19.5270 -19.3185
   -19.1781 -18.9773 -12.5369 -12.4266 -11.5980 -11.2527 -10.6645 -10.4908
    -9.5933  -9.4061  -8.8736  -8.5910  -8.5118  -8.3595  -8.1716  -7.8385
    -7.8086  -7.6776  -7.4162  -7.0883

     occupation numbers 
     1.0000   1.0000   1.0000   1.0000   1.0000   1.0000   1.0000   1.0000
     1.0000   1.0000   1.0000   1.0000   1.0000   1.0000   1.0000   1.0000
     1.0000   1.0000   1.0000   1.0000   1.0000   1.0000   1.0000   1.0000
     1.0000   1.0000   1.0000   1.0000   1.0000   1.0000   1.0000   1.0000
     1.0000   1.0000   1.0000   1.0000   1.0000   1.0000   1.0000   1.0000
     1.0000   1.0000   1.0000   1.0000

          k = 0.3492-0.3599 0.0000 ( 45085 PWs)   bands (ev):

   -24.1917 -23.9443 -23.8382 -23.7417 -23.6210 -23.4347 -20.2120 -20.1825
   -20.1291 -20.0743 -20.0350 -20.0082 -19.9552 -19.8814 -19.8351 -19.8334
   -19.8111 -19.7987 -19.7179 -19.6918 -19.6799 -19.6668 -19.5206 -19.3288
   -19.2718 -18.9211 -12.2422 -12.0953 -11.8336 -11.5330 -10.3899 -10.2171
    -9.7496  -9.6133  -9.0461  -8.7983  -8.6965  -8.4581  -8.1558  -7.8552
    -7.6852  -7.4692  -7.4037  -7.1030

     occupation numbers 
     1.0000   1.0000   1.0000   1.0000   1.0000   1.0000   1.0000   1.0000
     1.0000   1.0000   1.0000   1.0000   1.0000   1.0000   1.0000   1.0000
     1.0000   1.0000   1.0000   1.0000   1.0000   1.0000   1.0000   1.0000
     1.0000   1.0000   1.0000   1.0000   1.0000   1.0000   1.0000   1.0000
     1.0000   1.0000   1.0000   1.0000   1.0000   1.0000   1.0000   1.0000
     1.0000   1.0000   1.0000   1.0000

          k = 0.3430-0.2168 0.0000 ( 45092 PWs)   bands (ev):

   -24.1832 -23.9173 -23.8371 -23.7681 -23.6310 -23.4367 -20.1993 -20.1746
   -20.1375 -20.1020 -20.0283 -20.0032 -19.9533 -19.8831 -19.8361 -19.8332
   -19.8027 -19.7916 -19.7193 -19.6981 -19.6938 -19.6578 -19.4945 -19.3781
   -19.2623 -18.9157 -12.2145 -11.9805 -11.7801 -11.6147 -10.3717 -10.1340
    -9.9115  -9.7231  -9.0673  -8.8661  -8.6331  -8.3714  -8.1925  -7.9208
    -7.6012  -7.4666  -7.4016  -7.1101

     occupation numbers 
     1.0000   1.0000   1.0000   1.0000   1.0000   1.0000   1.0000   1.0000
     1.0000   1.0000   1.0000   1.0000   1.0000   1.0000   1.0000   1.0000
     1.0000   1.0000   1.0000   1.0000   1.0000   1.0000   1.0000   1.0000
     1.0000   1.0000   1.0000   1.0000   1.0000   1.0000   1.0000   1.0000
     1.0000   1.0000   1.0000   1.0000   1.0000   1.0000   1.0000   1.0000
     1.0000   1.0000   1.0000   1.0000

          k =-0.5052 0.1105 0.0000 ( 45134 PWs)   bands (ev):

   -24.0484 -23.8070 -23.7928 -23.6656 -23.5904 -23.5783 -20.2022 -20.1681
   -20.1460 -20.1005 -20.0178 -19.9916 -19.9438 -19.8848 -19.8441 -19.8144
   -19.7907 -19.7592 -19.7017 -19.6991 -19.6198 -19.6108 -19.4817 -19.3004
   -19.2127 -18.8722 -12.6219 -12.4280 -12.1295 -11.9140 -10.5238 -10.3076
    -9.9246  -9.6908  -9.0702  -8.8457  -8.4250  -8.2747  -8.1223  -7.8421
    -7.8039  -7.5663  -7.5189  -7.3129

     occupation numbers 
     1.0000   1.0000   1.0000   1.0000   1.0000   1.0000   1.0000   1.0000
     1.0000   1.0000   1.0000   1.0000   1.0000   1.0000   1.0000   1.0000
     1.0000   1.0000   1.0000   1.0000   1.0000   1.0000   1.0000   1.0000
     1.0000   1.0000   1.0000   1.0000   1.0000   1.0000   1.0000   1.0000
     1.0000   1.0000   1.0000   1.0000   1.0000   1.0000   1.0000   1.0000
     1.0000   1.0000   1.0000   1.0000

          k =-0.5114 0.2536 0.0000 ( 45094 PWs)   bands (ev):

   -24.0417 -23.8090 -23.7969 -23.6564 -23.6210 -23.5573 -20.2015 -20.1874
   -20.1396 -20.0718 -20.0287 -19.9804 -19.9323 -19.8782 -19.8435 -19.8137
   -19.8038 -19.7775 -19.7159 -19.6694 -19.6295 -19.6270 -19.4815 -19.2985
   -19.2137 -18.8716 -12.6117 -12.4121 -12.1677 -11.9384 -10.4028 -10.2203
   -10.0576  -9.8514  -8.8493  -8.6784  -8.5962  -8.3251  -8.0583  -7.9244
    -7.7984  -7.5691  -7.5363  -7.3126

     occupation numbers 
     1.0000   1.0000   1.0000   1.0000   1.0000   1.0000   1.0000   1.0000
     1.0000   1.0000   1.0000   1.0000   1.0000   1.0000   1.0000   1.0000
     1.0000   1.0000   1.0000   1.0000   1.0000   1.0000   1.0000   1.0000
     1.0000   1.0000   1.0000   1.0000   1.0000   1.0000   1.0000   1.0000
     1.0000   1.0000   1.0000   1.0000   1.0000   1.0000   1.0000   1.0000
     1.0000   1.0000   1.0000   1.0000

          k =-0.4929-0.1758 0.0000 ( 45008 PWs)   bands (ev):

   -24.0344 -23.8243 -23.7851 -23.6490 -23.6412 -23.5483 -20.2082 -20.1924
   -20.1363 -20.0363 -20.0311 -19.9872 -19.9176 -19.8749 -19.8397 -19.8252
   -19.8140 -19.7857 -19.7093 -19.6620 -19.6512 -19.6385 -19.4817 -19.2905
   -19.2152 -18.8719 -12.5976 -12.3949 -12.2082 -11.9655 -10.4786 -10.2836
    -9.8185  -9.7096  -8.9408  -8.7052  -8.6401  -8.4083  -8.1191  -7.8838
    -7.7777  -7.5442  -7.5199  -7.3048

     occupation numbers 
     1.0000   1.0000   1.0000   1.0000   1.0000   1.0000   1.0000   1.0000
     1.0000   1.0000   1.0000   1.0000   1.0000   1.0000   1.0000   1.0000
     1.0000   1.0000   1.0000   1.0000   1.0000   1.0000   1.0000   1.0000
     1.0000   1.0000   1.0000   1.0000   1.0000   1.0000   1.0000   1.0000
     1.0000   1.0000   1.0000   1.0000   1.0000   1.0000   1.0000   1.0000
     1.0000   1.0000   1.0000   1.0000

     highest occupied level (ev):    -7.0066

!    total energy              =   -1361.95673545 Ry
     estimated scf accuracy    <          3.6E-09 Ry

     convergence has been achieved in   6 iterations

     negative rho (up, down):  4.330E-04 0.000E+00

     Forces acting on atoms (cartesian axes, Ry/au):

     atom    1 type  1   force =    -0.01890044   -0.01744859    0.00736180
     atom    2 type  1   force =     0.01118321    0.04335329    0.01839590
     atom    3 type  2   force =    -0.02186142    0.03160981   -0.04747250
     atom    4 type  2   force =     0.04785749   -0.04954061    0.00338027
     atom    5 type  2   force =    -0.01839971   -0.00913537    0.01780029
     atom    6 type  1   force =    -0.00449390   -0.03865409   -0.00429578
     atom    7 type  1   force =    -0.01325127    0.04531483    0.00404765
     atom    8 type  2   force =    -0.01361126    0.01556145   -0.01843451
     atom    9 type  2   force =     0.03025592    0.00869044   -0.00163937
     atom   10 type  2   force =     0.00122138   -0.02975116    0.02085624
     The non-local contrib.  to forces
     atom    1 type  1   force =     0.26483033    0.22260150   -0.02252527
     atom    2 type  1   force =     0.27093899   -0.03986466   -0.17454945
     atom    3 type  2   force =    -0.09716376    0.47917396   -1.11402446
     atom    4 type  2   force =     1.09396610    0.14514404   -0.16409502
     atom    5 type  2   force =    -0.00501965   -0.42644135    0.98587849
     atom    6 type  1   force =     0.22497435    0.16540360    0.08437989
     atom    7 type  1   force =     0.17935365   -0.10606450   -0.07061242
     atom    8 type  2   force =    -0.13030904    0.44371992   -0.97831157
     atom    9 type  2   force =     1.11092756    0.13739107    0.01294149
     atom   10 type  2   force =    -0.07521591   -0.47463872    1.01027026
     The ionic contribution  to forces
     atom    1 type  1   force =     2.00403135   11.63283223  -87.26120124
     atom    2 type  1   force =     3.37156731   -9.51088536 -133.89709476
     atom    3 type  2   force =    -0.01350898   -1.63480068  -14.51084594
     atom    4 type  2   force =    -4.84848731   -1.98437680  -48.31127123
     atom    5 type  2   force =    -0.55455568    2.34020432  -85.85714603
     atom    6 type  1   force =     2.24108415   10.24618522  132.35885783
     atom    7 type  1   force =     2.46809307  -10.26466214   86.48759559
     atom    8 type  2   force =     0.18942972   -2.23455573   85.72134404
     atom    9 type  2   force =    -5.10896049    0.00844818   49.51422534
     atom   10 type  2   force =     0.25130685    1.40161076   15.75553640
     The local contribution  to forces
     atom    1 type  1   force =    -2.28604081  -11.87207377   87.29096223
     atom    2 type  1   force =    -3.62841447    9.59766912  134.08904509
     atom    3 type  2   force =     0.08769466    1.19180508   15.56783672
     atom    4 type  2   force =     3.81261109    1.79049739   48.47738584
     atom    5 type  2   force =     0.54084190   -1.92682439   84.89721410
     atom    6 type  1   force =    -2.46924114  -10.45186864 -132.44716098
     atom    7 type  1   force =    -2.66051990   10.41893444  -86.41354032
     atom    8 type  2   force =    -0.07412037    1.81055428  -84.76957137
     atom    9 type  2   force =     4.03853968   -0.13581422  -49.52876184
     atom   10 type  2   force =    -0.17562610   -0.96123208  -16.73656506
     The core correction contribution to forces
     atom    1 type  1   force =    -0.00176818   -0.00078738    0.00020817
     atom    2 type  1   force =    -0.00286706   -0.00355064    0.00113247
     atom    3 type  2   force =     0.00113754   -0.00457680    0.00957404
     atom    4 type  2   force =    -0.01023130   -0.00084649    0.00142538
     atom    5 type  2   force =     0.00032475    0.00392653   -0.00814117
     atom    6 type  1   force =    -0.00130205    0.00160296   -0.00047898
     atom    7 type  1   force =    -0.00018488   -0.00287994    0.00050179
     atom    8 type  2   force =     0.00138102   -0.00413054    0.00807907
     atom    9 type  2   force =    -0.01023016   -0.00133434   -0.00008141
     atom   10 type  2   force =     0.00075452    0.00451809   -0.00838617
     The Hubbard contrib.    to forces
     atom    1 type  1   force =     0.00000000    0.00000000    0.00000000
     atom    2 type  1   force =     0.00000000    0.00000000    0.00000000
     atom    3 type  2   force =     0.00000000    0.00000000    0.00000000
     atom    4 type  2   force =     0.00000000    0.00000000    0.00000000
     atom    5 type  2   force =     0.00000000    0.00000000    0.00000000
     atom    6 type  1   force =     0.00000000    0.00000000    0.00000000
     atom    7 type  1   force =     0.00000000    0.00000000    0.00000000
     atom    8 type  2   force =     0.00000000    0.00000000    0.00000000
     atom    9 type  2   force =     0.00000000    0.00000000    0.00000000
     atom   10 type  2   force =     0.00000000    0.00000000    0.00000000
     The SCF correction term to forces
     atom    1 type  1   force =     0.00004810   -0.00002236   -0.00008475
     atom    2 type  1   force =    -0.00004034   -0.00001637   -0.00014011
     atom    3 type  2   force =    -0.00001963    0.00000706   -0.00001552
     atom    4 type  2   force =     0.00000015    0.00004006   -0.00006737
     atom    5 type  2   force =     0.00001021   -0.00000168   -0.00000777
     atom    6 type  1   force =    -0.00000798    0.00002157    0.00010380
     atom    7 type  1   force =     0.00000802   -0.00001423    0.00010035
     atom    8 type  2   force =     0.00000863   -0.00002767    0.00002267
     atom    9 type  2   force =    -0.00001944   -0.00000144    0.00003438
     atom   10 type  2   force =     0.00000327   -0.00001042   -0.00000185

     Total force =     0.138366     Total SCF correction =     0.000251


     Computing stress (Cartesian axis) and pressure


     negative rho (up, down):  4.330E-04 0.000E+00
          total   stress  (Ry/bohr**3)                   (kbar)     P=      -26.99
  -0.00023304   0.00001560  -0.00001341          -34.28        2.29       -1.97
   0.00001560  -0.00025723   0.00001857            2.29      -37.84        2.73
  -0.00001341   0.00001857  -0.00006005           -1.97        2.73       -8.83

     kinetic stress (kbar)   4705.20      5.13     -2.24
                                5.13   4704.65     -1.52
                               -2.24     -1.52   4772.91

     local   stress (kbar)-496848.34   -118.20     14.74
                             -118.20-493387.06   -602.74
                               14.74   -602.74 494400.63

     nonloc. stress (kbar)    -43.48     -1.43     -0.40
                               -1.43    -62.29     15.40
                               -0.40     15.40     49.87

     hartree stress (kbar) 250562.00     57.29     -7.14
                               57.29 248882.98    293.89
                               -7.14    293.89-241308.60

     exc-cor stress (kbar)    603.00     -0.02      0.05
                               -0.02    603.85     -0.87
                                0.05     -0.87    594.54

     corecor stress (kbar)  -2383.53     -0.03      0.01
                               -0.03  -2383.66      0.12
                                0.01      0.12  -2383.34

     ewald   stress (kbar) 243370.88     59.56     -6.99
                               59.56 241603.68    298.46
                               -6.99    298.46-256134.83

     hubbard stress (kbar)      0.00      0.00      0.00
                                0.00      0.00      0.00
                                0.00      0.00      0.00

     DFT-D   stress (kbar)      0.00      0.00      0.00
                                0.00      0.00      0.00
                                0.00      0.00      0.00

     XDM     stress (kbar)      0.00      0.00      0.00
                                0.00      0.00      0.00
                                0.00      0.00      0.00

     dft-nl  stress (kbar)      0.00      0.00      0.00
                                0.00      0.00      0.00
                                0.00      0.00      0.00

     TS-vdW  stress (kbar)      0.00      0.00      0.00
                                0.00      0.00      0.00
                                0.00      0.00      0.00


                                0.00      0.00      0.00
                                0.00      0.00      0.00


                                0.00      0.00      0.00


     Entering Dynamics:    iteration =    11
                           time      =   0.0106 pico-seconds


     Canonical sampling velocity rescaling

ATOMIC_POSITIONS (crystal)
Ga            0.8325187768        0.7178921685        0.4262170982
Ga            0.5101184980        0.3006252941        0.3994310657
O             0.4100033215        0.5578151644        0.4495152598
O             0.4271770955        0.0167065314        0.4148617131
O             0.9477941471        0.4531169112        0.3785816015
Ga            0.8226342039        0.7219060762        0.5997273898
Ga            0.5163728593        0.3004198692        0.5736951374
O             0.3880984491        0.5697027634        0.6209676721
O             0.4526293796        0.0058142478        0.5860218882
O             0.9339437919        0.4582558347        0.5529004239


     kinetic energy (Ekin) =           0.03428032 Ry
     temperature           =         400.92107779 K 
     Ekin + Etot (const)   =       -1361.92245513 Ry
     Ions kinetic stress =            0.90 (kbar)
                                      1.10           0.14           0.06
                                      0.14           0.25          -0.12
                                      0.06          -0.12           1.35



     Linear momentum :    0.0000000000   -0.0000000000   -0.0000000000

     Writing config-only to output data dir ./tmp/Ga2O3-BL-001-300K.save/

     second order wave-functions extrapolation
     second order charge density extrapolation

     negative rho (up, down):  4.331E-04 0.000E+00

     total cpu time spent up to now is      684.8 secs

     Self-consistent Calculation

     iteration #  1     ecut=    80.00 Ry     beta= 0.20
     Davidson diagonalization with overlap

---- Real-time Memory Report at c_bands before calling an iterative solver
           314 MiB given to the printing process from OS
             0 MiB allocation reported by mallinfo(arena+hblkhd)
        367113 MiB available memory on the node where the printing process lives
------------------
     ethr =  1.00E-06,  avg # of iterations =  2.0

     Threshold (ethr) on eigenvalues was too large:
     Diagonalizing with lowered threshold

     Davidson diagonalization with overlap

---- Real-time Memory Report at c_bands before calling an iterative solver
           314 MiB given to the printing process from OS
             0 MiB allocation reported by mallinfo(arena+hblkhd)
        367108 MiB available memory on the node where the printing process lives
------------------
     ethr =  1.16E-10,  avg # of iterations = 16.4

     negative rho (up, down):  4.329E-04 0.000E+00

     total cpu time spent up to now is      692.8 secs

     total energy              =   -1361.95842800 Ry
     estimated scf accuracy    <       0.00000028 Ry

     iteration #  2     ecut=    80.00 Ry     beta= 0.20
     Davidson diagonalization with overlap

---- Real-time Memory Report at c_bands before calling an iterative solver
           314 MiB given to the printing process from OS
             0 MiB allocation reported by mallinfo(arena+hblkhd)
        367116 MiB available memory on the node where the printing process lives
------------------
     ethr =  3.18E-10,  avg # of iterations =  6.8

     negative rho (up, down):  4.327E-04 0.000E+00

     total cpu time spent up to now is      695.2 secs

     total energy              =   -1361.95842801 Ry
     estimated scf accuracy    <       0.00000005 Ry

     iteration #  3     ecut=    80.00 Ry     beta= 0.20
     Davidson diagonalization with overlap

---- Real-time Memory Report at c_bands before calling an iterative solver
           314 MiB given to the printing process from OS
             0 MiB allocation reported by mallinfo(arena+hblkhd)
        367119 MiB available memory on the node where the printing process lives
------------------
     ethr =  5.52E-11,  avg # of iterations = 10.2

     negative rho (up, down):  4.326E-04 0.000E+00

     total cpu time spent up to now is      698.8 secs

     total energy              =   -1361.95842805 Ry
     estimated scf accuracy    <       0.00000010 Ry

     iteration #  4     ecut=    80.00 Ry     beta= 0.20
     Davidson diagonalization with overlap

---- Real-time Memory Report at c_bands before calling an iterative solver
           314 MiB given to the printing process from OS
             0 MiB allocation reported by mallinfo(arena+hblkhd)
        367117 MiB available memory on the node where the printing process lives
------------------
     ethr =  5.52E-11,  avg # of iterations =  7.8

     negative rho (up, down):  4.321E-04 0.000E+00

     total cpu time spent up to now is      701.7 secs

     End of self-consistent calculation

          k = 0.0000 0.0000 0.0000 ( 45065 PWs)   bands (ev):

   -24.6614 -24.4667 -23.7878 -23.6313 -23.6065 -23.3830 -20.2260 -20.1653
   -20.1298 -20.0982 -20.0815 -20.0158 -19.9827 -19.9122 -19.8965 -19.7961
   -19.7548 -19.7378 -19.7240 -19.6837 -19.6710 -19.5724 -19.5372 -19.5156
   -19.1671 -19.1268 -12.6924 -12.5673 -10.3332  -9.9349  -9.4866  -9.3022
    -8.8230  -8.4818  -8.3560  -8.2069  -8.1808  -8.0990  -7.9110  -7.8883
    -7.8168  -7.5697  -7.4865  -7.1057

     occupation numbers 
     1.0000   1.0000   1.0000   1.0000   1.0000   1.0000   1.0000   1.0000
     1.0000   1.0000   1.0000   1.0000   1.0000   1.0000   1.0000   1.0000
     1.0000   1.0000   1.0000   1.0000   1.0000   1.0000   1.0000   1.0000
     1.0000   1.0000   1.0000   1.0000   1.0000   1.0000   1.0000   1.0000
     1.0000   1.0000   1.0000   1.0000   1.0000   1.0000   1.0000   1.0000
     1.0000   1.0000   1.0000   1.0000

          k =-0.0062 0.1431 0.0000 ( 45113 PWs)   bands (ev):

   -24.5986 -24.3817 -23.9148 -23.7893 -23.5532 -23.3185 -20.2082 -20.1630
   -20.1300 -20.1046 -20.0819 -20.0074 -19.9754 -19.8926 -19.8856 -19.7982
   -19.7755 -19.7395 -19.7233 -19.6726 -19.6581 -19.6044 -19.5638 -19.5102
   -19.2335 -19.1245 -12.3098 -12.1711 -10.4398 -10.0517  -9.7927  -9.6392
    -9.2300  -8.9084  -8.3874  -8.1835  -8.1366  -7.9332  -7.8787  -7.7202
    -7.6162  -7.5245  -7.4481  -7.1359

     occupation numbers 
     1.0000   1.0000   1.0000   1.0000   1.0000   1.0000   1.0000   1.0000
     1.0000   1.0000   1.0000   1.0000   1.0000   1.0000   1.0000   1.0000
     1.0000   1.0000   1.0000   1.0000   1.0000   1.0000   1.0000   1.0000
     1.0000   1.0000   1.0000   1.0000   1.0000   1.0000   1.0000   1.0000
     1.0000   1.0000   1.0000   1.0000   1.0000   1.0000   1.0000   1.0000
     1.0000   1.0000   1.0000   1.0000

          k = 0.0124-0.2862 0.0000 ( 45174 PWs)   bands (ev):

   -24.5153 -24.2366 -24.0375 -23.9830 -23.5223 -23.2810 -20.1971 -20.1557
   -20.1332 -20.1034 -20.0791 -19.9931 -19.9704 -19.8897 -19.8565 -19.8002
   -19.7904 -19.7452 -19.7206 -19.6793 -19.6555 -19.6493 -19.5544 -19.5048
   -19.3105 -19.1194 -11.6617 -11.5098 -10.7799 -10.4664 -10.2780 -10.0807
    -9.3224  -9.0462  -8.4871  -8.2588  -8.1113  -7.8310  -7.7722  -7.5889
    -7.5253  -7.5098  -7.2646  -7.1825

     occupation numbers 
     1.0000   1.0000   1.0000   1.0000   1.0000   1.0000   1.0000   1.0000
     1.0000   1.0000   1.0000   1.0000   1.0000   1.0000   1.0000   1.0000
     1.0000   1.0000   1.0000   1.0000   1.0000   1.0000   1.0000   1.0000
     1.0000   1.0000   1.0000   1.0000   1.0000   1.0000   1.0000   1.0000
     1.0000   1.0000   1.0000   1.0000   1.0000   1.0000   1.0000   1.0000
     1.0000   1.0000   1.0000   1.0000

          k = 0.1684-0.0368 0.0000 ( 45086 PWs)   bands (ev):

   -24.5354 -24.3337 -23.7907 -23.6336 -23.5971 -23.3774 -20.2227 -20.1614
   -20.1375 -20.0900 -20.0583 -20.0117 -19.9612 -19.9023 -19.8963 -19.7979
   -19.7676 -19.7265 -19.7126 -19.6761 -19.6431 -19.5652 -19.5159 -19.4418
   -19.1267 -19.0797 -12.5546 -12.4331 -10.5577 -10.2247 -10.1719  -9.9712
    -9.2233  -8.9210  -8.6236  -8.3693  -8.3056  -8.1328  -8.0601  -7.9155
    -7.8209  -7.6777  -7.3386  -6.9682

     occupation numbers 
     1.0000   1.0000   1.0000   1.0000   1.0000   1.0000   1.0000   1.0000
     1.0000   1.0000   1.0000   1.0000   1.0000   1.0000   1.0000   1.0000
     1.0000   1.0000   1.0000   1.0000   1.0000   1.0000   1.0000   1.0000
     1.0000   1.0000   1.0000   1.0000   1.0000   1.0000   1.0000   1.0000
     1.0000   1.0000   1.0000   1.0000   1.0000   1.0000   1.0000   1.0000
     1.0000   1.0000   1.0000   1.0000

          k = 0.1622 0.1063 0.0000 ( 45049 PWs)   bands (ev):

   -24.5129 -24.3023 -23.8351 -23.6904 -23.5787 -23.3547 -20.2242 -20.1585
   -20.1247 -20.0849 -20.0676 -20.0130 -19.9600 -19.8916 -19.8840 -19.8011
   -19.7703 -19.7316 -19.7136 -19.6705 -19.6403 -19.5643 -19.5590 -19.4275
   -19.1897 -19.0402 -12.4153 -12.2998 -10.6968 -10.2842 -10.1282  -9.9333
    -9.3376  -9.1005  -8.6825  -8.4554  -8.3347  -8.0882  -7.9852  -7.8938
    -7.7516  -7.6233  -7.3440  -6.9732

     occupation numbers 
     1.0000   1.0000   1.0000   1.0000   1.0000   1.0000   1.0000   1.0000
     1.0000   1.0000   1.0000   1.0000   1.0000   1.0000   1.0000   1.0000
     1.0000   1.0000   1.0000   1.0000   1.0000   1.0000   1.0000   1.0000
     1.0000   1.0000   1.0000   1.0000   1.0000   1.0000   1.0000   1.0000
     1.0000   1.0000   1.0000   1.0000   1.0000   1.0000   1.0000   1.0000
     1.0000   1.0000   1.0000   1.0000

          k = 0.1808-0.3231 0.0000 ( 45092 PWs)   bands (ev):

   -24.4241 -24.1501 -23.9615 -23.8951 -23.5502 -23.3142 -20.2079 -20.1564
   -20.1135 -20.0951 -20.0545 -20.0067 -19.9554 -19.8646 -19.8621 -19.7954
   -19.7830 -19.7312 -19.7146 -19.6861 -19.6607 -19.6382 -19.5259 -19.4048
   -19.3152 -19.0172 -11.7677 -11.6223 -11.0498 -10.7384 -10.2199  -9.9932
    -9.7046  -9.4784  -8.9032  -8.6713  -8.2674  -8.0446  -7.9626  -7.7695
    -7.5779  -7.3725  -7.3304  -6.9870

     occupation numbers 
     1.0000   1.0000   1.0000   1.0000   1.0000   1.0000   1.0000   1.0000
     1.0000   1.0000   1.0000   1.0000   1.0000   1.0000   1.0000   1.0000
     1.0000   1.0000   1.0000   1.0000   1.0000   1.0000   1.0000   1.0000
     1.0000   1.0000   1.0000   1.0000   1.0000   1.0000   1.0000   1.0000
     1.0000   1.0000   1.0000   1.0000   1.0000   1.0000   1.0000   1.0000
     1.0000   1.0000   1.0000   1.0000

          k = 0.1746-0.1799 0.0000 ( 45085 PWs)   bands (ev):

   -24.4560 -24.2144 -23.9165 -23.8153 -23.5607 -23.3262 -20.2041 -20.1512
   -20.1362 -20.0975 -20.0535 -20.0031 -19.9564 -19.8871 -19.8737 -19.7944
   -19.7764 -19.7292 -19.7148 -19.6683 -19.6373 -19.6355 -19.5389 -19.4088
   -19.2700 -19.0310 -12.0483 -11.8841 -10.7749 -10.5412 -10.2659  -9.9759
    -9.6412  -9.3714  -8.8190  -8.6019  -8.2588  -8.0750  -7.9806  -7.7521
    -7.6524  -7.4556  -7.3514  -6.9818

     occupation numbers 
     1.0000   1.0000   1.0000   1.0000   1.0000   1.0000   1.0000   1.0000
     1.0000   1.0000   1.0000   1.0000   1.0000   1.0000   1.0000   1.0000
     1.0000   1.0000   1.0000   1.0000   1.0000   1.0000   1.0000   1.0000
     1.0000   1.0000   1.0000   1.0000   1.0000   1.0000   1.0000   1.0000
     1.0000   1.0000   1.0000   1.0000   1.0000   1.0000   1.0000   1.0000
     1.0000   1.0000   1.0000   1.0000

          k = 0.3368-0.0737 0.0000 ( 45074 PWs)   bands (ev):

   -24.2478 -24.0205 -23.7846 -23.6244 -23.6144 -23.4252 -20.1909 -20.1661
   -20.1239 -20.0932 -20.0107 -19.9953 -19.9343 -19.8656 -19.8528 -19.7889
   -19.7583 -19.7426 -19.6738 -19.6582 -19.6072 -19.5233 -19.5094 -19.2784
   -19.1616 -18.9107 -12.5110 -12.3600 -11.5374 -11.2626 -10.7102 -10.4362
    -9.6187  -9.3762  -8.8938  -8.6082  -8.5748  -8.4124  -8.0829  -7.7903
    -7.7412  -7.6162  -7.4079  -7.0407

     occupation numbers 
     1.0000   1.0000   1.0000   1.0000   1.0000   1.0000   1.0000   1.0000
     1.0000   1.0000   1.0000   1.0000   1.0000   1.0000   1.0000   1.0000
     1.0000   1.0000   1.0000   1.0000   1.0000   1.0000   1.0000   1.0000
     1.0000   1.0000   1.0000   1.0000   1.0000   1.0000   1.0000   1.0000
     1.0000   1.0000   1.0000   1.0000   1.0000   1.0000   1.0000   1.0000
     1.0000   1.0000   1.0000   1.0000

          k = 0.3306 0.0695 0.0000 ( 45046 PWs)   bands (ev):

   -24.2545 -24.0322 -23.7888 -23.6138 -23.6028 -23.4229 -20.2078 -20.1672
   -20.1138 -20.0727 -20.0161 -19.9970 -19.9352 -19.8666 -19.8540 -19.7889
   -19.7628 -19.7517 -19.6734 -19.6435 -19.6178 -19.5178 -19.5045 -19.2955
   -19.1251 -18.9234 -12.5439 -12.4226 -11.5949 -11.2203 -10.6568 -10.4682
    -9.5780  -9.3723  -8.8638  -8.5598  -8.5020  -8.3401  -8.1562  -7.8213
    -7.7702  -7.6506  -7.3977  -7.0415

     occupation numbers 
     1.0000   1.0000   1.0000   1.0000   1.0000   1.0000   1.0000   1.0000
     1.0000   1.0000   1.0000   1.0000   1.0000   1.0000   1.0000   1.0000
     1.0000   1.0000   1.0000   1.0000   1.0000   1.0000   1.0000   1.0000
     1.0000   1.0000   1.0000   1.0000   1.0000   1.0000   1.0000   1.0000
     1.0000   1.0000   1.0000   1.0000   1.0000   1.0000   1.0000   1.0000
     1.0000   1.0000   1.0000   1.0000

          k = 0.3492-0.3599 0.0000 ( 45085 PWs)   bands (ev):

   -24.2047 -23.9319 -23.8332 -23.7294 -23.6140 -23.4104 -20.1958 -20.1652
   -20.1118 -20.0565 -20.0165 -19.9891 -19.9359 -19.8401 -19.8134 -19.7890
   -19.7668 -19.7524 -19.6709 -19.6588 -19.6468 -19.6185 -19.4698 -19.2763
   -19.2483 -18.8663 -12.2441 -12.0837 -11.8339 -11.5083 -10.3832 -10.1944
    -9.7410  -9.5909  -9.0357  -8.7685  -8.6789  -8.4208  -8.1442  -7.8186
    -7.6749  -7.4420  -7.3816  -7.0561

     occupation numbers 
     1.0000   1.0000   1.0000   1.0000   1.0000   1.0000   1.0000   1.0000
     1.0000   1.0000   1.0000   1.0000   1.0000   1.0000   1.0000   1.0000
     1.0000   1.0000   1.0000   1.0000   1.0000   1.0000   1.0000   1.0000
     1.0000   1.0000   1.0000   1.0000   1.0000   1.0000   1.0000   1.0000
     1.0000   1.0000   1.0000   1.0000   1.0000   1.0000   1.0000   1.0000
     1.0000   1.0000   1.0000   1.0000

          k = 0.3430-0.2168 0.0000 ( 45092 PWs)   bands (ev):

   -24.1965 -23.9050 -23.8318 -23.7557 -23.6239 -23.4125 -20.1829 -20.1575
   -20.1203 -20.0842 -20.0097 -19.9845 -19.9342 -19.8422 -19.8131 -19.7914
   -19.7568 -19.7451 -19.6734 -19.6714 -19.6529 -19.6099 -19.4434 -19.3262
   -19.2381 -18.8610 -12.2198 -11.9650 -11.7718 -11.5922 -10.3725 -10.1131
    -9.9065  -9.7018  -9.0542  -8.8346  -8.6165  -8.3313  -8.1777  -7.8879
    -7.5895  -7.4464  -7.3734  -7.0627

     occupation numbers 
     1.0000   1.0000   1.0000   1.0000   1.0000   1.0000   1.0000   1.0000
     1.0000   1.0000   1.0000   1.0000   1.0000   1.0000   1.0000   1.0000
     1.0000   1.0000   1.0000   1.0000   1.0000   1.0000   1.0000   1.0000
     1.0000   1.0000   1.0000   1.0000   1.0000   1.0000   1.0000   1.0000
     1.0000   1.0000   1.0000   1.0000   1.0000   1.0000   1.0000   1.0000
     1.0000   1.0000   1.0000   1.0000

          k =-0.5052 0.1105 0.0000 ( 45134 PWs)   bands (ev):

   -24.0618 -23.7975 -23.7896 -23.6556 -23.5720 -23.5561 -20.1848 -20.1523
   -20.1285 -20.0824 -19.9988 -19.9732 -19.9246 -19.8438 -19.7996 -19.7699
   -19.7672 -19.7112 -19.6579 -19.6522 -19.5885 -19.5723 -19.4300 -19.2499
   -19.1898 -18.8198 -12.6326 -12.4199 -12.1216 -11.8885 -10.5135 -10.2784
    -9.9219  -9.6656  -9.0607  -8.8176  -8.4125  -8.2466  -8.1103  -7.8197
    -7.7703  -7.5504  -7.4792  -7.2725

     occupation numbers 
     1.0000   1.0000   1.0000   1.0000   1.0000   1.0000   1.0000   1.0000
     1.0000   1.0000   1.0000   1.0000   1.0000   1.0000   1.0000   1.0000
     1.0000   1.0000   1.0000   1.0000   1.0000   1.0000   1.0000   1.0000
     1.0000   1.0000   1.0000   1.0000   1.0000   1.0000   1.0000   1.0000
     1.0000   1.0000   1.0000   1.0000   1.0000   1.0000   1.0000   1.0000
     1.0000   1.0000   1.0000   1.0000

          k =-0.5114 0.2536 0.0000 ( 45094 PWs)   bands (ev):

   -24.0558 -23.8044 -23.7871 -23.6473 -23.6024 -23.5358 -20.1847 -20.1707
   -20.1221 -20.0536 -20.0098 -19.9612 -19.9136 -19.8370 -19.7992 -19.7822
   -19.7664 -19.7316 -19.6692 -19.6233 -19.6056 -19.5831 -19.4291 -19.2478
   -19.1912 -18.8189 -12.6205 -12.4028 -12.1638 -11.9147 -10.3961 -10.1965
   -10.0428  -9.8171  -8.8491  -8.6637  -8.5804  -8.2832  -8.0473  -7.9058
    -7.7685  -7.5320  -7.5120  -7.2739

     occupation numbers 
     1.0000   1.0000   1.0000   1.0000   1.0000   1.0000   1.0000   1.0000
     1.0000   1.0000   1.0000   1.0000   1.0000   1.0000   1.0000   1.0000
     1.0000   1.0000   1.0000   1.0000   1.0000   1.0000   1.0000   1.0000
     1.0000   1.0000   1.0000   1.0000   1.0000   1.0000   1.0000   1.0000
     1.0000   1.0000   1.0000   1.0000   1.0000   1.0000   1.0000   1.0000
     1.0000   1.0000   1.0000   1.0000

          k =-0.4929-0.1758 0.0000 ( 45008 PWs)   bands (ev):

   -24.0493 -23.8185 -23.7749 -23.6402 -23.6234 -23.5266 -20.1921 -20.1749
   -20.1187 -20.0187 -20.0118 -19.9672 -19.8992 -19.8329 -19.8025 -19.7957
   -19.7668 -19.7415 -19.6621 -19.6181 -19.6136 -19.6069 -19.4290 -19.2395
   -19.1932 -18.8190 -12.6039 -12.3845 -12.2087 -11.9438 -10.4676 -10.2552
    -9.8024  -9.6825  -8.9282  -8.6750  -8.6404  -8.3864  -8.1073  -7.8670
    -7.7378  -7.5045  -7.4978  -7.2673

     occupation numbers 
     1.0000   1.0000   1.0000   1.0000   1.0000   1.0000   1.0000   1.0000
     1.0000   1.0000   1.0000   1.0000   1.0000   1.0000   1.0000   1.0000
     1.0000   1.0000   1.0000   1.0000   1.0000   1.0000   1.0000   1.0000
     1.0000   1.0000   1.0000   1.0000   1.0000   1.0000   1.0000   1.0000
     1.0000   1.0000   1.0000   1.0000   1.0000   1.0000   1.0000   1.0000
     1.0000   1.0000   1.0000   1.0000

     highest occupied level (ev):    -6.9682

!    total energy              =   -1361.95842807 Ry
     estimated scf accuracy    <          6.7E-09 Ry

     convergence has been achieved in   4 iterations

     negative rho (up, down):  4.321E-04 0.000E+00

     Forces acting on atoms (cartesian axes, Ry/au):

     atom    1 type  1   force =    -0.01804522   -0.01648981    0.00806099
     atom    2 type  1   force =     0.01426568    0.04440891    0.01968712
     atom    3 type  2   force =    -0.02340150    0.03211146   -0.04598903
     atom    4 type  2   force =     0.04688542   -0.05289262    0.00335190
     atom    5 type  2   force =    -0.01976469   -0.00825989    0.01430026
     atom    6 type  1   force =    -0.00287231   -0.03942054   -0.00431793
     atom    7 type  1   force =    -0.01225939    0.04730553    0.00419279
     atom    8 type  2   force =    -0.01426440    0.01512704   -0.01499003
     atom    9 type  2   force =     0.02774714    0.00849144   -0.00160640
     atom   10 type  2   force =     0.00170928   -0.03038151    0.01731032
     The non-local contrib.  to forces
     atom    1 type  1   force =     0.26835480    0.22514105   -0.02598848
     atom    2 type  1   force =     0.27330747   -0.03582251   -0.18646075
     atom    3 type  2   force =    -0.09450934    0.48384440   -1.10836444
     atom    4 type  2   force =     1.09267398    0.14566522   -0.17950034
     atom    5 type  2   force =     0.00244728   -0.42517116    0.97060007
     atom    6 type  1   force =     0.22314402    0.16595447    0.08837409
     atom    7 type  1   force =     0.17503116   -0.10397545   -0.07401416
     atom    8 type  2   force =    -0.12945265    0.44598215   -0.96236640
     atom    9 type  2   force =     1.10851256    0.14041241    0.01482304
     atom   10 type  2   force =    -0.07434868   -0.47628726    0.99465863
     The ionic contribution  to forces
     atom    1 type  1   force =     2.03439443   11.70477597  -87.27808157
     atom    2 type  1   force =     3.42976087   -9.51181613 -134.12671768
     atom    3 type  2   force =    -0.05093551   -1.62892414  -14.57763511
     atom    4 type  2   force =    -4.83693535   -2.06548711  -48.10800120
     atom    5 type  2   force =    -0.61700685    2.33397823  -85.74325310
     atom    6 type  1   force =     2.26448448   10.25589032  132.43270195
     atom    7 type  1   force =     2.45826882  -10.24050699   86.43816791
     atom    8 type  2   force =     0.16676132   -2.21316902   85.57449293
     atom    9 type  2   force =    -5.10460478   -0.00581139   49.46843249
     atom   10 type  2   force =     0.25581257    1.37107027   15.91989339
     The local contribution  to forces
     atom    1 type  1   force =    -2.31903473  -11.94556938   87.31202682
     atom    2 type  1   force =    -3.68571794    9.59574583  134.33187144
     atom    3 type  2   force =     0.12091543    1.18182291   15.63051884
     atom    4 type  2   force =     3.80135268    1.86773554   48.28929578
     atom    5 type  2   force =     0.59451855   -1.92097227   84.79493490
     atom    6 type  1   force =    -2.48915411  -10.46297344 -132.52487992
     atom    7 type  1   force =    -2.64536758   10.39482980  -86.36052340
     atom    8 type  2   force =    -0.05295765    1.78646080  -84.63503045
     atom    9 type  2   force =     4.03402447   -0.12473879  -49.48476366
     atom   10 type  2   force =    -0.18050025   -0.92973270  -16.88906685
     The core correction contribution to forces
     atom    1 type  1   force =    -0.00185728   -0.00085166    0.00021750
     atom    2 type  1   force =    -0.00304062   -0.00369301    0.00119991
     atom    3 type  2   force =     0.00112533   -0.00462342    0.00950587
     atom    4 type  2   force =    -0.01021552   -0.00082074    0.00156112
     atom    5 type  2   force =     0.00027218    0.00390806   -0.00796873
     atom    6 type  1   force =    -0.00131303    0.00168148   -0.00051178
     atom    7 type  1   force =    -0.00014334   -0.00305069    0.00052857
     atom    8 type  2   force =     0.00137863   -0.00414844    0.00790169
     atom    9 type  2   force =    -0.01019013   -0.00135739   -0.00009843
     atom   10 type  2   force =     0.00074223    0.00453706   -0.00821043
     The Hubbard contrib.    to forces
     atom    1 type  1   force =     0.00000000    0.00000000    0.00000000
     atom    2 type  1   force =     0.00000000    0.00000000    0.00000000
     atom    3 type  2   force =     0.00000000    0.00000000    0.00000000
     atom    4 type  2   force =     0.00000000    0.00000000    0.00000000
     atom    5 type  2   force =     0.00000000    0.00000000    0.00000000
     atom    6 type  1   force =     0.00000000    0.00000000    0.00000000
     atom    7 type  1   force =     0.00000000    0.00000000    0.00000000
     atom    8 type  2   force =     0.00000000    0.00000000    0.00000000
     atom    9 type  2   force =     0.00000000    0.00000000    0.00000000
     atom   10 type  2   force =     0.00000000    0.00000000    0.00000000
     The SCF correction term to forces
     atom    1 type  1   force =     0.00009248    0.00001706   -0.00013234
     atom    2 type  1   force =    -0.00004918   -0.00000241   -0.00022487
     atom    3 type  2   force =    -0.00000249   -0.00000545   -0.00003327
     atom    4 type  2   force =     0.00000455    0.00001732   -0.00002254
     atom    5 type  2   force =    -0.00000093    0.00000010   -0.00003195
     atom    6 type  1   force =    -0.00003875    0.00002948   -0.00002135
     atom    7 type  1   force =    -0.00005352    0.00001171    0.00001480
     atom    8 type  2   force =     0.00000087    0.00000441   -0.00000688
     atom    9 type  2   force =    -0.00000005   -0.00001055   -0.00001890
     atom   10 type  2   force =    -0.00000166    0.00003397    0.00001651

     Total force =     0.138938     Total SCF correction =     0.000301


     Computing stress (Cartesian axis) and pressure


     negative rho (up, down):  4.321E-04 0.000E+00
          total   stress  (Ry/bohr**3)                   (kbar)     P=      -25.80
  -0.00022423   0.00001626  -0.00001434          -32.99        2.39       -2.11
   0.00001626  -0.00024829   0.00001736            2.39      -36.52        2.55
  -0.00001434   0.00001736  -0.00005372           -2.11        2.55       -7.90

     kinetic stress (kbar)   4714.35      5.41     -2.31
                                5.41   4713.49     -1.99
                               -2.31     -1.99   4779.59

     local   stress (kbar)-496968.44   -118.16     18.20
                             -118.16-493544.52   -629.42
                               18.20   -629.42 494552.73

     nonloc. stress (kbar)    -52.23     -1.57     -0.36
                               -1.57    -71.81     15.68
                               -0.36     15.68     43.37

     hartree stress (kbar) 250624.81     57.08     -8.43
                               57.08 248959.59    305.85
                               -8.43    305.85-241378.70

     exc-cor stress (kbar)    602.65     -0.02      0.05
                               -0.02    603.54     -0.86
                                0.05     -0.86    594.12

     corecor stress (kbar)  -2383.49     -0.04      0.01
                               -0.04  -2383.62      0.13
                                0.01      0.13  -2383.28

     ewald   stress (kbar) 243429.37     59.70     -9.26
                               59.70 241686.80    313.16
                               -9.26    313.16-256215.73

     hubbard stress (kbar)      0.00      0.00      0.00
                                0.00      0.00      0.00
                                0.00      0.00      0.00

     DFT-D   stress (kbar)      0.00      0.00      0.00
                                0.00      0.00      0.00
                                0.00      0.00      0.00

     XDM     stress (kbar)      0.00      0.00      0.00
                                0.00      0.00      0.00
                                0.00      0.00      0.00

     dft-nl  stress (kbar)      0.00      0.00      0.00
                                0.00      0.00      0.00
                                0.00      0.00      0.00

     TS-vdW  stress (kbar)      0.00      0.00      0.00
                                0.00      0.00      0.00
                                0.00      0.00      0.00


                                0.00      0.00      0.00
                                0.00      0.00      0.00


                                0.00      0.00      0.00


     Entering Dynamics:    iteration =    12
                           time      =   0.0116 pico-seconds


     Canonical sampling velocity rescaling

ATOMIC_POSITIONS (crystal)
Ga            0.8328038516        0.7176991120        0.4261970183
Ga            0.5092886159        0.3005830953        0.3993521226
O             0.4113453052        0.5577887265        0.4493285139
O             0.4288916049        0.0171240177        0.4150168055
O             0.9483001855        0.4527044343        0.3788000604
Ga            0.8221177818        0.7220164342        0.5997448837
Ga            0.5159890814        0.3003667234        0.5737207445
O             0.3877092937        0.5705492885        0.6207071845
O             0.4559943881        0.0059719149        0.5859947489
O             0.9337026912        0.4580489761        0.5532449521


     kinetic energy (Ekin) =           0.03651181 Ry
     temperature           =         427.01922846 K 
     Ekin + Etot (const)   =       -1361.92191626 Ry
     Ions kinetic stress =            0.96 (kbar)
                                      1.17           0.15           0.06
                                      0.15           0.24          -0.20
                                      0.06          -0.20           1.47



     Linear momentum :   -0.0000000000   -0.0000000000   -0.0000000000

     Writing config-only to output data dir ./tmp/Ga2O3-BL-001-300K.save/

     second order wave-functions extrapolation
     second order charge density extrapolation

     negative rho (up, down):  4.316E-04 0.000E+00

     total cpu time spent up to now is      710.4 secs

     Self-consistent Calculation

     iteration #  1     ecut=    80.00 Ry     beta= 0.20
     Davidson diagonalization with overlap

---- Real-time Memory Report at c_bands before calling an iterative solver
           314 MiB given to the printing process from OS
             0 MiB allocation reported by mallinfo(arena+hblkhd)
        367119 MiB available memory on the node where the printing process lives
------------------
     ethr =  1.00E-06,  avg # of iterations =  2.0

     Threshold (ethr) on eigenvalues was too large:
     Diagonalizing with lowered threshold

     Davidson diagonalization with overlap

---- Real-time Memory Report at c_bands before calling an iterative solver
           314 MiB given to the printing process from OS
             0 MiB allocation reported by mallinfo(arena+hblkhd)
        367122 MiB available memory on the node where the printing process lives
------------------
     ethr =  2.27E-10,  avg # of iterations = 10.4

     negative rho (up, down):  4.314E-04 0.000E+00

     total cpu time spent up to now is      716.2 secs

     total energy              =   -1361.96018987 Ry
     estimated scf accuracy    <       0.00000069 Ry

     iteration #  2     ecut=    80.00 Ry     beta= 0.20
     Davidson diagonalization with overlap

---- Real-time Memory Report at c_bands before calling an iterative solver
           314 MiB given to the printing process from OS
             0 MiB allocation reported by mallinfo(arena+hblkhd)
        367121 MiB available memory on the node where the printing process lives
------------------
     ethr =  7.86E-10,  avg # of iterations =  5.6

     negative rho (up, down):  4.312E-04 0.000E+00

     total cpu time spent up to now is      718.4 secs

     total energy              =   -1361.96018985 Ry
     estimated scf accuracy    <       0.00000015 Ry

     iteration #  3     ecut=    80.00 Ry     beta= 0.20
     Davidson diagonalization with overlap

---- Real-time Memory Report at c_bands before calling an iterative solver
           314 MiB given to the printing process from OS
             0 MiB allocation reported by mallinfo(arena+hblkhd)
        367120 MiB available memory on the node where the printing process lives
------------------
     ethr =  1.72E-10,  avg # of iterations =  9.1

     negative rho (up, down):  4.311E-04 0.000E+00

     total cpu time spent up to now is      722.0 secs

     total energy              =   -1361.96018997 Ry
     estimated scf accuracy    <       0.00000031 Ry

     iteration #  4     ecut=    80.00 Ry     beta= 0.20
     Davidson diagonalization with overlap

---- Real-time Memory Report at c_bands before calling an iterative solver
           314 MiB given to the printing process from OS
             0 MiB allocation reported by mallinfo(arena+hblkhd)
        367119 MiB available memory on the node where the printing process lives
------------------
     ethr =  1.72E-10,  avg # of iterations =  5.2

     negative rho (up, down):  4.309E-04 0.000E+00

     total cpu time spent up to now is      724.2 secs

     total energy              =   -1361.96018990 Ry
     estimated scf accuracy    <       0.00000013 Ry

     iteration #  5     ecut=    80.00 Ry     beta= 0.20
     Davidson diagonalization with overlap

---- Real-time Memory Report at c_bands before calling an iterative solver
           314 MiB given to the printing process from OS
             0 MiB allocation reported by mallinfo(arena+hblkhd)
        367119 MiB available memory on the node where the printing process lives
------------------
     ethr =  1.43E-10,  avg # of iterations = 10.4

     negative rho (up, down):  4.308E-04 0.000E+00

     total cpu time spent up to now is      727.9 secs

     total energy              =   -1361.96019001 Ry
     estimated scf accuracy    <       0.00000051 Ry

     iteration #  6     ecut=    80.00 Ry     beta= 0.20
     Davidson diagonalization with overlap

---- Real-time Memory Report at c_bands before calling an iterative solver
           314 MiB given to the printing process from OS
             0 MiB allocation reported by mallinfo(arena+hblkhd)
        367116 MiB available memory on the node where the printing process lives
------------------
     ethr =  1.43E-10,  avg # of iterations =  3.9

     negative rho (up, down):  4.308E-04 0.000E+00

     total cpu time spent up to now is      730.0 secs

     total energy              =   -1361.96018998 Ry
     estimated scf accuracy    <       0.00000031 Ry

     iteration #  7     ecut=    80.00 Ry     beta= 0.20
     Davidson diagonalization with overlap

---- Real-time Memory Report at c_bands before calling an iterative solver
           314 MiB given to the printing process from OS
             0 MiB allocation reported by mallinfo(arena+hblkhd)
        367116 MiB available memory on the node where the printing process lives
------------------
     ethr =  1.43E-10,  avg # of iterations =  4.8

     negative rho (up, down):  4.307E-04 0.000E+00

     total cpu time spent up to now is      732.3 secs

     total energy              =   -1361.96019000 Ry
     estimated scf accuracy    <       0.00000011 Ry

     iteration #  8     ecut=    80.00 Ry     beta= 0.20
     Davidson diagonalization with overlap

---- Real-time Memory Report at c_bands before calling an iterative solver
           314 MiB given to the printing process from OS
             0 MiB allocation reported by mallinfo(arena+hblkhd)
        367116 MiB available memory on the node where the printing process lives
------------------
     ethr =  1.27E-10,  avg # of iterations =  2.3

     negative rho (up, down):  4.307E-04 0.000E+00

     total cpu time spent up to now is      734.1 secs

     total energy              =   -1361.96019002 Ry
     estimated scf accuracy    <       0.00000009 Ry

     iteration #  9     ecut=    80.00 Ry     beta= 0.20
     Davidson diagonalization with overlap

---- Real-time Memory Report at c_bands before calling an iterative solver
           314 MiB given to the printing process from OS
             0 MiB allocation reported by mallinfo(arena+hblkhd)
        367116 MiB available memory on the node where the printing process lives
------------------
     ethr =  1.04E-10,  avg # of iterations =  1.5

     negative rho (up, down):  4.306E-04 0.000E+00

     total cpu time spent up to now is      735.9 secs

     total energy              =   -1361.96018999 Ry
     estimated scf accuracy    <       0.00000011 Ry

     iteration # 10     ecut=    80.00 Ry     beta= 0.20
     Davidson diagonalization with overlap

---- Real-time Memory Report at c_bands before calling an iterative solver
           314 MiB given to the printing process from OS
             0 MiB allocation reported by mallinfo(arena+hblkhd)
        367104 MiB available memory on the node where the printing process lives
------------------
     ethr =  1.04E-10,  avg # of iterations =  3.9

     negative rho (up, down):  4.306E-04 0.000E+00

     total cpu time spent up to now is      737.9 secs

     total energy              =   -1361.96018999 Ry
     estimated scf accuracy    <       0.00000004 Ry

     iteration # 11     ecut=    80.00 Ry     beta= 0.20
     Davidson diagonalization with overlap

---- Real-time Memory Report at c_bands before calling an iterative solver
           314 MiB given to the printing process from OS
             0 MiB allocation reported by mallinfo(arena+hblkhd)
        367104 MiB available memory on the node where the printing process lives
------------------
     ethr =  4.31E-11,  avg # of iterations =  6.9

     negative rho (up, down):  4.305E-04 0.000E+00

     total cpu time spent up to now is      740.9 secs

     End of self-consistent calculation

          k = 0.0000 0.0000 0.0000 ( 45065 PWs)   bands (ev):

   -24.6729 -24.4591 -23.7867 -23.6204 -23.5986 -23.3563 -20.2092 -20.1466
   -20.1092 -20.0798 -20.0618 -19.9956 -19.9609 -19.8751 -19.8725 -19.7500
   -19.7107 -19.6917 -19.6778 -19.6326 -19.6226 -19.5221 -19.5119 -19.4883
   -19.1107 -19.0691 -12.6901 -12.5536 -10.3194  -9.8931  -9.4949  -9.2927
    -8.8056  -8.4345  -8.3492  -8.1973  -8.1654  -8.0905  -7.8870  -7.8656
    -7.7902  -7.5217  -7.4688  -7.0770

     occupation numbers 
     1.0000   1.0000   1.0000   1.0000   1.0000   1.0000   1.0000   1.0000
     1.0000   1.0000   1.0000   1.0000   1.0000   1.0000   1.0000   1.0000
     1.0000   1.0000   1.0000   1.0000   1.0000   1.0000   1.0000   1.0000
     1.0000   1.0000   1.0000   1.0000   1.0000   1.0000   1.0000   1.0000
     1.0000   1.0000   1.0000   1.0000   1.0000   1.0000   1.0000   1.0000
     1.0000   1.0000   1.0000   1.0000

          k =-0.0062 0.1431 0.0000 ( 45113 PWs)   bands (ev):

   -24.6118 -24.3740 -23.9098 -23.7763 -23.5478 -23.2940 -20.1907 -20.1441
   -20.1102 -20.0855 -20.0624 -19.9871 -19.9538 -19.8713 -19.8452 -19.7525
   -19.7311 -19.6927 -19.6771 -19.6228 -19.6093 -19.5807 -19.5135 -19.4822
   -19.1791 -19.0656 -12.3038 -12.1536 -10.4288 -10.0113  -9.7857  -9.6206
    -9.2383  -8.8900  -8.3704  -8.1610  -8.1197  -7.9125  -7.8659  -7.6977
    -7.5864  -7.4947  -7.4146  -7.1087

     occupation numbers 
     1.0000   1.0000   1.0000   1.0000   1.0000   1.0000   1.0000   1.0000
     1.0000   1.0000   1.0000   1.0000   1.0000   1.0000   1.0000   1.0000
     1.0000   1.0000   1.0000   1.0000   1.0000   1.0000   1.0000   1.0000
     1.0000   1.0000   1.0000   1.0000   1.0000   1.0000   1.0000   1.0000
     1.0000   1.0000   1.0000   1.0000   1.0000   1.0000   1.0000   1.0000
     1.0000   1.0000   1.0000   1.0000

          k = 0.0124-0.2862 0.0000 ( 45174 PWs)   bands (ev):

   -24.5322 -24.2298 -24.0281 -23.9688 -23.5175 -23.2570 -20.1791 -20.1362
   -20.1143 -20.0839 -20.0593 -19.9729 -19.9490 -19.8687 -19.8149 -19.7558
   -19.7453 -19.6980 -19.6740 -19.6565 -19.6069 -19.6002 -19.5042 -19.4765
   -19.2571 -19.0601 -11.6437 -11.4840 -10.7835 -10.4384 -10.2655 -10.0535
    -9.3389  -9.0423  -8.4643  -8.2167  -8.1057  -7.8032  -7.7518  -7.5741
    -7.4959  -7.4834  -7.2314  -7.1595

     occupation numbers 
     1.0000   1.0000   1.0000   1.0000   1.0000   1.0000   1.0000   1.0000
     1.0000   1.0000   1.0000   1.0000   1.0000   1.0000   1.0000   1.0000
     1.0000   1.0000   1.0000   1.0000   1.0000   1.0000   1.0000   1.0000
     1.0000   1.0000   1.0000   1.0000   1.0000   1.0000   1.0000   1.0000
     1.0000   1.0000   1.0000   1.0000   1.0000   1.0000   1.0000   1.0000
     1.0000   1.0000   1.0000   1.0000

          k = 0.1684-0.0368 0.0000 ( 45086 PWs)   bands (ev):

   -24.5468 -24.3253 -23.7889 -23.6216 -23.5895 -23.3515 -20.2055 -20.1426
   -20.1180 -20.0708 -20.0385 -19.9913 -19.9396 -19.8749 -19.8618 -19.7530
   -19.7221 -19.6792 -19.6665 -19.6287 -19.5927 -19.5146 -19.4912 -19.4147
   -19.0710 -19.0227 -12.5547 -12.4221 -10.5448 -10.2185 -10.1459  -9.9568
    -9.2129  -8.8841  -8.6150  -8.3470  -8.2939  -8.1076  -8.0460  -7.8916
    -7.7933  -7.6313  -7.3211  -6.9305

     occupation numbers 
     1.0000   1.0000   1.0000   1.0000   1.0000   1.0000   1.0000   1.0000
     1.0000   1.0000   1.0000   1.0000   1.0000   1.0000   1.0000   1.0000
     1.0000   1.0000   1.0000   1.0000   1.0000   1.0000   1.0000   1.0000
     1.0000   1.0000   1.0000   1.0000   1.0000   1.0000   1.0000   1.0000
     1.0000   1.0000   1.0000   1.0000   1.0000   1.0000   1.0000   1.0000
     1.0000   1.0000   1.0000   1.0000

          k = 0.1622 0.1063 0.0000 ( 45049 PWs)   bands (ev):

   -24.5250 -24.2937 -23.8315 -23.6778 -23.5724 -23.3297 -20.2065 -20.1395
   -20.1057 -20.0656 -20.0480 -19.9924 -19.9385 -19.8622 -19.8509 -19.7565
   -19.7247 -19.6847 -19.6675 -19.6224 -19.5901 -19.5391 -19.5088 -19.4014
   -19.1346 -18.9824 -12.4137 -12.2879 -10.6904 -10.2493 -10.1293  -9.9156
    -9.3283  -9.0706  -8.6746  -8.4310  -8.3176  -8.0527  -7.9716  -7.8768
    -7.7241  -7.5795  -7.3265  -6.9360

     occupation numbers 
     1.0000   1.0000   1.0000   1.0000   1.0000   1.0000   1.0000   1.0000
     1.0000   1.0000   1.0000   1.0000   1.0000   1.0000   1.0000   1.0000
     1.0000   1.0000   1.0000   1.0000   1.0000   1.0000   1.0000   1.0000
     1.0000   1.0000   1.0000   1.0000   1.0000   1.0000   1.0000   1.0000
     1.0000   1.0000   1.0000   1.0000   1.0000   1.0000   1.0000   1.0000
     1.0000   1.0000   1.0000   1.0000

          k = 0.1808-0.3231 0.0000 ( 45092 PWs)   bands (ev):

   -24.4398 -24.1415 -23.9530 -23.8820 -23.5451 -23.2902 -20.1897 -20.1370
   -20.0945 -20.0760 -20.0350 -19.9862 -19.9341 -19.8430 -19.8203 -19.7513
   -19.7374 -19.6849 -19.6685 -19.6628 -19.6125 -19.5881 -19.4755 -19.3775
   -19.2614 -18.9587 -11.7550 -11.6000 -11.0504 -10.7133 -10.2197  -9.9715
    -9.7090  -9.4663  -8.8887  -8.6376  -8.2502  -8.0227  -7.9236  -7.7292
    -7.5666  -7.3521  -7.3034  -6.9507

     occupation numbers 
     1.0000   1.0000   1.0000   1.0000   1.0000   1.0000   1.0000   1.0000
     1.0000   1.0000   1.0000   1.0000   1.0000   1.0000   1.0000   1.0000
     1.0000   1.0000   1.0000   1.0000   1.0000   1.0000   1.0000   1.0000
     1.0000   1.0000   1.0000   1.0000   1.0000   1.0000   1.0000   1.0000
     1.0000   1.0000   1.0000   1.0000   1.0000   1.0000   1.0000   1.0000
     1.0000   1.0000   1.0000   1.0000

          k = 0.1746-0.1799 0.0000 ( 45085 PWs)   bands (ev):

   -24.4700 -24.2057 -23.9101 -23.8022 -23.5552 -23.3020 -20.1863 -20.1314
   -20.1177 -20.0782 -20.0336 -19.9827 -19.9349 -19.8660 -19.8323 -19.7493
   -19.7313 -19.6827 -19.6685 -19.6203 -19.6124 -19.5871 -19.4881 -19.3809
   -19.2162 -18.9728 -12.0427 -11.8655 -10.7637 -10.5122 -10.2726  -9.9556
    -9.6416  -9.3542  -8.8070  -8.5712  -8.2415  -8.0528  -7.9462  -7.7114
    -7.6373  -7.4254  -7.3349  -6.9449

     occupation numbers 
     1.0000   1.0000   1.0000   1.0000   1.0000   1.0000   1.0000   1.0000
     1.0000   1.0000   1.0000   1.0000   1.0000   1.0000   1.0000   1.0000
     1.0000   1.0000   1.0000   1.0000   1.0000   1.0000   1.0000   1.0000
     1.0000   1.0000   1.0000   1.0000   1.0000   1.0000   1.0000   1.0000
     1.0000   1.0000   1.0000   1.0000   1.0000   1.0000   1.0000   1.0000
     1.0000   1.0000   1.0000   1.0000

          k = 0.3368-0.0737 0.0000 ( 45074 PWs)   bands (ev):

   -24.2596 -24.0100 -23.7814 -23.6128 -23.6043 -23.4014 -20.1733 -20.1463
   -20.1049 -20.0741 -19.9908 -19.9745 -19.9137 -19.8306 -19.8242 -19.7434
   -19.7118 -19.6952 -19.6275 -19.6115 -19.5581 -19.4989 -19.4575 -19.2529
   -19.1079 -18.8559 -12.5198 -12.3550 -11.5282 -11.2320 -10.7075 -10.4129
    -9.6109  -9.3471  -8.8796  -8.5930  -8.5390  -8.3890  -8.0704  -7.7657
    -7.7098  -7.5859  -7.3889  -6.9940

     occupation numbers 
     1.0000   1.0000   1.0000   1.0000   1.0000   1.0000   1.0000   1.0000
     1.0000   1.0000   1.0000   1.0000   1.0000   1.0000   1.0000   1.0000
     1.0000   1.0000   1.0000   1.0000   1.0000   1.0000   1.0000   1.0000
     1.0000   1.0000   1.0000   1.0000   1.0000   1.0000   1.0000   1.0000
     1.0000   1.0000   1.0000   1.0000   1.0000   1.0000   1.0000   1.0000
     1.0000   1.0000   1.0000   1.0000

          k = 0.3306 0.0695 0.0000 ( 45046 PWs)   bands (ev):

   -24.2662 -24.0217 -23.7855 -23.6023 -23.5930 -23.3990 -20.1900 -20.1474
   -20.0947 -20.0535 -19.9963 -19.9762 -19.9145 -19.8314 -19.8252 -19.7436
   -19.7172 -19.7043 -19.6258 -19.5976 -19.5684 -19.4800 -19.4658 -19.2714
   -19.0709 -18.8684 -12.5520 -12.4192 -11.5920 -11.1892 -10.6492 -10.4457
    -9.5614  -9.3372  -8.8532  -8.5333  -8.4874  -8.3200  -8.1394  -7.8060
    -7.7282  -7.6217  -7.3785  -6.9949

     occupation numbers 
     1.0000   1.0000   1.0000   1.0000   1.0000   1.0000   1.0000   1.0000
     1.0000   1.0000   1.0000   1.0000   1.0000   1.0000   1.0000   1.0000
     1.0000   1.0000   1.0000   1.0000   1.0000   1.0000   1.0000   1.0000
     1.0000   1.0000   1.0000   1.0000   1.0000   1.0000   1.0000   1.0000
     1.0000   1.0000   1.0000   1.0000   1.0000   1.0000   1.0000   1.0000
     1.0000   1.0000   1.0000   1.0000

          k = 0.3492-0.3599 0.0000 ( 45085 PWs)   bands (ev):

   -24.2187 -23.9201 -23.8265 -23.7166 -23.6076 -23.3872 -20.1776 -20.1456
   -20.0926 -20.0370 -19.9967 -19.9686 -19.9155 -19.7984 -19.7903 -19.7437
   -19.7217 -19.7053 -19.6358 -19.6231 -19.6010 -19.5693 -19.4178 -19.2240
   -19.2219 -18.8103 -12.2469 -12.0730 -11.8343 -11.4845 -10.3765 -10.1718
    -9.7321  -9.5680  -9.0245  -8.7387  -8.6591  -8.3824  -8.1324  -7.7813
    -7.6630  -7.4145  -7.3578  -7.0093

     occupation numbers 
     1.0000   1.0000   1.0000   1.0000   1.0000   1.0000   1.0000   1.0000
     1.0000   1.0000   1.0000   1.0000   1.0000   1.0000   1.0000   1.0000
     1.0000   1.0000   1.0000   1.0000   1.0000   1.0000   1.0000   1.0000
     1.0000   1.0000   1.0000   1.0000   1.0000   1.0000   1.0000   1.0000
     1.0000   1.0000   1.0000   1.0000   1.0000   1.0000   1.0000   1.0000
     1.0000   1.0000   1.0000   1.0000

          k = 0.3430-0.2168 0.0000 ( 45092 PWs)   bands (ev):

   -24.2108 -23.8933 -23.8249 -23.7428 -23.6175 -23.3893 -20.1645 -20.1382
   -20.1012 -20.0649 -19.9892 -19.9643 -19.9141 -19.8007 -19.7914 -19.7459
   -19.7103 -19.6980 -19.6473 -19.6269 -19.6065 -19.5612 -19.3912 -19.2730
   -19.2122 -18.8053 -12.2256 -11.9501 -11.7644 -11.5709 -10.3730 -10.0923
    -9.9008  -9.6800  -9.0405  -8.8025  -8.5982  -8.2907  -8.1610  -7.8547
    -7.5763  -7.4257  -7.3437  -7.0156

     occupation numbers 
     1.0000   1.0000   1.0000   1.0000   1.0000   1.0000   1.0000   1.0000
     1.0000   1.0000   1.0000   1.0000   1.0000   1.0000   1.0000   1.0000
     1.0000   1.0000   1.0000   1.0000   1.0000   1.0000   1.0000   1.0000
     1.0000   1.0000   1.0000   1.0000   1.0000   1.0000   1.0000   1.0000
     1.0000   1.0000   1.0000   1.0000   1.0000   1.0000   1.0000   1.0000
     1.0000   1.0000   1.0000   1.0000

          k =-0.5052 0.1105 0.0000 ( 45134 PWs)   bands (ev):

   -24.0761 -23.7872 -23.7844 -23.6467 -23.5548 -23.5350 -20.1654 -20.1343
   -20.1092 -20.0630 -19.9782 -19.9527 -19.9045 -19.8021 -19.7541 -19.7478
   -19.7194 -19.6628 -19.6129 -19.6045 -19.5641 -19.5243 -19.3770 -19.1981
   -19.1655 -18.7666 -12.6443 -12.4128 -12.1149 -11.8647 -10.5023 -10.2483
    -9.9179  -9.6393  -9.0506  -8.7889  -8.3996  -8.2179  -8.0979  -7.7971
    -7.7348  -7.5336  -7.4388  -7.2310

     occupation numbers 
     1.0000   1.0000   1.0000   1.0000   1.0000   1.0000   1.0000   1.0000
     1.0000   1.0000   1.0000   1.0000   1.0000   1.0000   1.0000   1.0000
     1.0000   1.0000   1.0000   1.0000   1.0000   1.0000   1.0000   1.0000
     1.0000   1.0000   1.0000   1.0000   1.0000   1.0000   1.0000   1.0000
     1.0000   1.0000   1.0000   1.0000   1.0000   1.0000   1.0000   1.0000
     1.0000   1.0000   1.0000   1.0000

          k =-0.5114 0.2536 0.0000 ( 45094 PWs)   bands (ev):

   -24.0707 -23.7981 -23.7763 -23.6390 -23.5851 -23.5152 -20.1659 -20.1517
   -20.1027 -20.0340 -19.9892 -19.9403 -19.8939 -19.7953 -19.7592 -19.7538
   -19.7186 -19.6850 -19.6214 -19.5821 -19.5763 -19.5360 -19.3756 -19.1959
   -19.1674 -18.7654 -12.6300 -12.3946 -12.1610 -11.8925 -10.3885 -10.1719
   -10.0264  -9.7815  -8.8488  -8.6491  -8.5632  -8.2399  -8.0361  -7.8863
    -7.7384  -7.5097  -7.4715  -7.2341

     occupation numbers 
     1.0000   1.0000   1.0000   1.0000   1.0000   1.0000   1.0000   1.0000
     1.0000   1.0000   1.0000   1.0000   1.0000   1.0000   1.0000   1.0000
     1.0000   1.0000   1.0000   1.0000   1.0000   1.0000   1.0000   1.0000
     1.0000   1.0000   1.0000   1.0000   1.0000   1.0000   1.0000   1.0000
     1.0000   1.0000   1.0000   1.0000   1.0000   1.0000   1.0000   1.0000
     1.0000   1.0000   1.0000   1.0000

          k =-0.4929-0.1758 0.0000 ( 45008 PWs)   bands (ev):

   -24.0650 -23.8110 -23.7637 -23.6323 -23.6068 -23.5058 -20.1739 -20.1551
   -20.0993 -19.9991 -19.9916 -19.9459 -19.8796 -19.7904 -19.7783 -19.7507
   -19.7190 -19.6963 -19.6139 -19.5955 -19.5646 -19.5618 -19.3753 -19.1873
   -19.1699 -18.7652 -12.6108 -12.3755 -12.2104 -11.9234 -10.4556 -10.2259
    -9.7850  -9.6543  -8.9150  -8.6490  -8.6369  -8.3627  -8.0943  -7.8502
    -7.6976  -7.4860  -7.4532  -7.2286

     occupation numbers 
     1.0000   1.0000   1.0000   1.0000   1.0000   1.0000   1.0000   1.0000
     1.0000   1.0000   1.0000   1.0000   1.0000   1.0000   1.0000   1.0000
     1.0000   1.0000   1.0000   1.0000   1.0000   1.0000   1.0000   1.0000
     1.0000   1.0000   1.0000   1.0000   1.0000   1.0000   1.0000   1.0000
     1.0000   1.0000   1.0000   1.0000   1.0000   1.0000   1.0000   1.0000
     1.0000   1.0000   1.0000   1.0000

     highest occupied level (ev):    -6.9305

!    total energy              =   -1361.96019001 Ry
     estimated scf accuracy    <          7.8E-09 Ry

     convergence has been achieved in  11 iterations

     negative rho (up, down):  4.305E-04 0.000E+00

     Forces acting on atoms (cartesian axes, Ry/au):

     atom    1 type  1   force =    -0.01717848   -0.01543863    0.00884493
     atom    2 type  1   force =     0.01722654    0.04492927    0.02131911
     atom    3 type  2   force =    -0.02498241    0.03238741   -0.04428370
     atom    4 type  2   force =     0.04588299   -0.05556657    0.00315385
     atom    5 type  2   force =    -0.02106759   -0.00746529    0.01061158
     atom    6 type  1   force =    -0.00123441   -0.03997678   -0.00438088
     atom    7 type  1   force =    -0.01116130    0.04919785    0.00429789
     atom    8 type  2   force =    -0.01487764    0.01465950   -0.01149858
     atom    9 type  2   force =     0.02520268    0.00815177   -0.00160605
     atom   10 type  2   force =     0.00218963   -0.03087854    0.01354185
     The non-local contrib.  to forces
     atom    1 type  1   force =     0.27190904    0.22624149   -0.02898015
     atom    2 type  1   force =     0.27469983   -0.03221831   -0.19821490
     atom    3 type  2   force =    -0.09231402    0.48808364   -1.10185934
     atom    4 type  2   force =     1.09126168    0.14546796   -0.19443574
     atom    5 type  2   force =     0.00983461   -0.42435252    0.95465111
     atom    6 type  1   force =     0.22071221    0.16595426    0.09242832
     atom    7 type  1   force =     0.17035917   -0.10124427   -0.07713038
     atom    8 type  2   force =    -0.12870281    0.44823986   -0.94597670
     atom    9 type  2   force =     1.10527020    0.14335385    0.01670581
     atom   10 type  2   force =    -0.07347973   -0.47774323    0.97812304
     The ionic contribution  to forces
     atom    1 type  1   force =     2.06749598   11.77309747  -87.28864582
     atom    2 type  1   force =     3.47899713   -9.52817316 -134.35275796
     atom    3 type  2   force =    -0.08723241   -1.62337468  -14.65471826
     atom    4 type  2   force =    -4.82344322   -2.12214226  -47.90846915
     atom    5 type  2   force =    -0.67625549    2.32275515  -85.62456814
     atom    6 type  1   force =     2.28250101   10.26997356  132.50554693
     atom    7 type  1   force =     2.44677069  -10.21820696   86.38860156
     atom    8 type  2   force =     0.14573492   -2.18860139   85.42142846
     atom    9 type  2   force =    -5.09468586   -0.02343476   49.42213926
     atom   10 type  2   force =     0.26011725    1.33810704   16.09144312
     The local contribution  to forces
     atom    1 type  1   force =    -2.35464394  -12.01394079   87.32615431
     atom    2 type  1   force =    -3.73327605    9.60924036  134.57094589
     atom    3 type  2   force =     0.15344859    1.17233544   15.70285010
     atom    4 type  2   force =     3.78826008    1.92191009   48.10436824
     atom    5 type  2   force =     0.64513834   -1.90975093   84.68829053
     atom    6 type  1   force =    -2.50313856  -10.47769976 -132.60183022
     atom    7 type  1   force =    -2.62817754   10.37188136  -86.30774694
     atom    8 type  2   force =    -0.03328343    1.75917913  -84.49466597
     atom    9 type  2   force =     4.02476328   -0.11038917  -49.44035173
     atom   10 type  2   force =    -0.18518047   -0.89579744  -17.04799907
     The core correction contribution to forces
     atom    1 type  1   force =    -0.00194951   -0.00089285    0.00022644
     atom    2 type  1   force =    -0.00319238   -0.00380821    0.00126429
     atom    3 type  2   force =     0.00111756   -0.00466455    0.00942698
     atom    4 type  2   force =    -0.01019940   -0.00079546    0.00169410
     atom    5 type  2   force =     0.00021953    0.00389452   -0.00778943
     atom    6 type  1   force =    -0.00131146    0.00175702   -0.00054102
     atom    7 type  1   force =    -0.00009648   -0.00322509    0.00055175
     atom    8 type  2   force =     0.00137640   -0.00416590    0.00772004
     atom    9 type  2   force =    -0.01014265   -0.00137828   -0.00011541
     atom   10 type  2   force =     0.00072965    0.00455370   -0.00802373
     The Hubbard contrib.    to forces
     atom    1 type  1   force =     0.00000000    0.00000000    0.00000000
     atom    2 type  1   force =     0.00000000    0.00000000    0.00000000
     atom    3 type  2   force =     0.00000000    0.00000000    0.00000000
     atom    4 type  2   force =     0.00000000    0.00000000    0.00000000
     atom    5 type  2   force =     0.00000000    0.00000000    0.00000000
     atom    6 type  1   force =     0.00000000    0.00000000    0.00000000
     atom    7 type  1   force =     0.00000000    0.00000000    0.00000000
     atom    8 type  2   force =     0.00000000    0.00000000    0.00000000
     atom    9 type  2   force =     0.00000000    0.00000000    0.00000000
     atom   10 type  2   force =     0.00000000    0.00000000    0.00000000
     The SCF correction term to forces
     atom    1 type  1   force =     0.00001096    0.00005576    0.00010247
     atom    2 type  1   force =    -0.00000098   -0.00011170    0.00009410
     atom    3 type  2   force =    -0.00000112    0.00000727    0.00002913
     atom    4 type  2   force =     0.00000486   -0.00000719    0.00000871
     atom    5 type  2   force =    -0.00000357   -0.00001181    0.00003982
     atom    6 type  1   force =     0.00000340    0.00003785    0.00002741
     atom    7 type  1   force =    -0.00001613   -0.00000749    0.00003420
     atom    8 type  2   force =    -0.00000171    0.00000751    0.00000791
     atom    9 type  2   force =    -0.00000128   -0.00000017    0.00002833
     atom   10 type  2   force =     0.00000394    0.00000111    0.00001080

     Total force =     0.139382     Total SCF correction =     0.000206


     Computing stress (Cartesian axis) and pressure


     negative rho (up, down):  4.305E-04 0.000E+00
          total   stress  (Ry/bohr**3)                   (kbar)     P=      -24.55
  -0.00021471   0.00001676  -0.00001523          -31.58        2.47       -2.24
   0.00001676  -0.00023888   0.00001612            2.47      -35.14        2.37
  -0.00001523   0.00001612  -0.00004715           -2.24        2.37       -6.94

     kinetic stress (kbar)   4724.25      5.64     -2.37
                                5.64   4722.98     -2.48
                               -2.37     -2.48   4786.69

     local   stress (kbar)-497098.31   -116.77     21.42
                             -116.77-493708.75   -658.55
                               21.42   -658.55 494713.88

     nonloc. stress (kbar)    -61.72     -1.67     -0.34
                               -1.67    -82.02     15.96
                               -0.34     15.96     36.38

     hartree stress (kbar) 250692.31     56.41     -9.66
                               56.41 249039.74    318.87
                               -9.66    318.87-241452.86

     exc-cor stress (kbar)    602.27     -0.02      0.04
                               -0.02    603.21     -0.85
                                0.04     -0.85    593.67

     corecor stress (kbar)  -2383.45     -0.04      0.01
                               -0.04  -2383.58      0.14
                                0.01      0.14  -2383.21

     ewald   stress (kbar) 243493.07     58.90    -11.35
                               58.90 241773.28    329.29
                              -11.35    329.29-256301.48

     hubbard stress (kbar)      0.00      0.00      0.00
                                0.00      0.00      0.00
                                0.00      0.00      0.00

     DFT-D   stress (kbar)      0.00      0.00      0.00
                                0.00      0.00      0.00
                                0.00      0.00      0.00

     XDM     stress (kbar)      0.00      0.00      0.00
                                0.00      0.00      0.00
                                0.00      0.00      0.00

     dft-nl  stress (kbar)      0.00      0.00      0.00
                                0.00      0.00      0.00
                                0.00      0.00      0.00

     TS-vdW  stress (kbar)      0.00      0.00      0.00
                                0.00      0.00      0.00
                                0.00      0.00      0.00


                                0.00      0.00      0.00
                                0.00      0.00      0.00


                                0.00      0.00      0.00


     Entering Dynamics:    iteration =    13
                           time      =   0.0126 pico-seconds


     Canonical sampling velocity rescaling

ATOMIC_POSITIONS (crystal)
Ga            0.8330764265        0.7174962163        0.4261777938
Ga            0.5084611726        0.3005665567        0.3992750491
O             0.4125510135        0.5578477018        0.4491191646
O             0.4308788593        0.0173969720        0.4151744009
O             0.9487216873        0.4522725984        0.3790250299
Ga            0.8216058820        0.7221040616        0.5997620013
Ga            0.5155801836        0.3003423936        0.5737469901
O             0.3872360653        0.5714402766        0.6204394923
O             0.4594863045        0.0061486342        0.5859666615
O             0.9335004320        0.4577616125        0.5535982029


     kinetic energy (Ekin) =           0.03875220 Ry
     temperature           =         453.22139024 K 
     Ekin + Etot (const)   =       -1361.92143781 Ry
     Ions kinetic stress =            1.02 (kbar)
                                      1.25           0.14           0.06
                                      0.14           0.24          -0.29
                                      0.06          -0.29           1.57



     Linear momentum :    0.0000000000    0.0000000000   -0.0000000000

     Writing config-only to output data dir ./tmp/Ga2O3-BL-001-300K.save/

     second order wave-functions extrapolation
     second order charge density extrapolation

     negative rho (up, down):  4.301E-04 0.000E+00

     total cpu time spent up to now is      748.8 secs

     Self-consistent Calculation

     iteration #  1     ecut=    80.00 Ry     beta= 0.20
     Davidson diagonalization with overlap

---- Real-time Memory Report at c_bands before calling an iterative solver
           314 MiB given to the printing process from OS
             0 MiB allocation reported by mallinfo(arena+hblkhd)
        367107 MiB available memory on the node where the printing process lives
------------------
     ethr =  1.00E-06,  avg # of iterations =  2.0

     Threshold (ethr) on eigenvalues was too large:
     Diagonalizing with lowered threshold

     Davidson diagonalization with overlap

---- Real-time Memory Report at c_bands before calling an iterative solver
           314 MiB given to the printing process from OS
             0 MiB allocation reported by mallinfo(arena+hblkhd)
        367107 MiB available memory on the node where the printing process lives
------------------
     ethr =  5.92E-10,  avg # of iterations =  7.9

     negative rho (up, down):  4.298E-04 0.000E+00

     total cpu time spent up to now is      753.9 secs

     total energy              =   -1361.96200461 Ry
     estimated scf accuracy    <       0.00000124 Ry

     iteration #  2     ecut=    80.00 Ry     beta= 0.20
     Davidson diagonalization with overlap

---- Real-time Memory Report at c_bands before calling an iterative solver
           314 MiB given to the printing process from OS
             0 MiB allocation reported by mallinfo(arena+hblkhd)
        367108 MiB available memory on the node where the printing process lives
------------------
     ethr =  1.41E-09,  avg # of iterations =  3.0

     negative rho (up, down):  4.296E-04 0.000E+00

     total cpu time spent up to now is      755.8 secs

     total energy              =   -1361.96200438 Ry
     estimated scf accuracy    <       0.00000044 Ry

     iteration #  3     ecut=    80.00 Ry     beta= 0.20
     Davidson diagonalization with overlap

---- Real-time Memory Report at c_bands before calling an iterative solver
           314 MiB given to the printing process from OS
             0 MiB allocation reported by mallinfo(arena+hblkhd)
        367115 MiB available memory on the node where the printing process lives
------------------
     ethr =  5.04E-10,  avg # of iterations = 11.2

     negative rho (up, down):  4.294E-04 0.000E+00

     total cpu time spent up to now is      759.7 secs

     total energy              =   -1361.96200471 Ry
     estimated scf accuracy    <       0.00000200 Ry

     iteration #  4     ecut=    80.00 Ry     beta= 0.20
     Davidson diagonalization with overlap

---- Real-time Memory Report at c_bands before calling an iterative solver
           314 MiB given to the printing process from OS
             0 MiB allocation reported by mallinfo(arena+hblkhd)
        367112 MiB available memory on the node where the printing process lives
------------------
     ethr =  5.04E-10,  avg # of iterations =  7.1

     negative rho (up, down):  4.293E-04 0.000E+00

     total cpu time spent up to now is      762.4 secs

     total energy              =   -1361.96200491 Ry
     estimated scf accuracy    <       0.00000038 Ry

     iteration #  5     ecut=    80.00 Ry     beta= 0.20
     Davidson diagonalization with overlap

---- Real-time Memory Report at c_bands before calling an iterative solver
           314 MiB given to the printing process from OS
             0 MiB allocation reported by mallinfo(arena+hblkhd)
        367112 MiB available memory on the node where the printing process lives
------------------
     ethr =  4.36E-10,  avg # of iterations =  1.4

     negative rho (up, down):  4.292E-04 0.000E+00

     total cpu time spent up to now is      764.1 secs

     total energy              =   -1361.96200489 Ry
     estimated scf accuracy    <       0.00000048 Ry

     iteration #  6     ecut=    80.00 Ry     beta= 0.20
     Davidson diagonalization with overlap

---- Real-time Memory Report at c_bands before calling an iterative solver
           314 MiB given to the printing process from OS
             0 MiB allocation reported by mallinfo(arena+hblkhd)
        367108 MiB available memory on the node where the printing process lives
------------------
     ethr =  4.36E-10,  avg # of iterations =  1.8

     negative rho (up, down):  4.291E-04 0.000E+00

     total cpu time spent up to now is      765.9 secs

     total energy              =   -1361.96200482 Ry
     estimated scf accuracy    <       0.00000043 Ry

     iteration #  7     ecut=    80.00 Ry     beta= 0.20
     Davidson diagonalization with overlap

---- Real-time Memory Report at c_bands before calling an iterative solver
           314 MiB given to the printing process from OS
             0 MiB allocation reported by mallinfo(arena+hblkhd)
        367111 MiB available memory on the node where the printing process lives
------------------
     ethr =  4.36E-10,  avg # of iterations =  7.0

     negative rho (up, down):  4.291E-04 0.000E+00

     total cpu time spent up to now is      768.3 secs

     total energy              =   -1361.96200487 Ry
     estimated scf accuracy    <       0.00000032 Ry

     iteration #  8     ecut=    80.00 Ry     beta= 0.20
     Davidson diagonalization with overlap

---- Real-time Memory Report at c_bands before calling an iterative solver
           314 MiB given to the printing process from OS
             0 MiB allocation reported by mallinfo(arena+hblkhd)
        367100 MiB available memory on the node where the printing process lives
------------------
     ethr =  3.64E-10,  avg # of iterations =  2.0

     negative rho (up, down):  4.290E-04 0.000E+00

     total cpu time spent up to now is      770.2 secs

     total energy              =   -1361.96200488 Ry
     estimated scf accuracy    <       0.00000031 Ry

     iteration #  9     ecut=    80.00 Ry     beta= 0.20
     Davidson diagonalization with overlap

---- Real-time Memory Report at c_bands before calling an iterative solver
           314 MiB given to the printing process from OS
             0 MiB allocation reported by mallinfo(arena+hblkhd)
        367109 MiB available memory on the node where the printing process lives
------------------
     ethr =  3.53E-10,  avg # of iterations =  1.6

     negative rho (up, down):  4.290E-04 0.000E+00

     total cpu time spent up to now is      771.9 secs

     total energy              =   -1361.96200489 Ry
     estimated scf accuracy    <       0.00000032 Ry

     iteration # 10     ecut=    80.00 Ry     beta= 0.20
     Davidson diagonalization with overlap

---- Real-time Memory Report at c_bands before calling an iterative solver
           314 MiB given to the printing process from OS
             0 MiB allocation reported by mallinfo(arena+hblkhd)
        367110 MiB available memory on the node where the printing process lives
------------------
     ethr =  3.53E-10,  avg # of iterations =  1.4

     negative rho (up, down):  4.289E-04 0.000E+00

     total cpu time spent up to now is      773.7 secs

     total energy              =   -1361.96200488 Ry
     estimated scf accuracy    <       0.00000033 Ry

     iteration # 11     ecut=    80.00 Ry     beta= 0.20
     Davidson diagonalization with overlap

---- Real-time Memory Report at c_bands before calling an iterative solver
           314 MiB given to the printing process from OS
             0 MiB allocation reported by mallinfo(arena+hblkhd)
        367110 MiB available memory on the node where the printing process lives
------------------
     ethr =  3.53E-10,  avg # of iterations =  1.1

     negative rho (up, down):  4.289E-04 0.000E+00

     total cpu time spent up to now is      775.4 secs

     total energy              =   -1361.96200486 Ry
     estimated scf accuracy    <       0.00000031 Ry

     iteration # 12     ecut=    80.00 Ry     beta= 0.20
     Davidson diagonalization with overlap

---- Real-time Memory Report at c_bands before calling an iterative solver
           314 MiB given to the printing process from OS
             0 MiB allocation reported by mallinfo(arena+hblkhd)
        367114 MiB available memory on the node where the printing process lives
------------------
     ethr =  3.50E-10,  avg # of iterations =  1.4

     negative rho (up, down):  4.289E-04 0.000E+00

     total cpu time spent up to now is      777.1 secs

     total energy              =   -1361.96200476 Ry
     estimated scf accuracy    <       0.00000023 Ry

     iteration # 13     ecut=    80.00 Ry     beta= 0.20
     Davidson diagonalization with overlap

---- Real-time Memory Report at c_bands before calling an iterative solver
           314 MiB given to the printing process from OS
             0 MiB allocation reported by mallinfo(arena+hblkhd)
        367102 MiB available memory on the node where the printing process lives
------------------
     ethr =  2.67E-10,  avg # of iterations =  7.1

     negative rho (up, down):  4.289E-04 0.000E+00

     total cpu time spent up to now is      780.0 secs

     total energy              =   -1361.96200480 Ry
     estimated scf accuracy    <       0.00000017 Ry

     iteration # 14     ecut=    80.00 Ry     beta= 0.20
     Davidson diagonalization with overlap

---- Real-time Memory Report at c_bands before calling an iterative solver
           314 MiB given to the printing process from OS
             0 MiB allocation reported by mallinfo(arena+hblkhd)
        367101 MiB available memory on the node where the printing process lives
------------------
     ethr =  1.88E-10,  avg # of iterations =  6.4

     negative rho (up, down):  4.289E-04 0.000E+00

     total cpu time spent up to now is      782.4 secs

     total energy              =   -1361.96200482 Ry
     estimated scf accuracy    <       0.00000002 Ry

     iteration # 15     ecut=    80.00 Ry     beta= 0.20
     Davidson diagonalization with overlap

---- Real-time Memory Report at c_bands before calling an iterative solver
           314 MiB given to the printing process from OS
             0 MiB allocation reported by mallinfo(arena+hblkhd)
        367101 MiB available memory on the node where the printing process lives
------------------
     ethr =  1.95E-11,  avg # of iterations = 10.0

     negative rho (up, down):  4.288E-04 0.000E+00

     total cpu time spent up to now is      786.1 secs

     total energy              =   -1361.96200484 Ry
     estimated scf accuracy    <       0.00000001 Ry

     iteration # 16     ecut=    80.00 Ry     beta= 0.20
     Davidson diagonalization with overlap

---- Real-time Memory Report at c_bands before calling an iterative solver
           314 MiB given to the printing process from OS
             0 MiB allocation reported by mallinfo(arena+hblkhd)
        367101 MiB available memory on the node where the printing process lives
------------------
     ethr =  1.51E-11,  avg # of iterations =  3.6

     negative rho (up, down):  4.288E-04 0.000E+00

     total cpu time spent up to now is      788.2 secs

     End of self-consistent calculation

          k = 0.0000 0.0000 0.0000 ( 45065 PWs)   bands (ev):

   -24.6848 -24.4526 -23.7843 -23.6096 -23.5911 -23.3311 -20.1910 -20.1261
   -20.0863 -20.0597 -20.0404 -19.9748 -19.9389 -19.8533 -19.8328 -19.7037
   -19.6665 -19.6451 -19.6316 -19.5822 -19.5732 -19.4857 -19.4714 -19.4593
   -19.0539 -19.0106 -12.6873 -12.5393 -10.3054  -9.8529  -9.5043  -9.2849
    -8.7867  -8.3881  -8.3412  -8.1894  -8.1480  -8.0807  -7.8637  -7.8429
    -7.7612  -7.4762  -7.4464  -7.0494

     occupation numbers 
     1.0000   1.0000   1.0000   1.0000   1.0000   1.0000   1.0000   1.0000
     1.0000   1.0000   1.0000   1.0000   1.0000   1.0000   1.0000   1.0000
     1.0000   1.0000   1.0000   1.0000   1.0000   1.0000   1.0000   1.0000
     1.0000   1.0000   1.0000   1.0000   1.0000   1.0000   1.0000   1.0000
     1.0000   1.0000   1.0000   1.0000   1.0000   1.0000   1.0000   1.0000
     1.0000   1.0000   1.0000   1.0000

          k =-0.0062 0.1431 0.0000 ( 45113 PWs)   bands (ev):

   -24.6254 -24.3677 -23.9038 -23.7633 -23.5425 -23.2708 -20.1717 -20.1235
   -20.0883 -20.0647 -20.0410 -19.9663 -19.9318 -19.8496 -19.8048 -19.7067
   -19.6865 -19.6456 -19.6308 -19.5732 -19.5598 -19.5563 -19.4630 -19.4522
   -19.1246 -19.0055 -12.2972 -12.1355 -10.4175  -9.9724  -9.7789  -9.6025
    -9.2463  -8.8729  -8.3532  -8.1463  -8.0955  -7.8934  -7.8503  -7.6737
    -7.5575  -7.4651  -7.3771  -7.0827

     occupation numbers 
     1.0000   1.0000   1.0000   1.0000   1.0000   1.0000   1.0000   1.0000
     1.0000   1.0000   1.0000   1.0000   1.0000   1.0000   1.0000   1.0000
     1.0000   1.0000   1.0000   1.0000   1.0000   1.0000   1.0000   1.0000
     1.0000   1.0000   1.0000   1.0000   1.0000   1.0000   1.0000   1.0000
     1.0000   1.0000   1.0000   1.0000   1.0000   1.0000   1.0000   1.0000
     1.0000   1.0000   1.0000   1.0000

          k = 0.0124-0.2862 0.0000 ( 45174 PWs)   bands (ev):

   -24.5494 -24.2252 -24.0180 -23.9539 -23.5129 -23.2343 -20.1593 -20.1149
   -20.0937 -20.0629 -20.0375 -19.9518 -19.9273 -19.8473 -19.7735 -19.7112
   -19.7000 -19.6508 -19.6333 -19.6272 -19.5583 -19.5505 -19.4537 -19.4463
   -19.2037 -18.9995 -11.6247 -11.4579 -10.7860 -10.4101 -10.2532 -10.0269
    -9.3562  -9.0410  -8.4409  -8.1747  -8.1000  -7.7765  -7.7294  -7.5601
    -7.4805  -7.4388  -7.1977  -7.1382

     occupation numbers 
     1.0000   1.0000   1.0000   1.0000   1.0000   1.0000   1.0000   1.0000
     1.0000   1.0000   1.0000   1.0000   1.0000   1.0000   1.0000   1.0000
     1.0000   1.0000   1.0000   1.0000   1.0000   1.0000   1.0000   1.0000
     1.0000   1.0000   1.0000   1.0000   1.0000   1.0000   1.0000   1.0000
     1.0000   1.0000   1.0000   1.0000   1.0000   1.0000   1.0000   1.0000
     1.0000   1.0000   1.0000   1.0000

          k = 0.1684-0.0368 0.0000 ( 45086 PWs)   bands (ev):

   -24.5585 -24.3180 -23.7856 -23.6096 -23.5825 -23.3271 -20.1868 -20.1220
   -20.0966 -20.0495 -20.0173 -19.9702 -19.9176 -19.8529 -19.8213 -19.7079
   -19.6765 -19.6321 -19.6203 -19.5810 -19.5421 -19.4655 -19.4630 -19.3865
   -19.0147 -18.9652 -12.5546 -12.4108 -10.5320 -10.2213 -10.1142  -9.9431
    -9.2018  -8.8470  -8.6058  -8.3264  -8.2805  -8.0822  -8.0301  -7.8658
    -7.7654  -7.5837  -7.3030  -6.8939

     occupation numbers 
     1.0000   1.0000   1.0000   1.0000   1.0000   1.0000   1.0000   1.0000
     1.0000   1.0000   1.0000   1.0000   1.0000   1.0000   1.0000   1.0000
     1.0000   1.0000   1.0000   1.0000   1.0000   1.0000   1.0000   1.0000
     1.0000   1.0000   1.0000   1.0000   1.0000   1.0000   1.0000   1.0000
     1.0000   1.0000   1.0000   1.0000   1.0000   1.0000   1.0000   1.0000
     1.0000   1.0000   1.0000   1.0000

          k = 0.1622 0.1063 0.0000 ( 45049 PWs)   bands (ev):

   -24.5375 -24.2863 -23.8266 -23.6651 -23.5665 -23.3061 -20.1872 -20.1187
   -20.0849 -20.0443 -20.0271 -19.9712 -19.9168 -19.8399 -19.8104 -19.7118
   -19.6789 -19.6376 -19.6215 -19.5740 -19.5395 -19.5128 -19.4581 -19.3739
   -19.0793 -18.9238 -12.4119 -12.2758 -10.6837 -10.2169 -10.1307  -9.8987
    -9.3186  -9.0406  -8.6667  -8.4069  -8.2994  -8.0167  -7.9563  -7.8586
    -7.6962  -7.5344  -7.3086  -6.9000

     occupation numbers 
     1.0000   1.0000   1.0000   1.0000   1.0000   1.0000   1.0000   1.0000
     1.0000   1.0000   1.0000   1.0000   1.0000   1.0000   1.0000   1.0000
     1.0000   1.0000   1.0000   1.0000   1.0000   1.0000   1.0000   1.0000
     1.0000   1.0000   1.0000   1.0000   1.0000   1.0000   1.0000   1.0000
     1.0000   1.0000   1.0000   1.0000   1.0000   1.0000   1.0000   1.0000
     1.0000   1.0000   1.0000   1.0000

          k = 0.1808-0.3231 0.0000 ( 45092 PWs)   bands (ev):

   -24.4557 -24.1347 -23.9437 -23.8682 -23.5403 -23.2674 -20.1698 -20.1156
   -20.0740 -20.0550 -20.0141 -19.9649 -19.9125 -19.8206 -19.7786 -19.7071
   -19.6918 -19.6390 -19.6384 -19.6220 -19.5640 -19.5377 -19.4248 -19.3486
   -19.2075 -18.8992 -11.7418 -11.5778 -11.0505 -10.6891 -10.2200  -9.9509
    -9.7135  -9.4554  -8.8742  -8.6042  -8.2319  -7.9994  -7.8837  -7.6877
    -7.5542  -7.3329  -7.2742  -6.9157

     occupation numbers 
     1.0000   1.0000   1.0000   1.0000   1.0000   1.0000   1.0000   1.0000
     1.0000   1.0000   1.0000   1.0000   1.0000   1.0000   1.0000   1.0000
     1.0000   1.0000   1.0000   1.0000   1.0000   1.0000   1.0000   1.0000
     1.0000   1.0000   1.0000   1.0000   1.0000   1.0000   1.0000   1.0000
     1.0000   1.0000   1.0000   1.0000   1.0000   1.0000   1.0000   1.0000
     1.0000   1.0000   1.0000   1.0000

          k = 0.1746-0.1799 0.0000 ( 45085 PWs)   bands (ev):

   -24.4843 -24.1985 -23.9027 -23.7889 -23.5500 -23.2791 -20.1668 -20.1097
   -20.0978 -20.0570 -20.0124 -19.9616 -19.9131 -19.8442 -19.7909 -19.7043
   -19.6862 -19.6364 -19.6219 -19.5882 -19.5718 -19.5370 -19.4370 -19.3515
   -19.1621 -18.9138 -12.0365 -11.8467 -10.7526 -10.4848 -10.2797  -9.9364
    -9.6415  -9.3379  -8.7950  -8.5408  -8.2232  -8.0300  -7.9099  -7.6699
    -7.6204  -7.3945  -7.3179  -6.9094

     occupation numbers 
     1.0000   1.0000   1.0000   1.0000   1.0000   1.0000   1.0000   1.0000
     1.0000   1.0000   1.0000   1.0000   1.0000   1.0000   1.0000   1.0000
     1.0000   1.0000   1.0000   1.0000   1.0000   1.0000   1.0000   1.0000
     1.0000   1.0000   1.0000   1.0000   1.0000   1.0000   1.0000   1.0000
     1.0000   1.0000   1.0000   1.0000   1.0000   1.0000   1.0000   1.0000
     1.0000   1.0000   1.0000   1.0000

          k = 0.3368-0.0737 0.0000 ( 45074 PWs)   bands (ev):

   -24.2716 -24.0003 -23.7766 -23.6039 -23.5927 -23.3791 -20.1542 -20.1243
   -20.0842 -20.0537 -19.9693 -19.9529 -19.8928 -19.8078 -19.7828 -19.6975
   -19.6654 -19.6481 -19.5810 -19.5644 -19.5090 -19.4729 -19.4051 -19.2265
   -19.0534 -18.8008 -12.5295 -12.3509 -11.5194 -11.2033 -10.7046 -10.3901
    -9.6019  -9.3174  -8.8640  -8.5796  -8.5008  -8.3659  -8.0569  -7.7425
    -7.6753  -7.5544  -7.3690  -6.9482

     occupation numbers 
     1.0000   1.0000   1.0000   1.0000   1.0000   1.0000   1.0000   1.0000
     1.0000   1.0000   1.0000   1.0000   1.0000   1.0000   1.0000   1.0000
     1.0000   1.0000   1.0000   1.0000   1.0000   1.0000   1.0000   1.0000
     1.0000   1.0000   1.0000   1.0000   1.0000   1.0000   1.0000   1.0000
     1.0000   1.0000   1.0000   1.0000   1.0000   1.0000   1.0000   1.0000
     1.0000   1.0000   1.0000   1.0000

          k = 0.3306 0.0695 0.0000 ( 45046 PWs)   bands (ev):

   -24.2781 -24.0118 -23.7806 -23.5934 -23.5818 -23.3766 -20.1705 -20.1254
   -20.0740 -20.0331 -19.9753 -19.9543 -19.8934 -19.8081 -19.7839 -19.6980
   -19.6717 -19.6569 -19.5780 -19.5514 -19.5189 -19.4533 -19.4136 -19.2465
   -19.0161 -18.8131 -12.5608 -12.4169 -11.5891 -11.1598 -10.6416 -10.4237
    -9.5437  -9.3012  -8.8417  -8.5148  -8.4653  -8.2991  -8.1211  -7.7904
    -7.6861  -7.5911  -7.3585  -6.9493

     occupation numbers 
     1.0000   1.0000   1.0000   1.0000   1.0000   1.0000   1.0000   1.0000
     1.0000   1.0000   1.0000   1.0000   1.0000   1.0000   1.0000   1.0000
     1.0000   1.0000   1.0000   1.0000   1.0000   1.0000   1.0000   1.0000
     1.0000   1.0000   1.0000   1.0000   1.0000   1.0000   1.0000   1.0000
     1.0000   1.0000   1.0000   1.0000   1.0000   1.0000   1.0000   1.0000
     1.0000   1.0000   1.0000   1.0000

          k = 0.3492-0.3599 0.0000 ( 45085 PWs)   bands (ev):

   -24.2327 -23.9093 -23.8182 -23.7039 -23.6022 -23.3654 -20.1575 -20.1238
   -20.0717 -20.0163 -19.9760 -19.9472 -19.8945 -19.7661 -19.7569 -19.6981
   -19.6766 -19.6581 -19.6114 -19.5754 -19.5546 -19.5201 -19.3653 -19.1971
   -19.1685 -18.7540 -12.2502 -12.0636 -11.8350 -11.4620 -10.3695 -10.1497
    -9.7231  -9.5450  -9.0121  -8.7094  -8.6375  -8.3434  -8.1198  -7.7438
    -7.6497  -7.3873  -7.3321  -6.9635

     occupation numbers 
     1.0000   1.0000   1.0000   1.0000   1.0000   1.0000   1.0000   1.0000
     1.0000   1.0000   1.0000   1.0000   1.0000   1.0000   1.0000   1.0000
     1.0000   1.0000   1.0000   1.0000   1.0000   1.0000   1.0000   1.0000
     1.0000   1.0000   1.0000   1.0000   1.0000   1.0000   1.0000   1.0000
     1.0000   1.0000   1.0000   1.0000   1.0000   1.0000   1.0000   1.0000
     1.0000   1.0000   1.0000   1.0000

          k = 0.3430-0.2168 0.0000 ( 45092 PWs)   bands (ev):

   -24.2250 -23.8827 -23.8164 -23.7297 -23.6120 -23.3676 -20.1442 -20.1167
   -20.0804 -20.0447 -19.9674 -19.9434 -19.8936 -19.7685 -19.7591 -19.7001
   -19.6639 -19.6512 -19.6222 -19.5804 -19.5595 -19.5125 -19.3385 -19.2192
   -19.1852 -18.7492 -12.2316 -11.9363 -11.7580 -11.5514 -10.3731 -10.0723
    -9.8943  -9.6579  -9.0263  -8.7703  -8.5782  -8.2507  -8.1419  -7.8216
    -7.5616  -7.4043  -7.3127  -6.9696

     occupation numbers 
     1.0000   1.0000   1.0000   1.0000   1.0000   1.0000   1.0000   1.0000
     1.0000   1.0000   1.0000   1.0000   1.0000   1.0000   1.0000   1.0000
     1.0000   1.0000   1.0000   1.0000   1.0000   1.0000   1.0000   1.0000
     1.0000   1.0000   1.0000   1.0000   1.0000   1.0000   1.0000   1.0000
     1.0000   1.0000   1.0000   1.0000   1.0000   1.0000   1.0000   1.0000
     1.0000   1.0000   1.0000   1.0000

          k =-0.5052 0.1105 0.0000 ( 45134 PWs)   bands (ev):

   -24.0898 -23.7777 -23.7760 -23.6395 -23.5390 -23.5152 -20.1440 -20.1144
   -20.0882 -20.0426 -19.9565 -19.9305 -19.8842 -19.7604 -19.7251 -19.7083
   -19.6716 -19.6148 -19.5674 -19.5567 -19.5382 -19.4763 -19.3234 -19.1457
   -19.1402 -18.7132 -12.6568 -12.4070 -12.1093 -11.8430 -10.4903 -10.2177
    -9.9124  -9.6125  -9.0395  -8.7602  -8.3864  -8.1887  -8.0847  -7.7737
    -7.6988  -7.5157  -7.3985  -7.1893

     occupation numbers 
     1.0000   1.0000   1.0000   1.0000   1.0000   1.0000   1.0000   1.0000
     1.0000   1.0000   1.0000   1.0000   1.0000   1.0000   1.0000   1.0000
     1.0000   1.0000   1.0000   1.0000   1.0000   1.0000   1.0000   1.0000
     1.0000   1.0000   1.0000   1.0000   1.0000   1.0000   1.0000   1.0000
     1.0000   1.0000   1.0000   1.0000   1.0000   1.0000   1.0000   1.0000
     1.0000   1.0000   1.0000   1.0000

          k =-0.5114 0.2536 0.0000 ( 45094 PWs)   bands (ev):

   -24.0850 -23.7901 -23.7649 -23.6322 -23.5694 -23.4958 -20.1454 -20.1305
   -20.0819 -20.0136 -19.9676 -19.9181 -19.8735 -19.7537 -19.7354 -19.7081
   -19.6708 -19.6385 -19.5733 -19.5568 -19.5293 -19.4888 -19.3216 -19.1434
   -19.1428 -18.7117 -12.6400 -12.3880 -12.1594 -11.8723 -10.3802 -10.1468
   -10.0086  -9.7451  -8.8483  -8.6349  -8.5447  -8.1956  -8.0241  -7.8660
    -7.7087  -7.4905  -7.4277  -7.1938

     occupation numbers 
     1.0000   1.0000   1.0000   1.0000   1.0000   1.0000   1.0000   1.0000
     1.0000   1.0000   1.0000   1.0000   1.0000   1.0000   1.0000   1.0000
     1.0000   1.0000   1.0000   1.0000   1.0000   1.0000   1.0000   1.0000
     1.0000   1.0000   1.0000   1.0000   1.0000   1.0000   1.0000   1.0000
     1.0000   1.0000   1.0000   1.0000   1.0000   1.0000   1.0000   1.0000
     1.0000   1.0000   1.0000   1.0000

          k =-0.4929-0.1758 0.0000 ( 45008 PWs)   bands (ev):

   -24.0800 -23.8020 -23.7516 -23.6258 -23.5920 -23.4862 -20.1538 -20.1331
   -20.0785 -19.9778 -19.9712 -19.9240 -19.8591 -19.7529 -19.7482 -19.7055
   -19.6713 -19.6508 -19.5712 -19.5652 -19.5166 -19.5153 -19.3212 -19.1460
   -19.1345 -18.7112 -12.6177 -12.3683 -12.2136 -11.9046 -10.4426 -10.1963
    -9.7668  -9.6253  -8.9017  -8.6420  -8.6141  -8.3372  -8.0801  -7.8329
    -7.6576  -7.4671  -7.4087  -7.1894

     occupation numbers 
     1.0000   1.0000   1.0000   1.0000   1.0000   1.0000   1.0000   1.0000
     1.0000   1.0000   1.0000   1.0000   1.0000   1.0000   1.0000   1.0000
     1.0000   1.0000   1.0000   1.0000   1.0000   1.0000   1.0000   1.0000
     1.0000   1.0000   1.0000   1.0000   1.0000   1.0000   1.0000   1.0000
     1.0000   1.0000   1.0000   1.0000   1.0000   1.0000   1.0000   1.0000
     1.0000   1.0000   1.0000   1.0000

     highest occupied level (ev):    -6.8939

!    total energy              =   -1361.96200484 Ry
     estimated scf accuracy    <          5.6E-09 Ry

     convergence has been achieved in  16 iterations

     negative rho (up, down):  4.288E-04 0.000E+00

     Forces acting on atoms (cartesian axes, Ry/au):

     atom    1 type  1   force =    -0.01599899   -0.01437349    0.00942213
     atom    2 type  1   force =     0.01987866    0.04495007    0.02265179
     atom    3 type  2   force =    -0.02658461    0.03244200   -0.04225781
     atom    4 type  2   force =     0.04489391   -0.05748385    0.00285301
     atom    5 type  2   force =    -0.02226014   -0.00677449    0.00687967
     atom    6 type  1   force =     0.00027025   -0.04022909   -0.00438180
     atom    7 type  1   force =    -0.01014106    0.05096447    0.00454085
     atom    8 type  2   force =    -0.01539814    0.01412031   -0.00785582
     atom    9 type  2   force =     0.02266302    0.00763744   -0.00154156
     atom   10 type  2   force =     0.00267709   -0.03125337    0.00968955
     The non-local contrib.  to forces
     atom    1 type  1   force =     0.27510085    0.22586684   -0.03144170
     atom    2 type  1   force =     0.27523710   -0.02896179   -0.20943915
     atom    3 type  2   force =    -0.09061215    0.49185409   -1.09439448
     atom    4 type  2   force =     1.08968757    0.14450140   -0.20883429
     atom    5 type  2   force =     0.01710324   -0.42404873    0.93824089
     atom    6 type  1   force =     0.21781498    0.16522821    0.09614981
     atom    7 type  1   force =     0.16547971   -0.09786406   -0.08032516
     atom    8 type  2   force =    -0.12806390    0.45045202   -0.92900733
     atom    9 type  2   force =     1.10112715    0.14615974    0.01870374
     atom   10 type  2   force =    -0.07261737   -0.47902439    0.96095494
     The ionic contribution  to forces
     atom    1 type  1   force =     2.10330107   11.83664126  -87.29273128
     atom    2 type  1   force =     3.51829661   -9.56040223 -134.57370236
     atom    3 type  2   force =    -0.12224704   -1.61817662  -14.74214919
     atom    4 type  2   force =    -4.80777683   -2.15246278  -47.71356953
     atom    5 type  2   force =    -0.73167778    2.30634727  -85.50185196
     atom    6 type  1   force =     2.29459888   10.28809628  132.57670732
     atom    7 type  1   force =     2.43349562  -10.19766526   86.33947756
     atom    8 type  2   force =     0.12666932   -2.16083009   85.26287292
     atom    9 type  2   force =    -5.07878508   -0.04443494   49.37539406
     atom   10 type  2   force =     0.26412524    1.30288710   16.26955246
     The local contribution  to forces
     atom    1 type  1   force =    -2.39247261  -12.07596550   87.33329907
     atom    2 type  1   force =    -3.77026261    9.63835515  134.80455432
     atom    3 type  2   force =     0.18514445    1.16347322   15.78491719
     atom    4 type  2   force =     3.77314722    1.95123311   47.92339488
     atom    5 type  2   force =     0.69213207   -1.89295615   84.57803150
     atom    6 type  1   force =    -2.51082090  -10.49550177 -132.67672179
     atom    7 type  1   force =    -2.60899648   10.34990480  -86.25529113
     atom    8 type  2   force =    -0.01537471    1.72864437  -84.34920839
     atom    9 type  2   force =     4.01038832   -0.09268818  -49.39548368
     atom   10 type  2   force =    -0.18956032   -0.85969545  -17.21295988
     The core correction contribution to forces
     atom    1 type  1   force =    -0.00203663   -0.00091170    0.00023036
     atom    2 type  1   force =    -0.00332420   -0.00389330    0.00131364
     atom    3 type  2   force =     0.00111438   -0.00469972    0.00933614
     atom    4 type  2   force =    -0.01018263   -0.00077097    0.00182340
     atom    5 type  2   force =     0.00016690    0.00388655   -0.00760531
     atom    6 type  1   force =    -0.00129984    0.00183153   -0.00056323
     atom    7 type  1   force =    -0.00004647   -0.00339990    0.00057340
     atom    8 type  2   force =     0.00137431   -0.00418282    0.00753214
     atom    9 type  2   force =    -0.01008765   -0.00139640   -0.00013376
     atom   10 type  2   force =     0.00071711    0.00456788   -0.00783080
     The Hubbard contrib.    to forces
     atom    1 type  1   force =     0.00000000    0.00000000    0.00000000
     atom    2 type  1   force =     0.00000000    0.00000000    0.00000000
     atom    3 type  2   force =     0.00000000    0.00000000    0.00000000
     atom    4 type  2   force =     0.00000000    0.00000000    0.00000000
     atom    5 type  2   force =     0.00000000    0.00000000    0.00000000
     atom    6 type  1   force =     0.00000000    0.00000000    0.00000000
     atom    7 type  1   force =     0.00000000    0.00000000    0.00000000
     atom    8 type  2   force =     0.00000000    0.00000000    0.00000000
     atom    9 type  2   force =     0.00000000    0.00000000    0.00000000
     atom   10 type  2   force =     0.00000000    0.00000000    0.00000000
     The SCF correction term to forces
     atom    1 type  1   force =     0.00009915   -0.00000891    0.00007618
     atom    2 type  1   force =    -0.00007742   -0.00015227   -0.00006417
     atom    3 type  2   force =     0.00000659   -0.00001350    0.00004303
     atom    4 type  2   force =     0.00000941    0.00001087    0.00004906
     atom    5 type  2   force =     0.00000626   -0.00000796    0.00007506
     atom    6 type  1   force =    -0.00003204    0.00011212    0.00005659
     atom    7 type  1   force =    -0.00008262   -0.00001564    0.00011668
     atom    8 type  2   force =    -0.00001233    0.00003230   -0.00003467
     atom    9 type  2   force =     0.00001110   -0.00000729   -0.00001141
     atom   10 type  2   force =     0.00000326    0.00000697   -0.00001666

     Total force =     0.139466     Total SCF correction =     0.000316


     Computing stress (Cartesian axis) and pressure


     negative rho (up, down):  4.288E-04 0.000E+00
          total   stress  (Ry/bohr**3)                   (kbar)     P=      -23.25
  -0.00020454   0.00001711  -0.00001609          -30.09        2.52       -2.37
   0.00001711  -0.00022912   0.00001491            2.52      -33.70        2.19
  -0.00001609   0.00001491  -0.00004047           -2.37        2.19       -5.95

     kinetic stress (kbar)   4734.76      5.84     -2.43
                                5.84   4732.98     -2.98
                               -2.43     -2.98   4794.07

     local   stress (kbar)-497236.70   -113.99     24.35
                             -113.99-493878.12   -690.01
                               24.35   -690.01 494882.60

     nonloc. stress (kbar)    -71.81     -1.70     -0.33
                               -1.70    -92.73     16.24
                               -0.33     16.24     29.02

     hartree stress (kbar) 250763.76     55.29    -10.80
                               55.29 249122.56    332.86
                              -10.80    332.86-241530.35

     exc-cor stress (kbar)    601.88     -0.02      0.04
                               -0.02    602.86     -0.84
                                0.04     -0.84    593.20

     corecor stress (kbar)  -2383.41     -0.04      0.01
                               -0.04  -2383.54      0.14
                                0.01      0.14  -2383.14

     ewald   stress (kbar) 243561.43     57.13    -13.21
                               57.13 241862.28    346.78
                              -13.21    346.78-256391.36

     hubbard stress (kbar)      0.00      0.00      0.00
                                0.00      0.00      0.00
                                0.00      0.00      0.00

     DFT-D   stress (kbar)      0.00      0.00      0.00
                                0.00      0.00      0.00
                                0.00      0.00      0.00

     XDM     stress (kbar)      0.00      0.00      0.00
                                0.00      0.00      0.00
                                0.00      0.00      0.00

     dft-nl  stress (kbar)      0.00      0.00      0.00
                                0.00      0.00      0.00
                                0.00      0.00      0.00

     TS-vdW  stress (kbar)      0.00      0.00      0.00
                                0.00      0.00      0.00
                                0.00      0.00      0.00


                                0.00      0.00      0.00
                                0.00      0.00      0.00


                                0.00      0.00      0.00


     Entering Dynamics:    iteration =    14
                           time      =   0.0135 pico-seconds


     Canonical sampling velocity rescaling

ATOMIC_POSITIONS (crystal)
Ga            0.8333380199        0.7172835552        0.4261594509
Ga            0.5076370529        0.3005757476        0.3991998308
O             0.4136150314        0.5579930785        0.4488875761
O             0.4331425026        0.0175203082        0.4153347262
O             0.9490530096        0.4518222025        0.3792552545
Ga            0.8210989902        0.7221688274        0.5997787791
Ga            0.5151457387        0.3003480170        0.5737739645
O             0.3866753459        0.5723767031        0.6201657069
O             0.4631028761        0.0063438912        0.5859375878
O             0.9333393713        0.4573915741        0.5539591668


     kinetic energy (Ekin) =           0.04125726 Ry
     temperature           =         482.51897383 K 
     Ekin + Etot (const)   =       -1361.92074758 Ry
     Ions kinetic stress =            1.08 (kbar)
                                      1.33           0.13           0.07
                                      0.13           0.25          -0.38
                                      0.07          -0.38           1.67



     Linear momentum :   -0.0000000000   -0.0000000000   -0.0000000000

     Writing config-only to output data dir ./tmp/Ga2O3-BL-001-300K.save/

     second order wave-functions extrapolation
     second order charge density extrapolation

     negative rho (up, down):  4.289E-04 0.000E+00

     total cpu time spent up to now is      796.8 secs

     Self-consistent Calculation

     iteration #  1     ecut=    80.00 Ry     beta= 0.20
     Davidson diagonalization with overlap

---- Real-time Memory Report at c_bands before calling an iterative solver
           314 MiB given to the printing process from OS
             0 MiB allocation reported by mallinfo(arena+hblkhd)
        367112 MiB available memory on the node where the printing process lives
------------------
     ethr =  1.00E-06,  avg # of iterations =  2.0

     Threshold (ethr) on eigenvalues was too large:
     Diagonalizing with lowered threshold

     Davidson diagonalization with overlap

---- Real-time Memory Report at c_bands before calling an iterative solver
           314 MiB given to the printing process from OS
             0 MiB allocation reported by mallinfo(arena+hblkhd)
        367098 MiB available memory on the node where the printing process lives
------------------
     ethr =  9.95E-11,  avg # of iterations = 14.3

     negative rho (up, down):  4.287E-04 0.000E+00

     total cpu time spent up to now is      803.8 secs

     total energy              =   -1361.96385972 Ry
     estimated scf accuracy    <       0.00000020 Ry

     iteration #  2     ecut=    80.00 Ry     beta= 0.20
     Davidson diagonalization with overlap

---- Real-time Memory Report at c_bands before calling an iterative solver
           314 MiB given to the printing process from OS
             0 MiB allocation reported by mallinfo(arena+hblkhd)
        367097 MiB available memory on the node where the printing process lives
------------------
     ethr =  2.28E-10,  avg # of iterations =  2.0

     negative rho (up, down):  4.284E-04 0.000E+00

     total cpu time spent up to now is      805.7 secs

     total energy              =   -1361.96385968 Ry
     estimated scf accuracy    <       0.00000008 Ry

     iteration #  3     ecut=    80.00 Ry     beta= 0.20
     Davidson diagonalization with overlap

---- Real-time Memory Report at c_bands before calling an iterative solver
           314 MiB given to the printing process from OS
             0 MiB allocation reported by mallinfo(arena+hblkhd)
        367097 MiB available memory on the node where the printing process lives
------------------
     ethr =  9.41E-11,  avg # of iterations = 10.7

     negative rho (up, down):  4.283E-04 0.000E+00

     total cpu time spent up to now is      809.5 secs

     total energy              =   -1361.96385986 Ry
     estimated scf accuracy    <       0.00000038 Ry

     iteration #  4     ecut=    80.00 Ry     beta= 0.20
     Davidson diagonalization with overlap

---- Real-time Memory Report at c_bands before calling an iterative solver
           314 MiB given to the printing process from OS
             0 MiB allocation reported by mallinfo(arena+hblkhd)
        367089 MiB available memory on the node where the printing process lives
------------------
     ethr =  9.41E-11,  avg # of iterations =  1.6

     negative rho (up, down):  4.281E-04 0.000E+00

     total cpu time spent up to now is      811.3 secs

     total energy              =   -1361.96385990 Ry
     estimated scf accuracy    <       0.00000044 Ry

     iteration #  5     ecut=    80.00 Ry     beta= 0.20
     Davidson diagonalization with overlap

---- Real-time Memory Report at c_bands before calling an iterative solver
           314 MiB given to the printing process from OS
             0 MiB allocation reported by mallinfo(arena+hblkhd)
        367089 MiB available memory on the node where the printing process lives
------------------
     ethr =  9.41E-11,  avg # of iterations =  2.7

     negative rho (up, down):  4.280E-04 0.000E+00

     total cpu time spent up to now is      813.3 secs

     total energy              =   -1361.96385991 Ry
     estimated scf accuracy    <       0.00000060 Ry

     iteration #  6     ecut=    80.00 Ry     beta= 0.20
     Davidson diagonalization with overlap

---- Real-time Memory Report at c_bands before calling an iterative solver
           314 MiB given to the printing process from OS
             0 MiB allocation reported by mallinfo(arena+hblkhd)
        367089 MiB available memory on the node where the printing process lives
------------------
     ethr =  9.41E-11,  avg # of iterations =  1.4

     negative rho (up, down):  4.279E-04 0.000E+00

     total cpu time spent up to now is      815.0 secs

     total energy              =   -1361.96385991 Ry
     estimated scf accuracy    <       0.00000063 Ry

     iteration #  7     ecut=    80.00 Ry     beta= 0.20
     Davidson diagonalization with overlap

---- Real-time Memory Report at c_bands before calling an iterative solver
           314 MiB given to the printing process from OS
             0 MiB allocation reported by mallinfo(arena+hblkhd)
        367092 MiB available memory on the node where the printing process lives
------------------
     ethr =  9.41E-11,  avg # of iterations =  1.6

     negative rho (up, down):  4.278E-04 0.000E+00

     total cpu time spent up to now is      816.8 secs

     total energy              =   -1361.96385990 Ry
     estimated scf accuracy    <       0.00000066 Ry

     iteration #  8     ecut=    80.00 Ry     beta= 0.20
     Davidson diagonalization with overlap

---- Real-time Memory Report at c_bands before calling an iterative solver
           314 MiB given to the printing process from OS
             0 MiB allocation reported by mallinfo(arena+hblkhd)
        367092 MiB available memory on the node where the printing process lives
------------------
     ethr =  9.41E-11,  avg # of iterations =  1.1

     negative rho (up, down):  4.278E-04 0.000E+00

     total cpu time spent up to now is      818.5 secs

     total energy              =   -1361.96385983 Ry
     estimated scf accuracy    <       0.00000065 Ry

     iteration #  9     ecut=    80.00 Ry     beta= 0.20
     Davidson diagonalization with overlap

---- Real-time Memory Report at c_bands before calling an iterative solver
           314 MiB given to the printing process from OS
             0 MiB allocation reported by mallinfo(arena+hblkhd)
        367092 MiB available memory on the node where the printing process lives
------------------
     ethr =  9.41E-11,  avg # of iterations =  7.1

     negative rho (up, down):  4.277E-04 0.000E+00

     total cpu time spent up to now is      821.0 secs

     total energy              =   -1361.96385984 Ry
     estimated scf accuracy    <       0.00000053 Ry

     iteration # 10     ecut=    80.00 Ry     beta= 0.20
     Davidson diagonalization with overlap

---- Real-time Memory Report at c_bands before calling an iterative solver
           314 MiB given to the printing process from OS
             0 MiB allocation reported by mallinfo(arena+hblkhd)
        367092 MiB available memory on the node where the printing process lives
------------------
     ethr =  9.41E-11,  avg # of iterations =  2.0

     negative rho (up, down):  4.277E-04 0.000E+00

     total cpu time spent up to now is      822.8 secs

     total energy              =   -1361.96385977 Ry
     estimated scf accuracy    <       0.00000050 Ry

     iteration # 11     ecut=    80.00 Ry     beta= 0.20
     Davidson diagonalization with overlap

---- Real-time Memory Report at c_bands before calling an iterative solver
           314 MiB given to the printing process from OS
             0 MiB allocation reported by mallinfo(arena+hblkhd)
        367092 MiB available memory on the node where the printing process lives
------------------
     ethr =  9.41E-11,  avg # of iterations =  7.3

     negative rho (up, down):  4.277E-04 0.000E+00

     total cpu time spent up to now is      825.8 secs

     total energy              =   -1361.96385983 Ry
     estimated scf accuracy    <       0.00000022 Ry

     iteration # 12     ecut=    80.00 Ry     beta= 0.20
     Davidson diagonalization with overlap

---- Real-time Memory Report at c_bands before calling an iterative solver
           314 MiB given to the printing process from OS
             0 MiB allocation reported by mallinfo(arena+hblkhd)
        367093 MiB available memory on the node where the printing process lives
------------------
     ethr =  9.41E-11,  avg # of iterations =  7.1

     negative rho (up, down):  4.276E-04 0.000E+00

     total cpu time spent up to now is      828.9 secs

     total energy              =   -1361.96385980 Ry
     estimated scf accuracy    <       0.00000053 Ry

     iteration # 13     ecut=    80.00 Ry     beta= 0.20
     Davidson diagonalization with overlap

---- Real-time Memory Report at c_bands before calling an iterative solver
           314 MiB given to the printing process from OS
             0 MiB allocation reported by mallinfo(arena+hblkhd)
        367092 MiB available memory on the node where the printing process lives
------------------
     ethr =  9.41E-11,  avg # of iterations =  3.9

     negative rho (up, down):  4.276E-04 0.000E+00

     total cpu time spent up to now is      830.9 secs

     total energy              =   -1361.96385979 Ry
     estimated scf accuracy    <       0.00000036 Ry

     iteration # 14     ecut=    80.00 Ry     beta= 0.20
     Davidson diagonalization with overlap

---- Real-time Memory Report at c_bands before calling an iterative solver
           314 MiB given to the printing process from OS
             0 MiB allocation reported by mallinfo(arena+hblkhd)
        367090 MiB available memory on the node where the printing process lives
------------------
     ethr =  9.41E-11,  avg # of iterations =  7.3

     negative rho (up, down):  4.276E-04 0.000E+00

     total cpu time spent up to now is      833.5 secs

     total energy              =   -1361.96385975 Ry
     estimated scf accuracy    <       0.00000024 Ry

     iteration # 15     ecut=    80.00 Ry     beta= 0.20
     Davidson diagonalization with overlap

---- Real-time Memory Report at c_bands before calling an iterative solver
           314 MiB given to the printing process from OS
             0 MiB allocation reported by mallinfo(arena+hblkhd)
        367090 MiB available memory on the node where the printing process lives
------------------
     ethr =  9.41E-11,  avg # of iterations =  6.4

     negative rho (up, down):  4.276E-04 0.000E+00

     total cpu time spent up to now is      836.1 secs

     total energy              =   -1361.96385976 Ry
     estimated scf accuracy    <       0.00000008 Ry

     iteration # 16     ecut=    80.00 Ry     beta= 0.20
     Davidson diagonalization with overlap

---- Real-time Memory Report at c_bands before calling an iterative solver
           314 MiB given to the printing process from OS
             0 MiB allocation reported by mallinfo(arena+hblkhd)
        367091 MiB available memory on the node where the printing process lives
------------------
     ethr =  9.35E-11,  avg # of iterations =  2.6

     negative rho (up, down):  4.276E-04 0.000E+00

     total cpu time spent up to now is      838.1 secs

     total energy              =   -1361.96385975 Ry
     estimated scf accuracy    <       0.00000004 Ry

     iteration # 17     ecut=    80.00 Ry     beta= 0.20
     Davidson diagonalization with overlap

---- Real-time Memory Report at c_bands before calling an iterative solver
           314 MiB given to the printing process from OS
             0 MiB allocation reported by mallinfo(arena+hblkhd)
        367091 MiB available memory on the node where the printing process lives
------------------
     ethr =  4.03E-11,  avg # of iterations =  6.8

     negative rho (up, down):  4.276E-04 0.000E+00

     total cpu time spent up to now is      841.0 secs

     total energy              =   -1361.96385976 Ry
     estimated scf accuracy    <       0.00000001 Ry

     iteration # 18     ecut=    80.00 Ry     beta= 0.20
     Davidson diagonalization with overlap

---- Real-time Memory Report at c_bands before calling an iterative solver
           314 MiB given to the printing process from OS
             0 MiB allocation reported by mallinfo(arena+hblkhd)
        367091 MiB available memory on the node where the printing process lives
------------------
     ethr =  1.65E-11,  avg # of iterations =  6.3

     negative rho (up, down):  4.276E-04 0.000E+00

     total cpu time spent up to now is      843.7 secs

     total energy              =   -1361.96385977 Ry
     estimated scf accuracy    <       0.00000001 Ry

     iteration # 19     ecut=    80.00 Ry     beta= 0.20
     Davidson diagonalization with overlap

---- Real-time Memory Report at c_bands before calling an iterative solver
           314 MiB given to the printing process from OS
             0 MiB allocation reported by mallinfo(arena+hblkhd)
        367091 MiB available memory on the node where the printing process lives
------------------
     ethr =  1.19E-11,  avg # of iterations =  4.4

     negative rho (up, down):  4.275E-04 0.000E+00

     total cpu time spent up to now is      845.9 secs

     End of self-consistent calculation

          k = 0.0000 0.0000 0.0000 ( 45065 PWs)   bands (ev):

   -24.6977 -24.4472 -23.7805 -23.5987 -23.5837 -23.3075 -20.1715 -20.1035
   -20.0608 -20.0376 -20.0170 -19.9532 -19.9164 -19.8308 -19.7929 -19.6568
   -19.6219 -19.5977 -19.5851 -19.5326 -19.5224 -19.4583 -19.4287 -19.4202
   -18.9965 -18.9511 -12.6839 -12.5241 -10.2917  -9.8144  -9.5153  -9.2787
    -8.7664  -8.3470  -8.3276  -8.1832  -8.1291  -8.0692  -7.8409  -7.8200
    -7.7297  -7.4464  -7.4063  -7.0229

     occupation numbers 
     1.0000   1.0000   1.0000   1.0000   1.0000   1.0000   1.0000   1.0000
     1.0000   1.0000   1.0000   1.0000   1.0000   1.0000   1.0000   1.0000
     1.0000   1.0000   1.0000   1.0000   1.0000   1.0000   1.0000   1.0000
     1.0000   1.0000   1.0000   1.0000   1.0000   1.0000   1.0000   1.0000
     1.0000   1.0000   1.0000   1.0000   1.0000   1.0000   1.0000   1.0000
     1.0000   1.0000   1.0000   1.0000

          k =-0.0062 0.1431 0.0000 ( 45113 PWs)   bands (ev):

   -24.6402 -24.3626 -23.8967 -23.7500 -23.5373 -23.2488 -20.1512 -20.1011
   -20.0643 -20.0418 -20.0175 -19.9446 -19.9093 -19.8272 -19.7642 -19.6604
   -19.6416 -19.5980 -19.5840 -19.5311 -19.5236 -19.5095 -19.4205 -19.4118
   -19.0699 -18.9440 -12.2899 -12.1167 -10.4062  -9.9350  -9.7727  -9.5844
    -9.2545  -8.8568  -8.3359  -8.1363  -8.0670  -7.8757  -7.8322  -7.6481
    -7.5300  -7.4350  -7.3357  -7.0578

     occupation numbers 
     1.0000   1.0000   1.0000   1.0000   1.0000   1.0000   1.0000   1.0000
     1.0000   1.0000   1.0000   1.0000   1.0000   1.0000   1.0000   1.0000
     1.0000   1.0000   1.0000   1.0000   1.0000   1.0000   1.0000   1.0000
     1.0000   1.0000   1.0000   1.0000   1.0000   1.0000   1.0000   1.0000
     1.0000   1.0000   1.0000   1.0000   1.0000   1.0000   1.0000   1.0000
     1.0000   1.0000   1.0000   1.0000

          k = 0.0124-0.2862 0.0000 ( 45174 PWs)   bands (ev):

   -24.5676 -24.2226 -24.0069 -23.9379 -23.5083 -23.2127 -20.1376 -20.0919
   -20.0711 -20.0401 -20.0136 -19.9296 -19.9049 -19.8251 -19.7318 -19.6663
   -19.6544 -19.6094 -19.6032 -19.5798 -19.5096 -19.5001 -19.4142 -19.4026
   -19.1503 -18.9374 -11.6046 -11.4314 -10.7877 -10.3813 -10.2413 -10.0008
    -9.3750  -9.0419  -8.4171  -8.1328  -8.0941  -7.7507  -7.7048  -7.5466
    -7.4637  -7.3918  -7.1635  -7.1183

     occupation numbers 
     1.0000   1.0000   1.0000   1.0000   1.0000   1.0000   1.0000   1.0000
     1.0000   1.0000   1.0000   1.0000   1.0000   1.0000   1.0000   1.0000
     1.0000   1.0000   1.0000   1.0000   1.0000   1.0000   1.0000   1.0000
     1.0000   1.0000   1.0000   1.0000   1.0000   1.0000   1.0000   1.0000
     1.0000   1.0000   1.0000   1.0000   1.0000   1.0000   1.0000   1.0000
     1.0000   1.0000   1.0000   1.0000

          k = 0.1684-0.0368 0.0000 ( 45086 PWs)   bands (ev):

   -24.5713 -24.3116 -23.7809 -23.5974 -23.5758 -23.3042 -20.1665 -20.0997
   -20.0730 -20.0262 -19.9945 -19.9482 -19.8950 -19.8303 -19.7806 -19.6625
   -19.6302 -19.5846 -19.5739 -19.5327 -19.4910 -19.4371 -19.4121 -19.3570
   -18.9577 -18.9069 -12.5543 -12.3990 -10.5197 -10.2273 -10.0834  -9.9297
    -9.1900  -8.8095  -8.5960  -8.3075  -8.2651  -8.0568  -8.0122  -7.8378
    -7.7368  -7.5348  -7.2846  -6.8586

     occupation numbers 
     1.0000   1.0000   1.0000   1.0000   1.0000   1.0000   1.0000   1.0000
     1.0000   1.0000   1.0000   1.0000   1.0000   1.0000   1.0000   1.0000
     1.0000   1.0000   1.0000   1.0000   1.0000   1.0000   1.0000   1.0000
     1.0000   1.0000   1.0000   1.0000   1.0000   1.0000   1.0000   1.0000
     1.0000   1.0000   1.0000   1.0000   1.0000   1.0000   1.0000   1.0000
     1.0000   1.0000   1.0000   1.0000

          k = 0.1622 0.1063 0.0000 ( 45049 PWs)   bands (ev):

   -24.5510 -24.2798 -23.8202 -23.6522 -23.5609 -23.2837 -20.1662 -20.0959
   -20.0621 -20.0209 -20.0047 -19.9489 -19.8945 -19.8167 -19.7697 -19.6667
   -19.6326 -19.5901 -19.5753 -19.5252 -19.4887 -19.4850 -19.4068 -19.3449
   -19.0235 -18.8642 -12.4099 -12.2633 -10.6772 -10.1872 -10.1327  -9.8823
    -9.3085  -9.0102  -8.6591  -8.3830  -8.2802  -7.9801  -7.9389  -7.8390
    -7.6678  -7.4880  -7.2903  -6.8653

     occupation numbers 
     1.0000   1.0000   1.0000   1.0000   1.0000   1.0000   1.0000   1.0000
     1.0000   1.0000   1.0000   1.0000   1.0000   1.0000   1.0000   1.0000
     1.0000   1.0000   1.0000   1.0000   1.0000   1.0000   1.0000   1.0000
     1.0000   1.0000   1.0000   1.0000   1.0000   1.0000   1.0000   1.0000
     1.0000   1.0000   1.0000   1.0000   1.0000   1.0000   1.0000   1.0000
     1.0000   1.0000   1.0000   1.0000

          k = 0.1808-0.3231 0.0000 ( 45092 PWs)   bands (ev):

   -24.4727 -24.1296 -23.9330 -23.8536 -23.5357 -23.2458 -20.1481 -20.0921
   -20.0519 -20.0318 -19.9916 -19.9425 -19.8903 -19.7972 -19.7367 -19.6626
   -19.6457 -19.6141 -19.5916 -19.5751 -19.5151 -19.4871 -19.3734 -19.3180
   -19.1532 -18.8387 -11.7282 -11.5554 -11.0505 -10.6655 -10.2210  -9.9312
    -9.7183  -9.4452  -8.8598  -8.5711  -8.2127  -7.9741  -7.8431  -7.6447
    -7.5406  -7.3147  -7.2433  -6.8821

     occupation numbers 
     1.0000   1.0000   1.0000   1.0000   1.0000   1.0000   1.0000   1.0000
     1.0000   1.0000   1.0000   1.0000   1.0000   1.0000   1.0000   1.0000
     1.0000   1.0000   1.0000   1.0000   1.0000   1.0000   1.0000   1.0000
     1.0000   1.0000   1.0000   1.0000   1.0000   1.0000   1.0000   1.0000
     1.0000   1.0000   1.0000   1.0000   1.0000   1.0000   1.0000   1.0000
     1.0000   1.0000   1.0000   1.0000

          k = 0.1746-0.1799 0.0000 ( 45085 PWs)   bands (ev):

   -24.4997 -24.1925 -23.8940 -23.7751 -23.5450 -23.2574 -20.1455 -20.0862
   -20.0761 -20.0336 -19.9895 -19.9394 -19.8905 -19.8216 -19.7492 -19.6591
   -19.6406 -19.5898 -19.5747 -19.5628 -19.5230 -19.4865 -19.3854 -19.3204
   -19.1075 -18.8538 -12.0299 -11.8275 -10.7419 -10.4590 -10.2876  -9.9179
    -9.6412  -9.3221  -8.7831  -8.5107  -8.2041  -8.0057  -7.8721  -7.6288
    -7.6001  -7.3631  -7.3008  -6.8751

     occupation numbers 
     1.0000   1.0000   1.0000   1.0000   1.0000   1.0000   1.0000   1.0000
     1.0000   1.0000   1.0000   1.0000   1.0000   1.0000   1.0000   1.0000
     1.0000   1.0000   1.0000   1.0000   1.0000   1.0000   1.0000   1.0000
     1.0000   1.0000   1.0000   1.0000   1.0000   1.0000   1.0000   1.0000
     1.0000   1.0000   1.0000   1.0000   1.0000   1.0000   1.0000   1.0000
     1.0000   1.0000   1.0000   1.0000

          k = 0.3368-0.0737 0.0000 ( 45074 PWs)   bands (ev):

   -24.2843 -23.9909 -23.7700 -23.5970 -23.5799 -23.3583 -20.1333 -20.0999
   -20.0618 -20.0319 -19.9462 -19.9303 -19.8713 -19.7839 -19.7411 -19.6509
   -19.6189 -19.6008 -19.5343 -19.5166 -19.4597 -19.4452 -19.3520 -19.1990
   -18.9981 -18.7454 -12.5400 -12.3475 -11.5115 -11.1763 -10.7014 -10.3677
    -9.5921  -9.2870  -8.8473  -8.5670  -8.4614  -8.3427  -8.0424  -7.7190
    -7.6390  -7.5217  -7.3484  -6.9034

     occupation numbers 
     1.0000   1.0000   1.0000   1.0000   1.0000   1.0000   1.0000   1.0000
     1.0000   1.0000   1.0000   1.0000   1.0000   1.0000   1.0000   1.0000
     1.0000   1.0000   1.0000   1.0000   1.0000   1.0000   1.0000   1.0000
     1.0000   1.0000   1.0000   1.0000   1.0000   1.0000   1.0000   1.0000
     1.0000   1.0000   1.0000   1.0000   1.0000   1.0000   1.0000   1.0000
     1.0000   1.0000   1.0000   1.0000

          k = 0.3306 0.0695 0.0000 ( 45046 PWs)   bands (ev):

   -24.2908 -24.0024 -23.7740 -23.5864 -23.5693 -23.3556 -20.1491 -20.1012
   -20.0515 -20.0114 -19.9529 -19.9311 -19.8716 -19.7838 -19.7425 -19.6516
   -19.6258 -19.6091 -19.5300 -19.5046 -19.4692 -19.4245 -19.3607 -19.2210
   -18.9606 -18.7573 -12.5706 -12.4153 -11.5863 -11.1321 -10.6343 -10.4018
    -9.5250  -9.2641  -8.8296  -8.5025  -8.4377  -8.2770  -8.1015  -7.7738
    -7.6445  -7.5582  -7.3381  -6.9046

     occupation numbers 
     1.0000   1.0000   1.0000   1.0000   1.0000   1.0000   1.0000   1.0000
     1.0000   1.0000   1.0000   1.0000   1.0000   1.0000   1.0000   1.0000
     1.0000   1.0000   1.0000   1.0000   1.0000   1.0000   1.0000   1.0000
     1.0000   1.0000   1.0000   1.0000   1.0000   1.0000   1.0000   1.0000
     1.0000   1.0000   1.0000   1.0000   1.0000   1.0000   1.0000   1.0000
     1.0000   1.0000   1.0000   1.0000

          k = 0.3492-0.3599 0.0000 ( 45085 PWs)   bands (ev):

   -24.2476 -23.8992 -23.8081 -23.6908 -23.5976 -23.3449 -20.1354 -20.0999
   -20.0491 -19.9942 -19.9543 -19.9246 -19.8728 -19.7405 -19.7152 -19.6518
   -19.6311 -19.6105 -19.5855 -19.5277 -19.5074 -19.4707 -19.3122 -19.1698
   -19.1139 -18.6970 -12.2543 -12.0552 -11.8360 -11.4408 -10.3624 -10.1280
    -9.7140  -9.5217  -8.9989  -8.6802  -8.6140  -8.3036  -8.1069  -7.7058
    -7.6348  -7.3607  -7.3045  -6.9186

     occupation numbers 
     1.0000   1.0000   1.0000   1.0000   1.0000   1.0000   1.0000   1.0000
     1.0000   1.0000   1.0000   1.0000   1.0000   1.0000   1.0000   1.0000
     1.0000   1.0000   1.0000   1.0000   1.0000   1.0000   1.0000   1.0000
     1.0000   1.0000   1.0000   1.0000   1.0000   1.0000   1.0000   1.0000
     1.0000   1.0000   1.0000   1.0000   1.0000   1.0000   1.0000   1.0000
     1.0000   1.0000   1.0000   1.0000

          k = 0.3430-0.2168 0.0000 ( 45092 PWs)   bands (ev):

   -24.2401 -23.8729 -23.8059 -23.7163 -23.6075 -23.3472 -20.1221 -20.0931
   -20.0577 -20.0233 -19.9440 -19.9215 -19.8724 -19.7442 -19.7172 -19.6537
   -19.6174 -19.6041 -19.5957 -19.5338 -19.5117 -19.4635 -19.2853 -19.1647
   -19.1567 -18.6926 -12.2382 -11.9233 -11.7528 -11.5334 -10.3729 -10.0527
    -9.8872  -9.6355  -9.0117  -8.7377  -8.5568  -8.2125  -8.1190  -7.7885
    -7.5455  -7.3827  -7.2807  -6.9244

     occupation numbers 
     1.0000   1.0000   1.0000   1.0000   1.0000   1.0000   1.0000   1.0000
     1.0000   1.0000   1.0000   1.0000   1.0000   1.0000   1.0000   1.0000
     1.0000   1.0000   1.0000   1.0000   1.0000   1.0000   1.0000   1.0000
     1.0000   1.0000   1.0000   1.0000   1.0000   1.0000   1.0000   1.0000
     1.0000   1.0000   1.0000   1.0000   1.0000   1.0000   1.0000   1.0000
     1.0000   1.0000   1.0000   1.0000

          k =-0.5052 0.1105 0.0000 ( 45134 PWs)   bands (ev):

   -24.1042 -23.7684 -23.7643 -23.6336 -23.5241 -23.4970 -20.1206 -20.0923
   -20.0654 -20.0210 -19.9336 -19.9064 -19.8632 -19.7182 -19.7014 -19.6617
   -19.6236 -19.5670 -19.5209 -19.5106 -19.5085 -19.4283 -19.2689 -19.1140
   -19.0923 -18.6597 -12.6702 -12.4023 -12.1051 -11.8235 -10.4774 -10.1866
    -9.9055  -9.5849  -9.0279  -8.7312  -8.3727  -8.1590  -8.0714  -7.7493
    -7.6622  -7.4967  -7.3585  -7.1474

     occupation numbers 
     1.0000   1.0000   1.0000   1.0000   1.0000   1.0000   1.0000   1.0000
     1.0000   1.0000   1.0000   1.0000   1.0000   1.0000   1.0000   1.0000
     1.0000   1.0000   1.0000   1.0000   1.0000   1.0000   1.0000   1.0000
     1.0000   1.0000   1.0000   1.0000   1.0000   1.0000   1.0000   1.0000
     1.0000   1.0000   1.0000   1.0000   1.0000   1.0000   1.0000   1.0000
     1.0000   1.0000   1.0000   1.0000

          k =-0.5114 0.2536 0.0000 ( 45094 PWs)   bands (ev):

   -24.1000 -23.7802 -23.7525 -23.6265 -23.5550 -23.4777 -20.1230 -20.1068
   -20.0594 -19.9921 -19.9448 -19.8944 -19.8524 -19.7118 -19.7106 -19.6617
   -19.6228 -19.5917 -19.5298 -19.5244 -19.4818 -19.4413 -19.2669 -19.1174
   -19.0900 -18.6577 -12.6507 -12.3826 -12.1593 -11.8540 -10.3711 -10.1211
    -9.9896  -9.7079  -8.8478  -8.6210  -8.5247  -8.1501  -8.0118  -7.8448
    -7.6789  -7.4707  -7.3840  -7.1530

     occupation numbers 
     1.0000   1.0000   1.0000   1.0000   1.0000   1.0000   1.0000   1.0000
     1.0000   1.0000   1.0000   1.0000   1.0000   1.0000   1.0000   1.0000
     1.0000   1.0000   1.0000   1.0000   1.0000   1.0000   1.0000   1.0000
     1.0000   1.0000   1.0000   1.0000   1.0000   1.0000   1.0000   1.0000
     1.0000   1.0000   1.0000   1.0000   1.0000   1.0000   1.0000   1.0000
     1.0000   1.0000   1.0000   1.0000

          k =-0.4929-0.1758 0.0000 ( 45008 PWs)   bands (ev):

   -24.0956 -23.7913 -23.7386 -23.6203 -23.5785 -23.4680 -20.1318 -20.1088
   -20.0560 -19.9544 -19.9504 -19.9012 -19.8376 -19.7262 -19.7060 -19.6594
   -19.6235 -19.6047 -19.5448 -19.5162 -19.4705 -19.4663 -19.2666 -19.1214
   -19.0810 -18.6570 -12.6251 -12.3626 -12.2182 -11.8872 -10.4288 -10.1660
    -9.7475  -9.5955  -8.8884  -8.6391  -8.5876  -8.3093  -8.0648  -7.8156
    -7.6176  -7.4472  -7.3648  -7.1496

     occupation numbers 
     1.0000   1.0000   1.0000   1.0000   1.0000   1.0000   1.0000   1.0000
     1.0000   1.0000   1.0000   1.0000   1.0000   1.0000   1.0000   1.0000
     1.0000   1.0000   1.0000   1.0000   1.0000   1.0000   1.0000   1.0000
     1.0000   1.0000   1.0000   1.0000   1.0000   1.0000   1.0000   1.0000
     1.0000   1.0000   1.0000   1.0000   1.0000   1.0000   1.0000   1.0000
     1.0000   1.0000   1.0000   1.0000

     highest occupied level (ev):    -6.8586

!    total energy              =   -1361.96385977 Ry
     estimated scf accuracy    <          8.9E-09 Ry

     convergence has been achieved in  19 iterations

     negative rho (up, down):  4.275E-04 0.000E+00

     Forces acting on atoms (cartesian axes, Ry/au):

     atom    1 type  1   force =    -0.01478906   -0.01322251    0.00981839
     atom    2 type  1   force =     0.02239940    0.04464668    0.02417921
     atom    3 type  2   force =    -0.02824344    0.03225628   -0.03989469
     atom    4 type  2   force =     0.04387991   -0.05861111    0.00245140
     atom    5 type  2   force =    -0.02336163   -0.00621745    0.00314135
     atom    6 type  1   force =     0.00175036   -0.04039905   -0.00452940
     atom    7 type  1   force =    -0.00899999    0.05260503    0.00456710
     atom    8 type  2   force =    -0.01585982    0.01350160   -0.00407970
     atom    9 type  2   force =     0.02009147    0.00692988   -0.00140905
     atom   10 type  2   force =     0.00313280   -0.03148933    0.00575540
     The non-local contrib.  to forces
     atom    1 type  1   force =     0.27806286    0.22394815   -0.03349415
     atom    2 type  1   force =     0.27483817   -0.02604721   -0.22034814
     atom    3 type  2   force =    -0.08940974    0.49508579   -1.08599222
     atom    4 type  2   force =     1.08790499    0.14275341   -0.22262659
     atom    5 type  2   force =     0.02422873   -0.42430645    0.92143066
     atom    6 type  1   force =     0.21439980    0.16375014    0.09965017
     atom    7 type  1   force =     0.16037697   -0.09382980   -0.08343865
     atom    8 type  2   force =    -0.12754026    0.45261093   -0.91158010
     atom    9 type  2   force =     1.09597723    0.14878792    0.02078296
     atom   10 type  2   force =    -0.07175331   -0.48008740    0.94316400
     The ionic contribution  to forces
     atom    1 type  1   force =     2.14178923   11.89445790  -87.29023674
     atom    2 type  1   force =     3.54694999   -9.60883043 -134.78883963
     atom    3 type  2   force =    -0.15589361   -1.61330139  -14.84023603
     atom    4 type  2   force =    -4.78971861   -2.15499604  -47.52345950
     atom    5 type  2   force =    -0.78285079    2.28457498  -85.37547479
     atom    6 type  1   force =     2.30033673   10.30988862  132.64572418
     atom    7 type  1   force =     2.41830445  -10.17871212   86.29122904
     atom    8 type  2   force =     0.10982291   -2.12976350   85.09907217
     atom    9 type  2   force =    -5.05648198   -0.06879856   49.32807444
     atom   10 type  2   force =     0.26774168    1.26548055   16.45414686
     The local contribution  to forces
     atom    1 type  1   force =    -2.43260837  -12.13068085   87.33345269
     atom    2 type  1   force =    -3.79591195    9.68343092  135.03221271
     atom    3 type  2   force =     0.21594759    1.15519882   15.87711532
     atom    4 type  2   force =     3.75586138    1.95438355   47.74662471
     atom    5 type  2   force =     0.73514440   -1.87038275   84.46462118
     atom    6 type  1   force =    -2.51171558  -10.51595472 -132.74926095
     atom    7 type  1   force =    -2.58767524   10.32867114  -86.20373523
     atom    8 type  2   force =     0.00048186    1.69486497  -84.19889266
     atom    9 type  2   force =     3.99062262   -0.07164274  -49.35009194
     atom   10 type  2   force =    -0.19355974   -0.82146453  -17.38390663
     The core correction contribution to forces
     atom    1 type  1   force =    -0.00212177   -0.00090624    0.00023106
     atom    2 type  1   force =    -0.00343430   -0.00394784    0.00135112
     atom    3 type  2   force =     0.00111583   -0.00472832    0.00923403
     atom    4 type  2   force =    -0.01016455   -0.00074756    0.00194897
     atom    5 type  2   force =     0.00011451    0.00388475   -0.00741689
     atom    6 type  1   force =    -0.00127679    0.00190428   -0.00057953
     atom    7 type  1   force =     0.00000644   -0.00357443    0.00059243
     atom    8 type  2   force =     0.00137220   -0.00419885    0.00733929
     atom    9 type  2   force =    -0.01002396   -0.00141129   -0.00015310
     atom   10 type  2   force =     0.00070453    0.00457909   -0.00763164
     The Hubbard contrib.    to forces
     atom    1 type  1   force =     0.00000000    0.00000000    0.00000000
     atom    2 type  1   force =     0.00000000    0.00000000    0.00000000
     atom    3 type  2   force =     0.00000000    0.00000000    0.00000000
     atom    4 type  2   force =     0.00000000    0.00000000    0.00000000
     atom    5 type  2   force =     0.00000000    0.00000000    0.00000000
     atom    6 type  1   force =     0.00000000    0.00000000    0.00000000
     atom    7 type  1   force =     0.00000000    0.00000000    0.00000000
     atom    8 type  2   force =     0.00000000    0.00000000    0.00000000
     atom    9 type  2   force =     0.00000000    0.00000000    0.00000000
     atom   10 type  2   force =     0.00000000    0.00000000    0.00000000
     The SCF correction term to forces
     atom    1 type  1   force =     0.00008888   -0.00003879   -0.00016193
     atom    2 type  1   force =    -0.00004261    0.00004392   -0.00022431
     atom    3 type  2   force =    -0.00000363    0.00000405   -0.00004325
     atom    4 type  2   force =    -0.00000342   -0.00000180   -0.00006364
     atom    5 type  2   force =     0.00000140    0.00001469   -0.00004628
     atom    6 type  1   force =     0.00000610    0.00001529   -0.00009073
     atom    7 type  1   force =    -0.00001272    0.00005292   -0.00010795
     atom    8 type  2   force =     0.00000337   -0.00000929   -0.00004587
     atom    9 type  2   force =    -0.00000254   -0.00000278   -0.00004886
     atom   10 type  2   force =    -0.00000047    0.00000563   -0.00004466

     Total force =     0.139370     Total SCF correction =     0.000357


     Computing stress (Cartesian axis) and pressure


     negative rho (up, down):  4.275E-04 0.000E+00
          total   stress  (Ry/bohr**3)                   (kbar)     P=      -21.87
  -0.00019355   0.00001730  -0.00001691          -28.47        2.54       -2.49
   0.00001730  -0.00021884   0.00001373            2.54      -32.19        2.02
  -0.00001691   0.00001373  -0.00003351           -2.49        2.02       -4.93

     kinetic stress (kbar)   4745.83      6.00     -2.47
                                6.00   4743.43     -3.49
                               -2.47     -3.49   4801.69

     local   stress (kbar)-497382.94   -109.76     26.94
                             -109.76-494051.63   -723.73
                               26.94   -723.73 495058.05

     nonloc. stress (kbar)    -82.41     -1.67     -0.34
                               -1.67   -103.85     16.51
                               -0.34     16.51     21.40

     hartree stress (kbar) 250838.84     53.68    -11.84
                               53.68 249207.63    347.80
                              -11.84    347.80-241610.81

     exc-cor stress (kbar)    601.48     -0.03      0.04
                               -0.03    602.49     -0.83
                                0.04     -0.83    592.71

     corecor stress (kbar)  -2383.36     -0.04      0.01
                               -0.04  -2383.49      0.15
                                0.01      0.15  -2383.06

     ewald   stress (kbar) 243634.09     54.37    -14.83
                               54.37 241953.22    365.61
                              -14.83    365.61-256484.91

     hubbard stress (kbar)      0.00      0.00      0.00
                                0.00      0.00      0.00
                                0.00      0.00      0.00

     DFT-D   stress (kbar)      0.00      0.00      0.00
                                0.00      0.00      0.00
                                0.00      0.00      0.00

     XDM     stress (kbar)      0.00      0.00      0.00
                                0.00      0.00      0.00
                                0.00      0.00      0.00

     dft-nl  stress (kbar)      0.00      0.00      0.00
                                0.00      0.00      0.00
                                0.00      0.00      0.00

     TS-vdW  stress (kbar)      0.00      0.00      0.00
                                0.00      0.00      0.00
                                0.00      0.00      0.00


                                0.00      0.00      0.00
                                0.00      0.00      0.00


                                0.00      0.00      0.00


     Entering Dynamics:    iteration =    15
                           time      =   0.0145 pico-seconds


     Canonical sampling velocity rescaling

ATOMIC_POSITIONS (crystal)
Ga            0.8335870234        0.7170637277        0.4261422168
Ga            0.5068268627        0.3006105580        0.3991273738
O             0.4145186444        0.5582239118        0.4486369206
O             0.4356597437        0.0174887929        0.4154960739
O             0.9492846833        0.4513589501        0.3794867640
Ga            0.8206035783        0.7222097778        0.5997950368
Ga            0.5146905016        0.3003847298        0.5738014185
O             0.3860302867        0.5733484519        0.6198902270
O             0.4667996024        0.0065544483        0.5859078620
O             0.9332236953        0.4569410455        0.5543225470


     kinetic energy (Ekin) =           0.04302618 Ry
     temperature           =         503.20714881 K 
     Ekin + Etot (const)   =       -1361.92083359 Ry
     Ions kinetic stress =            1.13 (kbar)
                                      1.40           0.11           0.08
                                      0.11           0.27          -0.47
                                      0.08          -0.47           1.73



     Linear momentum :   -0.0000000000    0.0000000000   -0.0000000000

     Writing config-only to output data dir ./tmp/Ga2O3-BL-001-300K.save/

     second order wave-functions extrapolation
     second order charge density extrapolation

     negative rho (up, down):  4.287E-04 0.000E+00

     total cpu time spent up to now is      854.6 secs

     Self-consistent Calculation

     iteration #  1     ecut=    80.00 Ry     beta= 0.20
     Davidson diagonalization with overlap

---- Real-time Memory Report at c_bands before calling an iterative solver
           314 MiB given to the printing process from OS
             0 MiB allocation reported by mallinfo(arena+hblkhd)
        367100 MiB available memory on the node where the printing process lives
------------------
     ethr =  1.00E-06,  avg # of iterations =  2.0

     Threshold (ethr) on eigenvalues was too large:
     Diagonalizing with lowered threshold

     Davidson diagonalization with overlap

---- Real-time Memory Report at c_bands before calling an iterative solver
           314 MiB given to the printing process from OS
             0 MiB allocation reported by mallinfo(arena+hblkhd)
        367092 MiB available memory on the node where the printing process lives
------------------
     ethr =  6.25E-10,  avg # of iterations =  7.9

     negative rho (up, down):  4.284E-04 0.000E+00

     total cpu time spent up to now is      859.7 secs

     total energy              =   -1361.96572259 Ry
     estimated scf accuracy    <       0.00000151 Ry

     iteration #  2     ecut=    80.00 Ry     beta= 0.20
     Davidson diagonalization with overlap

---- Real-time Memory Report at c_bands before calling an iterative solver
           314 MiB given to the printing process from OS
             0 MiB allocation reported by mallinfo(arena+hblkhd)
        367089 MiB available memory on the node where the printing process lives
------------------
     ethr =  1.72E-09,  avg # of iterations =  2.4

     negative rho (up, down):  4.281E-04 0.000E+00

     total cpu time spent up to now is      861.6 secs

     total energy              =   -1361.96572216 Ry
     estimated scf accuracy    <       0.00000064 Ry

     iteration #  3     ecut=    80.00 Ry     beta= 0.20
     Davidson diagonalization with overlap

---- Real-time Memory Report at c_bands before calling an iterative solver
           314 MiB given to the printing process from OS
             0 MiB allocation reported by mallinfo(arena+hblkhd)
        367089 MiB available memory on the node where the printing process lives
------------------
     ethr =  7.28E-10,  avg # of iterations = 10.4

     negative rho (up, down):  4.279E-04 0.000E+00

     total cpu time spent up to now is      865.4 secs

     total energy              =   -1361.96572282 Ry
     estimated scf accuracy    <       0.00000384 Ry

     iteration #  4     ecut=    80.00 Ry     beta= 0.20
     Davidson diagonalization with overlap

---- Real-time Memory Report at c_bands before calling an iterative solver
           314 MiB given to the printing process from OS
             0 MiB allocation reported by mallinfo(arena+hblkhd)
        367089 MiB available memory on the node where the printing process lives
------------------
     ethr =  7.28E-10,  avg # of iterations =  6.7

     negative rho (up, down):  4.278E-04 0.000E+00

     total cpu time spent up to now is      867.9 secs

     total energy              =   -1361.96572278 Ry
     estimated scf accuracy    <       0.00000152 Ry

     iteration #  5     ecut=    80.00 Ry     beta= 0.20
     Davidson diagonalization with overlap

---- Real-time Memory Report at c_bands before calling an iterative solver
           314 MiB given to the printing process from OS
             0 MiB allocation reported by mallinfo(arena+hblkhd)
        367089 MiB available memory on the node where the printing process lives
------------------
     ethr =  7.28E-10,  avg # of iterations =  3.0

     negative rho (up, down):  4.277E-04 0.000E+00

     total cpu time spent up to now is      870.0 secs

     total energy              =   -1361.96572271 Ry
     estimated scf accuracy    <       0.00000096 Ry

     iteration #  6     ecut=    80.00 Ry     beta= 0.20
     Davidson diagonalization with overlap

---- Real-time Memory Report at c_bands before calling an iterative solver
           314 MiB given to the printing process from OS
             0 MiB allocation reported by mallinfo(arena+hblkhd)
        367086 MiB available memory on the node where the printing process lives
------------------
     ethr =  7.28E-10,  avg # of iterations =  3.8

     negative rho (up, down):  4.276E-04 0.000E+00

     total cpu time spent up to now is      872.1 secs

     total energy              =   -1361.96572270 Ry
     estimated scf accuracy    <       0.00000037 Ry

     iteration #  7     ecut=    80.00 Ry     beta= 0.20
     Davidson diagonalization with overlap

---- Real-time Memory Report at c_bands before calling an iterative solver
           314 MiB given to the printing process from OS
             0 MiB allocation reported by mallinfo(arena+hblkhd)
        367086 MiB available memory on the node where the printing process lives
------------------
     ethr =  4.19E-10,  avg # of iterations =  6.4

     negative rho (up, down):  4.275E-04 0.000E+00

     total cpu time spent up to now is      874.7 secs

     total energy              =   -1361.96572279 Ry
     estimated scf accuracy    <       0.00000002 Ry

     iteration #  8     ecut=    80.00 Ry     beta= 0.20
     Davidson diagonalization with overlap

---- Real-time Memory Report at c_bands before calling an iterative solver
           314 MiB given to the printing process from OS
             0 MiB allocation reported by mallinfo(arena+hblkhd)
        367087 MiB available memory on the node where the printing process lives
------------------
     c_bands:  1 eigenvalues not converged
     ethr =  2.52E-11,  avg # of iterations = 13.4

     negative rho (up, down):  4.274E-04 0.000E+00

     total cpu time spent up to now is      879.4 secs

     total energy              =   -1361.96572284 Ry
     estimated scf accuracy    <       0.00000005 Ry

     iteration #  9     ecut=    80.00 Ry     beta= 0.20
     Davidson diagonalization with overlap

---- Real-time Memory Report at c_bands before calling an iterative solver
           314 MiB given to the printing process from OS
             0 MiB allocation reported by mallinfo(arena+hblkhd)
        367084 MiB available memory on the node where the printing process lives
------------------
     ethr =  2.52E-11,  avg # of iterations =  1.8

     negative rho (up, down):  4.274E-04 0.000E+00

     total cpu time spent up to now is      881.2 secs

     total energy              =   -1361.96572283 Ry
     estimated scf accuracy    <       0.00000004 Ry

     iteration # 10     ecut=    80.00 Ry     beta= 0.20
     Davidson diagonalization with overlap

---- Real-time Memory Report at c_bands before calling an iterative solver
           314 MiB given to the printing process from OS
             0 MiB allocation reported by mallinfo(arena+hblkhd)
        367084 MiB available memory on the node where the printing process lives
------------------
     ethr =  2.52E-11,  avg # of iterations =  2.0

     negative rho (up, down):  4.273E-04 0.000E+00

     total cpu time spent up to now is      883.1 secs

     total energy              =   -1361.96572282 Ry
     estimated scf accuracy    <       0.00000002 Ry

     iteration # 11     ecut=    80.00 Ry     beta= 0.20
     Davidson diagonalization with overlap

---- Real-time Memory Report at c_bands before calling an iterative solver
           314 MiB given to the printing process from OS
             0 MiB allocation reported by mallinfo(arena+hblkhd)
        367086 MiB available memory on the node where the printing process lives
------------------
     ethr =  2.52E-11,  avg # of iterations =  9.1

     negative rho (up, down):  4.273E-04 0.000E+00

     total cpu time spent up to now is      886.6 secs

     total energy              =   -1361.96572283 Ry
     estimated scf accuracy    <       0.00000003 Ry

     iteration # 12     ecut=    80.00 Ry     beta= 0.20
     Davidson diagonalization with overlap

---- Real-time Memory Report at c_bands before calling an iterative solver
           314 MiB given to the printing process from OS
             0 MiB allocation reported by mallinfo(arena+hblkhd)
        367086 MiB available memory on the node where the printing process lives
------------------
     ethr =  2.52E-11,  avg # of iterations =  8.4

     negative rho (up, down):  4.272E-04 0.000E+00

     total cpu time spent up to now is      889.9 secs

     End of self-consistent calculation

          k = 0.0000 0.0000 0.0000 ( 45065 PWs)   bands (ev):

   -24.7116 -24.4428 -23.7755 -23.5881 -23.5757 -23.2857 -20.1512 -20.0797
   -20.0334 -20.0143 -19.9927 -19.9315 -19.8944 -19.8085 -19.7534 -19.6102
   -19.5775 -19.5505 -19.5389 -19.4840 -19.4712 -19.4306 -19.3968 -19.3694
   -18.9392 -18.8915 -12.6802 -12.5078 -10.2786  -9.7781  -9.5278  -9.2741
    -8.7451  -8.3303  -8.2910  -8.1786  -8.1092  -8.0560  -7.8190  -7.7965
    -7.6963  -7.4276  -7.3536  -6.9979

     occupation numbers 
     1.0000   1.0000   1.0000   1.0000   1.0000   1.0000   1.0000   1.0000
     1.0000   1.0000   1.0000   1.0000   1.0000   1.0000   1.0000   1.0000
     1.0000   1.0000   1.0000   1.0000   1.0000   1.0000   1.0000   1.0000
     1.0000   1.0000   1.0000   1.0000   1.0000   1.0000   1.0000   1.0000
     1.0000   1.0000   1.0000   1.0000   1.0000   1.0000   1.0000   1.0000
     1.0000   1.0000   1.0000   1.0000

          k =-0.0062 0.1431 0.0000 ( 45113 PWs)   bands (ev):

   -24.6559 -24.3587 -23.8886 -23.7360 -23.5324 -23.2284 -20.1297 -20.0775
   -20.0388 -20.0176 -19.9928 -19.9227 -19.8871 -19.8049 -19.7240 -19.6143
   -19.5969 -19.5507 -19.5373 -19.5057 -19.4747 -19.4591 -19.3874 -19.3610
   -19.0157 -18.8820 -12.2824 -12.0969 -10.3952  -9.8998  -9.7674  -9.5668
    -9.2626  -8.8418  -8.3192  -8.1282  -8.0374  -7.8590  -7.8123  -7.6212
    -7.5040  -7.4040  -7.2909  -7.0344

     occupation numbers 
     1.0000   1.0000   1.0000   1.0000   1.0000   1.0000   1.0000   1.0000
     1.0000   1.0000   1.0000   1.0000   1.0000   1.0000   1.0000   1.0000
     1.0000   1.0000   1.0000   1.0000   1.0000   1.0000   1.0000   1.0000
     1.0000   1.0000   1.0000   1.0000   1.0000   1.0000   1.0000   1.0000
     1.0000   1.0000   1.0000   1.0000   1.0000   1.0000   1.0000   1.0000
     1.0000   1.0000   1.0000   1.0000

          k = 0.0124-0.2862 0.0000 ( 45174 PWs)   bands (ev):

   -24.5868 -24.2222 -23.9949 -23.9203 -23.5039 -23.1927 -20.1149 -20.0680
   -20.0473 -20.0161 -19.9881 -19.9071 -19.8828 -19.8030 -19.6905 -19.6218
   -19.6089 -19.5856 -19.5559 -19.5324 -19.4612 -19.4496 -19.3808 -19.3519
   -19.0975 -18.8747 -11.5839 -11.4044 -10.7886 -10.3526 -10.2298  -9.9754
    -9.3950  -9.0453  -8.3933  -8.0959  -8.0840  -7.7261  -7.6787  -7.5334
    -7.4458  -7.3424  -7.1290  -7.1002

     occupation numbers 
     1.0000   1.0000   1.0000   1.0000   1.0000   1.0000   1.0000   1.0000
     1.0000   1.0000   1.0000   1.0000   1.0000   1.0000   1.0000   1.0000
     1.0000   1.0000   1.0000   1.0000   1.0000   1.0000   1.0000   1.0000
     1.0000   1.0000   1.0000   1.0000   1.0000   1.0000   1.0000   1.0000
     1.0000   1.0000   1.0000   1.0000   1.0000   1.0000   1.0000   1.0000
     1.0000   1.0000   1.0000   1.0000

          k = 0.1684-0.0368 0.0000 ( 45086 PWs)   bands (ev):

   -24.5849 -24.3061 -23.7750 -23.5849 -23.5693 -23.2830 -20.1454 -20.0763
   -20.0478 -20.0012 -19.9710 -19.9259 -19.8727 -19.8076 -19.7403 -19.6173
   -19.5840 -19.5375 -19.5278 -19.4845 -19.4402 -19.4083 -19.3608 -19.3271
   -18.9007 -18.8485 -12.5540 -12.3864 -10.5084 -10.2351 -10.0555  -9.9164
    -9.1780  -8.7720  -8.5862  -8.2905  -8.2479  -8.0322  -7.9917  -7.8082
    -7.7075  -7.4851  -7.2660  -6.8251

     occupation numbers 
     1.0000   1.0000   1.0000   1.0000   1.0000   1.0000   1.0000   1.0000
     1.0000   1.0000   1.0000   1.0000   1.0000   1.0000   1.0000   1.0000
     1.0000   1.0000   1.0000   1.0000   1.0000   1.0000   1.0000   1.0000
     1.0000   1.0000   1.0000   1.0000   1.0000   1.0000   1.0000   1.0000
     1.0000   1.0000   1.0000   1.0000   1.0000   1.0000   1.0000   1.0000
     1.0000   1.0000   1.0000   1.0000

          k = 0.1622 0.1063 0.0000 ( 45049 PWs)   bands (ev):

   -24.5654 -24.2744 -23.8127 -23.6387 -23.5558 -23.2630 -20.1442 -20.0719
   -20.0380 -19.9960 -19.9815 -19.9264 -19.8725 -19.7935 -19.7293 -19.6217
   -19.5864 -19.5427 -19.5295 -19.4766 -19.4569 -19.4377 -19.3557 -19.3152
   -18.9680 -18.8043 -12.4080 -12.2500 -10.6714 -10.1615 -10.1347  -9.8665
    -9.2984  -8.9797  -8.6519  -8.3596  -8.2606  -7.9432  -7.9197  -7.8183
    -7.6387  -7.4409  -7.2717  -6.8325

     occupation numbers 
     1.0000   1.0000   1.0000   1.0000   1.0000   1.0000   1.0000   1.0000
     1.0000   1.0000   1.0000   1.0000   1.0000   1.0000   1.0000   1.0000
     1.0000   1.0000   1.0000   1.0000   1.0000   1.0000   1.0000   1.0000
     1.0000   1.0000   1.0000   1.0000   1.0000   1.0000   1.0000   1.0000
     1.0000   1.0000   1.0000   1.0000   1.0000   1.0000   1.0000   1.0000
     1.0000   1.0000   1.0000   1.0000

          k = 0.1808-0.3231 0.0000 ( 45092 PWs)   bands (ev):

   -24.4905 -24.1264 -23.9213 -23.8375 -23.5315 -23.2258 -20.1251 -20.0674
   -20.0292 -20.0073 -19.9682 -19.9198 -19.8683 -19.7734 -19.6951 -19.6184
   -19.5998 -19.5891 -19.5451 -19.5283 -19.4664 -19.4365 -19.3221 -19.2864
   -19.0994 -18.7777 -11.7145 -11.5326 -11.0505 -10.6430 -10.2228  -9.9127
    -9.7235  -9.4359  -8.8459  -8.5387  -8.1929  -7.9471  -7.8024  -7.6003
    -7.5260  -7.2973  -7.2109  -6.8505

     occupation numbers 
     1.0000   1.0000   1.0000   1.0000   1.0000   1.0000   1.0000   1.0000
     1.0000   1.0000   1.0000   1.0000   1.0000   1.0000   1.0000   1.0000
     1.0000   1.0000   1.0000   1.0000   1.0000   1.0000   1.0000   1.0000
     1.0000   1.0000   1.0000   1.0000   1.0000   1.0000   1.0000   1.0000
     1.0000   1.0000   1.0000   1.0000   1.0000   1.0000   1.0000   1.0000
     1.0000   1.0000   1.0000   1.0000

          k = 0.1746-0.1799 0.0000 ( 45085 PWs)   bands (ev):

   -24.5159 -24.1878 -23.8842 -23.7605 -23.5404 -23.2373 -20.1231 -20.0621
   -20.0530 -20.0086 -19.9659 -19.9168 -19.8682 -19.7988 -19.7078 -19.6142
   -19.5952 -19.5436 -19.5371 -19.5274 -19.4743 -19.4361 -19.3340 -19.2885
   -19.0531 -18.7935 -12.0233 -11.8076 -10.7319 -10.4350 -10.2961  -9.9007
    -9.6408  -9.3068  -8.7717  -8.4810  -8.1847  -7.9801  -7.8337  -7.5946
    -7.5702  -7.3316  -7.2832  -6.8428

     occupation numbers 
     1.0000   1.0000   1.0000   1.0000   1.0000   1.0000   1.0000   1.0000
     1.0000   1.0000   1.0000   1.0000   1.0000   1.0000   1.0000   1.0000
     1.0000   1.0000   1.0000   1.0000   1.0000   1.0000   1.0000   1.0000
     1.0000   1.0000   1.0000   1.0000   1.0000   1.0000   1.0000   1.0000
     1.0000   1.0000   1.0000   1.0000   1.0000   1.0000   1.0000   1.0000
     1.0000   1.0000   1.0000   1.0000

          k = 0.3368-0.0737 0.0000 ( 45074 PWs)   bands (ev):

   -24.2977 -23.9819 -23.7618 -23.5913 -23.5663 -23.3391 -20.1114 -20.0738
   -20.0383 -20.0095 -19.9224 -19.9070 -19.8499 -19.7599 -19.6996 -19.6044
   -19.5730 -19.5539 -19.4879 -19.4688 -19.4167 -19.4105 -19.2989 -19.1712
   -18.9425 -18.6901 -12.5516 -12.3445 -11.5046 -11.1516 -10.6982 -10.3458
    -9.5816  -9.2560  -8.8296  -8.5551  -8.4216  -8.3197  -8.0272  -7.6949
    -7.6019  -7.4877  -7.3276  -6.8602

     occupation numbers 
     1.0000   1.0000   1.0000   1.0000   1.0000   1.0000   1.0000   1.0000
     1.0000   1.0000   1.0000   1.0000   1.0000   1.0000   1.0000   1.0000
     1.0000   1.0000   1.0000   1.0000   1.0000   1.0000   1.0000   1.0000
     1.0000   1.0000   1.0000   1.0000   1.0000   1.0000   1.0000   1.0000
     1.0000   1.0000   1.0000   1.0000   1.0000   1.0000   1.0000   1.0000
     1.0000   1.0000   1.0000   1.0000

          k = 0.3306 0.0695 0.0000 ( 45046 PWs)   bands (ev):

   -24.3041 -23.9934 -23.7660 -23.5806 -23.5559 -23.3362 -20.1265 -20.0753
   -20.0281 -19.9891 -19.9300 -19.9073 -19.8499 -19.7593 -19.7013 -19.6054
   -19.5802 -19.5617 -19.4825 -19.4579 -19.4197 -19.3945 -19.3078 -19.1954
   -18.9051 -18.7016 -12.5814 -12.4142 -11.5840 -11.1067 -10.6274 -10.3802
    -9.5056  -9.2262  -8.8171  -8.4929  -8.4085  -8.2538  -8.0810  -7.7566
    -7.6042  -7.5230  -7.3175  -6.8615

     occupation numbers 
     1.0000   1.0000   1.0000   1.0000   1.0000   1.0000   1.0000   1.0000
     1.0000   1.0000   1.0000   1.0000   1.0000   1.0000   1.0000   1.0000
     1.0000   1.0000   1.0000   1.0000   1.0000   1.0000   1.0000   1.0000
     1.0000   1.0000   1.0000   1.0000   1.0000   1.0000   1.0000   1.0000
     1.0000   1.0000   1.0000   1.0000   1.0000   1.0000   1.0000   1.0000
     1.0000   1.0000   1.0000   1.0000

          k = 0.3492-0.3599 0.0000 ( 45085 PWs)   bands (ev):

   -24.2632 -23.8899 -23.7963 -23.6771 -23.5939 -23.3260 -20.1120 -20.0743
   -20.0254 -19.9718 -19.9320 -19.9017 -19.8511 -19.7144 -19.6740 -19.6057
   -19.5858 -19.5632 -19.5589 -19.4806 -19.4600 -19.4216 -19.2590 -19.1421
   -19.0594 -18.6402 -12.2595 -12.0478 -11.8375 -11.4211 -10.3555 -10.1067
    -9.7052  -9.4980  -8.9852  -8.6516  -8.5888  -8.2632  -8.0936  -7.6682
    -7.6187  -7.3350  -7.2749  -6.8754

     occupation numbers 
     1.0000   1.0000   1.0000   1.0000   1.0000   1.0000   1.0000   1.0000
     1.0000   1.0000   1.0000   1.0000   1.0000   1.0000   1.0000   1.0000
     1.0000   1.0000   1.0000   1.0000   1.0000   1.0000   1.0000   1.0000
     1.0000   1.0000   1.0000   1.0000   1.0000   1.0000   1.0000   1.0000
     1.0000   1.0000   1.0000   1.0000   1.0000   1.0000   1.0000   1.0000
     1.0000   1.0000   1.0000   1.0000

          k = 0.3430-0.2168 0.0000 ( 45092 PWs)   bands (ev):

   -24.2558 -23.8641 -23.7937 -23.7019 -23.6041 -23.3285 -20.0987 -20.0678
   -20.0338 -20.0015 -19.9199 -19.8993 -19.8512 -19.7192 -19.6756 -19.6073
   -19.5714 -19.5688 -19.5574 -19.4876 -19.4637 -19.4148 -19.2320 -19.1280
   -19.1099 -18.6362 -12.2454 -11.9111 -11.7489 -11.5171 -10.3724 -10.0339
    -9.8799  -9.6126  -8.9969  -8.7048  -8.5345  -8.1785  -8.0907  -7.7555
    -7.5282  -7.3611  -7.2475  -6.8811

     occupation numbers 
     1.0000   1.0000   1.0000   1.0000   1.0000   1.0000   1.0000   1.0000
     1.0000   1.0000   1.0000   1.0000   1.0000   1.0000   1.0000   1.0000
     1.0000   1.0000   1.0000   1.0000   1.0000   1.0000   1.0000   1.0000
     1.0000   1.0000   1.0000   1.0000   1.0000   1.0000   1.0000   1.0000
     1.0000   1.0000   1.0000   1.0000   1.0000   1.0000   1.0000   1.0000
     1.0000   1.0000   1.0000   1.0000

          k =-0.5052 0.1105 0.0000 ( 45134 PWs)   bands (ev):

   -24.1189 -23.7575 -23.7513 -23.6289 -23.5109 -23.4799 -20.0961 -20.0687
   -20.0415 -19.9990 -19.9104 -19.8813 -19.8423 -19.6777 -19.6764 -19.6152
   -19.5761 -19.5201 -19.4822 -19.4742 -19.4606 -19.3806 -19.2144 -19.0874
   -19.0387 -18.6065 -12.6846 -12.3985 -12.1025 -11.8063 -10.4641 -10.1550
    -9.8976  -9.5567  -9.0162  -8.7027  -8.3585  -8.1282  -8.0581  -7.7239
    -7.6255  -7.4768  -7.3190  -7.1059

     occupation numbers 
     1.0000   1.0000   1.0000   1.0000   1.0000   1.0000   1.0000   1.0000
     1.0000   1.0000   1.0000   1.0000   1.0000   1.0000   1.0000   1.0000
     1.0000   1.0000   1.0000   1.0000   1.0000   1.0000   1.0000   1.0000
     1.0000   1.0000   1.0000   1.0000   1.0000   1.0000   1.0000   1.0000
     1.0000   1.0000   1.0000   1.0000   1.0000   1.0000   1.0000   1.0000
     1.0000   1.0000   1.0000   1.0000

          k =-0.5114 0.2536 0.0000 ( 45094 PWs)   bands (ev):

   -24.1152 -23.7686 -23.7389 -23.6219 -23.5425 -23.4607 -20.0995 -20.0814
   -20.0359 -19.9703 -19.9216 -19.8702 -19.8310 -19.6855 -19.6702 -19.6152
   -19.5752 -19.5454 -19.5016 -19.4759 -19.4347 -19.3941 -19.2122 -19.0918
   -19.0366 -18.6041 -12.6622 -12.3784 -12.1607 -11.8378 -10.3614 -10.0947
    -9.9697  -9.6698  -8.8477  -8.6073  -8.5034  -8.1038  -7.9992  -7.8231
    -7.6493  -7.4505  -7.3415  -7.1123

     occupation numbers 
     1.0000   1.0000   1.0000   1.0000   1.0000   1.0000   1.0000   1.0000
     1.0000   1.0000   1.0000   1.0000   1.0000   1.0000   1.0000   1.0000
     1.0000   1.0000   1.0000   1.0000   1.0000   1.0000   1.0000   1.0000
     1.0000   1.0000   1.0000   1.0000   1.0000   1.0000   1.0000   1.0000
     1.0000   1.0000   1.0000   1.0000   1.0000   1.0000   1.0000   1.0000
     1.0000   1.0000   1.0000   1.0000

          k =-0.4929-0.1758 0.0000 ( 45008 PWs)   bands (ev):

   -24.1114 -23.7791 -23.7239 -23.6159 -23.5673 -23.4506 -20.1083 -20.0829
   -20.0327 -19.9312 -19.9287 -19.8784 -19.8158 -19.6988 -19.6643 -19.6134
   -19.5760 -19.5588 -19.5173 -19.4672 -19.4247 -19.4175 -19.2120 -19.0967
   -19.0276 -18.6031 -12.6329 -12.3584 -12.2245 -11.8718 -10.4143 -10.1352
    -9.7279  -9.5647  -8.8758  -8.6351  -8.5624  -8.2791  -8.0485  -7.7987
    -7.5776  -7.4265  -7.3227  -7.1095

     occupation numbers 
     1.0000   1.0000   1.0000   1.0000   1.0000   1.0000   1.0000   1.0000
     1.0000   1.0000   1.0000   1.0000   1.0000   1.0000   1.0000   1.0000
     1.0000   1.0000   1.0000   1.0000   1.0000   1.0000   1.0000   1.0000
     1.0000   1.0000   1.0000   1.0000   1.0000   1.0000   1.0000   1.0000
     1.0000   1.0000   1.0000   1.0000   1.0000   1.0000   1.0000   1.0000
     1.0000   1.0000   1.0000   1.0000

     highest occupied level (ev):    -6.8251

!    total energy              =   -1361.96572284 Ry
     estimated scf accuracy    <          9.9E-09 Ry

     convergence has been achieved in  12 iterations

     negative rho (up, down):  4.272E-04 0.000E+00

     Forces acting on atoms (cartesian axes, Ry/au):

     atom    1 type  1   force =    -0.01342367   -0.01199763    0.01033743
     atom    2 type  1   force =     0.02463182    0.04360338    0.02590055
     atom    3 type  2   force =    -0.02991451    0.03183696   -0.03743495
     atom    4 type  2   force =     0.04289684   -0.05883292    0.00175122
     atom    5 type  2   force =    -0.02430063   -0.00576213   -0.00079100
     atom    6 type  1   force =     0.00305521   -0.04023703   -0.00455490
     atom    7 type  1   force =    -0.00793997    0.05404151    0.00485970
     atom    8 type  2   force =    -0.01620069    0.01283715   -0.00041113
     atom    9 type  2   force =     0.01762247    0.00606540   -0.00133707
     atom   10 type  2   force =     0.00357314   -0.03155469    0.00168015
     The non-local contrib.  to forces
     atom    1 type  1   force =     0.28077940    0.22044225   -0.03479328
     atom    2 type  1   force =     0.27345915   -0.02369000   -0.23053085
     atom    3 type  2   force =    -0.08876092    0.49768121   -1.07686905
     atom    4 type  2   force =     1.08593954    0.14023178   -0.23578264
     atom    5 type  2   force =     0.03111387   -0.42509802    0.90422494
     atom    6 type  1   force =     0.21042081    0.16156971    0.10304917
     atom    7 type  1   force =     0.15501648   -0.08911593   -0.08615601
     atom    8 type  2   force =    -0.12713247    0.45465786   -0.89410599
     atom    9 type  2   force =     1.08989749    0.15122280    0.02290737
     atom   10 type  2   force =    -0.07089850   -0.48091235    0.92488950
     The ionic contribution  to forces
     atom    1 type  1   force =     2.18238640   11.94486148  -87.28111971
     atom    2 type  1   force =     3.56397434   -9.67307936 -134.99484492
     atom    3 type  2   force =    -0.18760952   -1.60873521  -14.94811566
     atom    4 type  2   force =    -4.76935911   -2.12842984  -47.34053888
     atom    5 type  2   force =    -0.82869811    2.25755826  -85.24736028
     atom    6 type  1   force =     2.29922956   10.33467824  132.71127197
     atom    7 type  1   force =     2.40125279  -10.16145418   86.24486064
     atom    8 type  2   force =     0.09569249   -2.09570518   84.93231861
     atom    9 type  2   force =    -5.02769604   -0.09612646   49.28063569
     atom   10 type  2   force =     0.27082720    1.22643225   16.64289254
     The local contribution  to forces
     atom    1 type  1   force =    -2.47443085  -12.17642131   87.32590504
     atom    2 type  1   force =    -3.80926529    9.74440247  135.24978536
     atom    3 type  2   force =     0.24532500    1.14764773   15.97838217
     atom    4 type  2   force =     3.73646320    1.93009748   47.57595718
     atom    5 type  2   force =     0.77321919   -1.84210954   84.34953028
     atom    6 type  1   force =    -2.50531734  -10.53849743 -132.81841326
     atom    7 type  1   force =    -2.56424096   10.30837758  -86.15461717
     atom    8 type  2   force =     0.01386417    1.65809376  -84.04578580
     atom    9 type  2   force =     3.96536873   -0.04760696  -49.30472036
     atom   10 type  2   force =    -0.19705001   -0.78166150  -17.55869277
     The core correction contribution to forces
     atom    1 type  1   force =    -0.00220506   -0.00087331    0.00023144
     atom    2 type  1   force =    -0.00351935   -0.00397003    0.00138152
     atom    3 type  2   force =     0.00112218   -0.00474934    0.00912319
     atom    4 type  2   force =    -0.01014583   -0.00072596    0.00207082
     atom    5 type  2   force =     0.00006276    0.00388898   -0.00722470
     atom    6 type  1   force =    -0.00124024    0.00197377   -0.00059026
     atom    7 type  1   force =     0.00006379   -0.00374835    0.00060452
     atom    8 type  2   force =     0.00137005   -0.00421354    0.00714594
     atom    9 type  2   force =    -0.00995263   -0.00142316   -0.00017299
     atom   10 type  2   force =     0.00069209    0.00458728   -0.00742768
     The Hubbard contrib.    to forces
     atom    1 type  1   force =     0.00000000    0.00000000    0.00000000
     atom    2 type  1   force =     0.00000000    0.00000000    0.00000000
     atom    3 type  2   force =     0.00000000    0.00000000    0.00000000
     atom    4 type  2   force =     0.00000000    0.00000000    0.00000000
     atom    5 type  2   force =     0.00000000    0.00000000    0.00000000
     atom    6 type  1   force =     0.00000000    0.00000000    0.00000000
     atom    7 type  1   force =     0.00000000    0.00000000    0.00000000
     atom    8 type  2   force =     0.00000000    0.00000000    0.00000000
     atom    9 type  2   force =     0.00000000    0.00000000    0.00000000
     atom   10 type  2   force =     0.00000000    0.00000000    0.00000000
     The SCF correction term to forces
     atom    1 type  1   force =     0.00004323   -0.00000681    0.00014639
     atom    2 type  1   force =    -0.00002025   -0.00005976    0.00014190
     atom    3 type  2   force =     0.00000554   -0.00000750    0.00007686
     atom    4 type  2   force =    -0.00000417   -0.00000645    0.00007721
     atom    5 type  2   force =    -0.00000155   -0.00000186    0.00007122
     atom    6 type  1   force =    -0.00004080    0.00003862    0.00015994
     atom    7 type  1   force =    -0.00003528   -0.00001767    0.00020016
     atom    8 type  2   force =     0.00000186    0.00000420    0.00004857
     atom    9 type  2   force =     0.00000170   -0.00000088    0.00004569
     atom   10 type  2   force =    -0.00000085   -0.00000043    0.00005102

     Total force =     0.138898     Total SCF correction =     0.000377


     Computing stress (Cartesian axis) and pressure


     negative rho (up, down):  4.272E-04 0.000E+00
          total   stress  (Ry/bohr**3)                   (kbar)     P=      -20.47
  -0.00018220   0.00001728  -0.00001766          -26.80        2.54       -2.60
   0.00001728  -0.00020845   0.00001258            2.54      -30.66        1.85
  -0.00001766   0.00001258  -0.00002678           -2.60        1.85       -3.94

     kinetic stress (kbar)   4757.37      6.11     -2.50
                                6.11   4754.26     -3.98
                               -2.50     -3.98   4809.47

     local   stress (kbar)-497534.37   -104.12     29.13
                             -104.12-494225.90   -759.30
                               29.13   -759.30 495237.06

     nonloc. stress (kbar)    -93.50     -1.58     -0.37
                               -1.58   -115.35     16.76
                               -0.37     16.76     13.50

     hartree stress (kbar) 250916.09     51.60    -12.77
                               51.60 249293.20    363.51
                              -12.77    363.51-241692.63

     exc-cor stress (kbar)    601.07     -0.04      0.04
                               -0.04    602.11     -0.82
                                0.04     -0.82    592.20

     corecor stress (kbar)  -2383.32     -0.04      0.01
                               -0.04  -2383.44      0.16
                                0.01      0.16  -2382.98

     ewald   stress (kbar) 243709.86     50.60    -16.15
                               50.60 242044.46    385.53
                              -16.15    385.53-256580.56

     hubbard stress (kbar)      0.00      0.00      0.00
                                0.00      0.00      0.00
                                0.00      0.00      0.00

     DFT-D   stress (kbar)      0.00      0.00      0.00
                                0.00      0.00      0.00
                                0.00      0.00      0.00

     XDM     stress (kbar)      0.00      0.00      0.00
                                0.00      0.00      0.00
                                0.00      0.00      0.00

     dft-nl  stress (kbar)      0.00      0.00      0.00
                                0.00      0.00      0.00
                                0.00      0.00      0.00

     TS-vdW  stress (kbar)      0.00      0.00      0.00
                                0.00      0.00      0.00
                                0.00      0.00      0.00


                                0.00      0.00      0.00
                                0.00      0.00      0.00


                                0.00      0.00      0.00


     Entering Dynamics:    iteration =    16
                           time      =   0.0155 pico-seconds


     Canonical sampling velocity rescaling

ATOMIC_POSITIONS (crystal)
Ga            0.8338224377        0.7168393225        0.4261262968
Ga            0.5060401281        0.3006699928        0.3990584917
O             0.4152470895        0.5585372348        0.4483705710
O             0.4384043820        0.0173023976        0.4156567119
O             0.9494101231        0.4508881203        0.3797156566
Ga            0.8201252248        0.7222266457        0.5998106319
Ga            0.5142191949        0.3004529996        0.5738291471
O             0.3853056580        0.5743454396        0.6196172068
O             0.4705342084        0.0067765353        0.5858777760
O             0.9331564080        0.4564137811        0.5546832332


     kinetic energy (Ekin) =           0.04403593 Ry
     temperature           =         515.01658203 K 
     Ekin + Etot (const)   =       -1361.92168690 Ry
     Ions kinetic stress =            1.16 (kbar)
                                      1.43           0.08           0.09
                                      0.08           0.30          -0.55
                                      0.09          -0.55           1.74



     Linear momentum :   -0.0000000000    0.0000000000   -0.0000000000

     Writing config-only to output data dir ./tmp/Ga2O3-BL-001-300K.save/

     second order wave-functions extrapolation
     second order charge density extrapolation

     negative rho (up, down):  4.289E-04 0.000E+00

     total cpu time spent up to now is      898.5 secs

     Self-consistent Calculation

     iteration #  1     ecut=    80.00 Ry     beta= 0.20
     Davidson diagonalization with overlap

---- Real-time Memory Report at c_bands before calling an iterative solver
           314 MiB given to the printing process from OS
             0 MiB allocation reported by mallinfo(arena+hblkhd)
        367094 MiB available memory on the node where the printing process lives
------------------
     ethr =  1.00E-06,  avg # of iterations =  2.0

     Threshold (ethr) on eigenvalues was too large:
     Diagonalizing with lowered threshold

     Davidson diagonalization with overlap

---- Real-time Memory Report at c_bands before calling an iterative solver
           314 MiB given to the printing process from OS
             0 MiB allocation reported by mallinfo(arena+hblkhd)
        367076 MiB available memory on the node where the printing process lives
------------------
     ethr =  1.79E-09,  avg # of iterations =  5.8

     negative rho (up, down):  4.286E-04 0.000E+00

     total cpu time spent up to now is      903.2 secs

     total energy              =   -1361.96756702 Ry
     estimated scf accuracy    <       0.00000384 Ry

     iteration #  2     ecut=    80.00 Ry     beta= 0.20
     Davidson diagonalization with overlap

---- Real-time Memory Report at c_bands before calling an iterative solver
           314 MiB given to the printing process from OS
             0 MiB allocation reported by mallinfo(arena+hblkhd)
        367080 MiB available memory on the node where the printing process lives
------------------
     ethr =  4.37E-09,  avg # of iterations =  1.5

     negative rho (up, down):  4.284E-04 0.000E+00

     total cpu time spent up to now is      905.0 secs

     total energy              =   -1361.96756573 Ry
     estimated scf accuracy    <       0.00000174 Ry

     iteration #  3     ecut=    80.00 Ry     beta= 0.20
     Davidson diagonalization with overlap

---- Real-time Memory Report at c_bands before calling an iterative solver
           314 MiB given to the printing process from OS
             0 MiB allocation reported by mallinfo(arena+hblkhd)
        367082 MiB available memory on the node where the printing process lives
------------------
     ethr =  1.98E-09,  avg # of iterations = 10.8

     negative rho (up, down):  4.282E-04 0.000E+00

     total cpu time spent up to now is      908.9 secs

     total energy              =   -1361.96756694 Ry
     estimated scf accuracy    <       0.00001216 Ry

     iteration #  4     ecut=    80.00 Ry     beta= 0.20
     Davidson diagonalization with overlap

---- Real-time Memory Report at c_bands before calling an iterative solver
           314 MiB given to the printing process from OS
             0 MiB allocation reported by mallinfo(arena+hblkhd)
        367082 MiB available memory on the node where the printing process lives
------------------
     ethr =  1.98E-09,  avg # of iterations =  6.9

     negative rho (up, down):  4.280E-04 0.000E+00

     total cpu time spent up to now is      911.7 secs

     total energy              =   -1361.96756748 Ry
     estimated scf accuracy    <       0.00000199 Ry

     iteration #  5     ecut=    80.00 Ry     beta= 0.20
     Davidson diagonalization with overlap

---- Real-time Memory Report at c_bands before calling an iterative solver
           314 MiB given to the printing process from OS
             0 MiB allocation reported by mallinfo(arena+hblkhd)
        367077 MiB available memory on the node where the printing process lives
------------------
     ethr =  1.98E-09,  avg # of iterations =  2.0

     negative rho (up, down):  4.279E-04 0.000E+00

     total cpu time spent up to now is      913.6 secs

     total energy              =   -1361.96756739 Ry
     estimated scf accuracy    <       0.00000141 Ry

     iteration #  6     ecut=    80.00 Ry     beta= 0.20
     Davidson diagonalization with overlap

---- Real-time Memory Report at c_bands before calling an iterative solver
           314 MiB given to the printing process from OS
             0 MiB allocation reported by mallinfo(arena+hblkhd)
        367078 MiB available memory on the node where the printing process lives
------------------
     ethr =  1.60E-09,  avg # of iterations =  2.0

     negative rho (up, down):  4.278E-04 0.000E+00

     total cpu time spent up to now is      915.5 secs

     total energy              =   -1361.96756733 Ry
     estimated scf accuracy    <       0.00000071 Ry

     iteration #  7     ecut=    80.00 Ry     beta= 0.20
     Davidson diagonalization with overlap

---- Real-time Memory Report at c_bands before calling an iterative solver
           314 MiB given to the printing process from OS
             0 MiB allocation reported by mallinfo(arena+hblkhd)
        367076 MiB available memory on the node where the printing process lives
------------------
     ethr =  8.10E-10,  avg # of iterations =  6.4

     negative rho (up, down):  4.277E-04 0.000E+00

     total cpu time spent up to now is      918.0 secs

     total energy              =   -1361.96756744 Ry
     estimated scf accuracy    <       0.00000010 Ry

     iteration #  8     ecut=    80.00 Ry     beta= 0.20
     Davidson diagonalization with overlap

---- Real-time Memory Report at c_bands before calling an iterative solver
           314 MiB given to the printing process from OS
             0 MiB allocation reported by mallinfo(arena+hblkhd)
        367076 MiB available memory on the node where the printing process lives
------------------
     ethr =  1.13E-10,  avg # of iterations =  8.7

     negative rho (up, down):  4.277E-04 0.000E+00

     total cpu time spent up to now is      921.3 secs

     total energy              =   -1361.96756752 Ry
     estimated scf accuracy    <       0.00000003 Ry

     iteration #  9     ecut=    80.00 Ry     beta= 0.20
     Davidson diagonalization with overlap

---- Real-time Memory Report at c_bands before calling an iterative solver
           314 MiB given to the printing process from OS
             0 MiB allocation reported by mallinfo(arena+hblkhd)
        367075 MiB available memory on the node where the printing process lives
------------------
     ethr =  2.93E-11,  avg # of iterations = 10.4

     negative rho (up, down):  4.276E-04 0.000E+00

     total cpu time spent up to now is      924.9 secs

     total energy              =   -1361.96756754 Ry
     estimated scf accuracy    <       0.00000003 Ry

     iteration # 10     ecut=    80.00 Ry     beta= 0.20
     Davidson diagonalization with overlap

---- Real-time Memory Report at c_bands before calling an iterative solver
           314 MiB given to the printing process from OS
             0 MiB allocation reported by mallinfo(arena+hblkhd)
        367075 MiB available memory on the node where the printing process lives
------------------
     ethr =  2.93E-11,  avg # of iterations =  1.9

     negative rho (up, down):  4.276E-04 0.000E+00

     total cpu time spent up to now is      926.7 secs

     total energy              =   -1361.96756754 Ry
     estimated scf accuracy    <       0.00000003 Ry

     iteration # 11     ecut=    80.00 Ry     beta= 0.20
     Davidson diagonalization with overlap

---- Real-time Memory Report at c_bands before calling an iterative solver
           314 MiB given to the printing process from OS
             0 MiB allocation reported by mallinfo(arena+hblkhd)
        367075 MiB available memory on the node where the printing process lives
------------------
     ethr =  2.93E-11,  avg # of iterations =  1.7

     negative rho (up, down):  4.276E-04 0.000E+00

     total cpu time spent up to now is      928.5 secs

     total energy              =   -1361.96756754 Ry
     estimated scf accuracy    <       0.00000003 Ry

     iteration # 12     ecut=    80.00 Ry     beta= 0.20
     Davidson diagonalization with overlap

---- Real-time Memory Report at c_bands before calling an iterative solver
           314 MiB given to the printing process from OS
             0 MiB allocation reported by mallinfo(arena+hblkhd)
        367076 MiB available memory on the node where the printing process lives
------------------
     ethr =  2.93E-11,  avg # of iterations =  3.4

     negative rho (up, down):  4.274E-04 0.000E+00

     total cpu time spent up to now is      930.6 secs

     End of self-consistent calculation

          k = 0.0000 0.0000 0.0000 ( 45065 PWs)   bands (ev):

   -24.7253 -24.4402 -23.7688 -23.5792 -23.5665 -23.2669 -20.1299 -20.0543
   -20.0042 -19.9895 -19.9671 -19.9087 -19.8720 -19.7855 -19.7155 -19.5650
   -19.5345 -19.5047 -19.4942 -19.4374 -19.4214 -19.4020 -19.3636 -19.3203
   -18.8837 -18.8331 -12.6757 -12.4916 -10.2656  -9.7450  -9.5408  -9.2718
    -8.7224  -8.3208  -8.2495  -8.1751  -8.0896  -8.0410  -7.7985  -7.7738
    -7.6612  -7.4107  -7.2989  -6.9753

     occupation numbers 
     1.0000   1.0000   1.0000   1.0000   1.0000   1.0000   1.0000   1.0000
     1.0000   1.0000   1.0000   1.0000   1.0000   1.0000   1.0000   1.0000
     1.0000   1.0000   1.0000   1.0000   1.0000   1.0000   1.0000   1.0000
     1.0000   1.0000   1.0000   1.0000   1.0000   1.0000   1.0000   1.0000
     1.0000   1.0000   1.0000   1.0000   1.0000   1.0000   1.0000   1.0000
     1.0000   1.0000   1.0000   1.0000

          k =-0.0062 0.1431 0.0000 ( 45113 PWs)   bands (ev):

   -24.6714 -24.3568 -23.8793 -23.7224 -23.5275 -23.2105 -20.1072 -20.0526
   -20.0122 -19.9916 -19.9664 -19.8998 -19.8643 -19.7819 -19.6854 -19.5698
   -19.5538 -19.5049 -19.4919 -19.4795 -19.4278 -19.4101 -19.3528 -19.3119
   -18.9636 -18.8211 -12.2739 -12.0773 -10.3839  -9.8679  -9.7627  -9.5505
    -9.2696  -8.8285  -8.3031  -8.1206  -8.0090  -7.8429  -7.7918  -7.5934
    -7.4797  -7.3730  -7.2445  -7.0134

     occupation numbers 
     1.0000   1.0000   1.0000   1.0000   1.0000   1.0000   1.0000   1.0000
     1.0000   1.0000   1.0000   1.0000   1.0000   1.0000   1.0000   1.0000
     1.0000   1.0000   1.0000   1.0000   1.0000   1.0000   1.0000   1.0000
     1.0000   1.0000   1.0000   1.0000   1.0000   1.0000   1.0000   1.0000
     1.0000   1.0000   1.0000   1.0000   1.0000   1.0000   1.0000   1.0000
     1.0000   1.0000   1.0000   1.0000

          k = 0.0124-0.2862 0.0000 ( 45174 PWs)   bands (ev):

   -24.6055 -24.2242 -23.9821 -23.9027 -23.4994 -23.1751 -20.0908 -20.0431
   -20.0221 -19.9907 -19.9609 -19.8834 -19.8602 -19.7801 -19.6508 -19.5789
   -19.5650 -19.5612 -19.5102 -19.4863 -19.4146 -19.4007 -19.3458 -19.3028
   -19.0469 -18.8128 -11.5626 -11.3783 -10.7877 -10.3247 -10.2185  -9.9517
    -9.4152  -9.0514  -8.3697  -8.0855  -8.0493  -7.7035  -7.6513  -7.5203
    -7.4267  -7.2928  -7.0970  -7.0833

     occupation numbers 
     1.0000   1.0000   1.0000   1.0000   1.0000   1.0000   1.0000   1.0000
     1.0000   1.0000   1.0000   1.0000   1.0000   1.0000   1.0000   1.0000
     1.0000   1.0000   1.0000   1.0000   1.0000   1.0000   1.0000   1.0000
     1.0000   1.0000   1.0000   1.0000   1.0000   1.0000   1.0000   1.0000
     1.0000   1.0000   1.0000   1.0000   1.0000   1.0000   1.0000   1.0000
     1.0000   1.0000   1.0000   1.0000

          k = 0.1684-0.0368 0.0000 ( 45086 PWs)   bands (ev):

   -24.5983 -24.3023 -23.7674 -23.5734 -23.5625 -23.2646 -20.1231 -20.0518
   -20.0210 -19.9745 -19.9466 -19.9023 -19.8499 -19.7841 -19.7015 -19.5738
   -19.5393 -19.4921 -19.4834 -19.4379 -19.3910 -19.3782 -19.3112 -19.2961
   -18.8452 -18.7917 -12.5531 -12.3740 -10.4976 -10.2432 -10.0328  -9.9035
    -9.1653  -8.7357  -8.5759  -8.2750  -8.2300  -8.0095  -7.9688  -7.7771
    -7.6789  -7.4365  -7.2468  -6.7945

     occupation numbers 
     1.0000   1.0000   1.0000   1.0000   1.0000   1.0000   1.0000   1.0000
     1.0000   1.0000   1.0000   1.0000   1.0000   1.0000   1.0000   1.0000
     1.0000   1.0000   1.0000   1.0000   1.0000   1.0000   1.0000   1.0000
     1.0000   1.0000   1.0000   1.0000   1.0000   1.0000   1.0000   1.0000
     1.0000   1.0000   1.0000   1.0000   1.0000   1.0000   1.0000   1.0000
     1.0000   1.0000   1.0000   1.0000

          k = 0.1622 0.1063 0.0000 ( 45049 PWs)   bands (ev):

   -24.5796 -24.2707 -23.8037 -23.6256 -23.5509 -23.2450 -20.1210 -20.0466
   -20.0124 -19.9695 -19.9571 -19.9028 -19.8499 -19.7694 -19.6905 -19.5783
   -19.5417 -19.4968 -19.4856 -19.4299 -19.4274 -19.3887 -19.3062 -19.2841
   -18.9143 -18.7458 -12.4055 -12.2372 -10.6654 -10.1460 -10.1304  -9.8523
    -9.2877  -8.9503  -8.6449  -8.3376  -8.2406  -7.9090  -7.8968  -7.7962
    -7.6105  -7.3949  -7.2524  -6.8025

     occupation numbers 
     1.0000   1.0000   1.0000   1.0000   1.0000   1.0000   1.0000   1.0000
     1.0000   1.0000   1.0000   1.0000   1.0000   1.0000   1.0000   1.0000
     1.0000   1.0000   1.0000   1.0000   1.0000   1.0000   1.0000   1.0000
     1.0000   1.0000   1.0000   1.0000   1.0000   1.0000   1.0000   1.0000
     1.0000   1.0000   1.0000   1.0000   1.0000   1.0000   1.0000   1.0000
     1.0000   1.0000   1.0000   1.0000

          k = 0.1808-0.3231 0.0000 ( 45092 PWs)   bands (ev):

   -24.5079 -24.1255 -23.9085 -23.8214 -23.5273 -23.2083 -20.1008 -20.0413
   -20.0056 -19.9811 -19.9433 -19.8959 -19.8458 -19.7485 -19.6552 -19.5759
   -19.5634 -19.5555 -19.5001 -19.4829 -19.4193 -19.3878 -19.2723 -19.2534
   -19.0476 -18.7180 -11.7005 -11.5109 -11.0496 -10.6223 -10.2247  -9.8963
    -9.7285  -9.4279  -8.8323  -8.5081  -8.1727  -7.9181  -7.7632  -7.5563
    -7.5100  -7.2805  -7.1787  -6.8218

     occupation numbers 
     1.0000   1.0000   1.0000   1.0000   1.0000   1.0000   1.0000   1.0000
     1.0000   1.0000   1.0000   1.0000   1.0000   1.0000   1.0000   1.0000
     1.0000   1.0000   1.0000   1.0000   1.0000   1.0000   1.0000   1.0000
     1.0000   1.0000   1.0000   1.0000   1.0000   1.0000   1.0000   1.0000
     1.0000   1.0000   1.0000   1.0000   1.0000   1.0000   1.0000   1.0000
     1.0000   1.0000   1.0000   1.0000

          k = 0.1746-0.1799 0.0000 ( 45085 PWs)   bands (ev):

   -24.5318 -24.1852 -23.8732 -23.7462 -23.5358 -23.2197 -20.0994 -20.0376
   -20.0277 -19.9818 -19.9412 -19.8930 -19.8454 -19.7751 -19.6681 -19.5711
   -19.5512 -19.5104 -19.4991 -19.4817 -19.4273 -19.3874 -19.2842 -19.2553
   -19.0006 -18.7345 -12.0160 -11.7884 -10.7221 -10.4141 -10.3044  -9.8853
    -9.6397  -9.2928  -8.7604  -8.4531  -8.1649  -7.9528  -7.7961  -7.5704
    -7.5291  -7.3021  -7.2644  -6.8134

     occupation numbers 
     1.0000   1.0000   1.0000   1.0000   1.0000   1.0000   1.0000   1.0000
     1.0000   1.0000   1.0000   1.0000   1.0000   1.0000   1.0000   1.0000
     1.0000   1.0000   1.0000   1.0000   1.0000   1.0000   1.0000   1.0000
     1.0000   1.0000   1.0000   1.0000   1.0000   1.0000   1.0000   1.0000
     1.0000   1.0000   1.0000   1.0000   1.0000   1.0000   1.0000   1.0000
     1.0000   1.0000   1.0000   1.0000

          k = 0.3368-0.0737 0.0000 ( 45074 PWs)   bands (ev):

   -24.3106 -23.9743 -23.7519 -23.5864 -23.5531 -23.3226 -20.0882 -20.0461
   -20.0135 -19.9858 -19.8979 -19.8823 -19.8278 -19.7349 -19.6597 -19.5592
   -19.5289 -19.5087 -19.4434 -19.4223 -19.3866 -19.3634 -19.2474 -19.1427
   -18.8883 -18.6367 -12.5633 -12.3429 -11.4983 -11.1301 -10.6944 -10.3253
    -9.5700  -9.2257  -8.8107  -8.5433  -8.3828  -8.2977  -8.0110  -7.6700
    -7.5655  -7.4540  -7.3065  -6.8198

     occupation numbers 
     1.0000   1.0000   1.0000   1.0000   1.0000   1.0000   1.0000   1.0000
     1.0000   1.0000   1.0000   1.0000   1.0000   1.0000   1.0000   1.0000
     1.0000   1.0000   1.0000   1.0000   1.0000   1.0000   1.0000   1.0000
     1.0000   1.0000   1.0000   1.0000   1.0000   1.0000   1.0000   1.0000
     1.0000   1.0000   1.0000   1.0000   1.0000   1.0000   1.0000   1.0000
     1.0000   1.0000   1.0000   1.0000

          k = 0.3306 0.0695 0.0000 ( 45046 PWs)   bands (ev):

   -24.3170 -23.9857 -23.7562 -23.5756 -23.5430 -23.3195 -20.1026 -20.0477
   -20.0034 -19.9659 -19.9060 -19.8823 -19.8274 -19.7338 -19.6617 -19.5604
   -19.5362 -19.5160 -19.4370 -19.4125 -19.3722 -19.3629 -19.2565 -19.1692
   -18.8512 -18.6476 -12.5924 -12.4145 -11.5815 -11.0844 -10.6205 -10.3600
    -9.4855  -9.1889  -8.8039  -8.4842  -8.3806  -8.2301  -8.0591  -7.7383
    -7.5668  -7.4866  -7.2968  -6.8212

     occupation numbers 
     1.0000   1.0000   1.0000   1.0000   1.0000   1.0000   1.0000   1.0000
     1.0000   1.0000   1.0000   1.0000   1.0000   1.0000   1.0000   1.0000
     1.0000   1.0000   1.0000   1.0000   1.0000   1.0000   1.0000   1.0000
     1.0000   1.0000   1.0000   1.0000   1.0000   1.0000   1.0000   1.0000
     1.0000   1.0000   1.0000   1.0000   1.0000   1.0000   1.0000   1.0000
     1.0000   1.0000   1.0000   1.0000

          k = 0.3492-0.3599 0.0000 ( 45085 PWs)   bands (ev):

   -24.2780 -23.8823 -23.7827 -23.6637 -23.5911 -23.3098 -20.0871 -20.0472
   -20.0002 -19.9489 -19.9083 -19.8777 -19.8286 -19.6871 -19.6344 -19.5610
   -19.5420 -19.5312 -19.5174 -19.4357 -19.4138 -19.3743 -19.2073 -19.1134
   -19.0066 -18.5851 -12.2648 -12.0424 -11.8389 -11.4038 -10.3482 -10.0871
    -9.6963  -9.4752  -8.9708  -8.6237  -8.5627  -8.2238  -8.0794  -7.6320
    -7.6007  -7.3106  -7.2447  -6.8350

     occupation numbers 
     1.0000   1.0000   1.0000   1.0000   1.0000   1.0000   1.0000   1.0000
     1.0000   1.0000   1.0000   1.0000   1.0000   1.0000   1.0000   1.0000
     1.0000   1.0000   1.0000   1.0000   1.0000   1.0000   1.0000   1.0000
     1.0000   1.0000   1.0000   1.0000   1.0000   1.0000   1.0000   1.0000
     1.0000   1.0000   1.0000   1.0000   1.0000   1.0000   1.0000   1.0000
     1.0000   1.0000   1.0000   1.0000

          k = 0.3430-0.2168 0.0000 ( 45092 PWs)   bands (ev):

   -24.2708 -23.8571 -23.7797 -23.6879 -23.6015 -23.3124 -20.0740 -20.0409
   -20.0084 -19.9789 -19.8947 -19.8761 -19.8293 -19.6931 -19.6356 -19.5624
   -19.5408 -19.5273 -19.5123 -19.4434 -19.4169 -19.3679 -19.1802 -19.0981
   -19.0567 -18.5815 -12.2525 -11.9007 -11.7460 -11.5035 -10.3710 -10.0168
    -9.8720  -9.5904  -8.9818  -8.6729  -8.5109  -8.1496  -8.0570  -7.7238
    -7.5096  -7.3395  -7.2147  -6.8406

     occupation numbers 
     1.0000   1.0000   1.0000   1.0000   1.0000   1.0000   1.0000   1.0000
     1.0000   1.0000   1.0000   1.0000   1.0000   1.0000   1.0000   1.0000
     1.0000   1.0000   1.0000   1.0000   1.0000   1.0000   1.0000   1.0000
     1.0000   1.0000   1.0000   1.0000   1.0000   1.0000   1.0000   1.0000
     1.0000   1.0000   1.0000   1.0000   1.0000   1.0000   1.0000   1.0000
     1.0000   1.0000   1.0000   1.0000

          k =-0.5052 0.1105 0.0000 ( 45134 PWs)   bands (ev):

   -24.1325 -23.7448 -23.7385 -23.6253 -23.4991 -23.4659 -20.0705 -20.0434
   -20.0163 -19.9759 -19.8862 -19.8550 -19.8204 -19.6531 -19.6360 -19.5699
   -19.5302 -19.4753 -19.4524 -19.4289 -19.4143 -19.3349 -19.1612 -19.0601
   -18.9865 -18.5553 -12.6990 -12.3966 -12.1011 -11.7924 -10.4501 -10.1242
    -9.8878  -9.5290  -9.0038  -8.6753  -8.3439  -8.0979  -8.0441  -7.6978
    -7.5898  -7.4561  -7.2815  -7.0664

     occupation numbers 
     1.0000   1.0000   1.0000   1.0000   1.0000   1.0000   1.0000   1.0000
     1.0000   1.0000   1.0000   1.0000   1.0000   1.0000   1.0000   1.0000
     1.0000   1.0000   1.0000   1.0000   1.0000   1.0000   1.0000   1.0000
     1.0000   1.0000   1.0000   1.0000   1.0000   1.0000   1.0000   1.0000
     1.0000   1.0000   1.0000   1.0000   1.0000   1.0000   1.0000   1.0000
     1.0000   1.0000   1.0000   1.0000

          k =-0.5114 0.2536 0.0000 ( 45094 PWs)   bands (ev):

   -24.1293 -23.7556 -23.7253 -23.6183 -23.5317 -23.4464 -20.0747 -20.0541
   -20.0112 -19.9477 -19.8973 -19.8449 -19.8087 -19.6594 -19.6302 -19.5701
   -19.5294 -19.5008 -19.4721 -19.4289 -19.3892 -19.3487 -19.1590 -19.0655
   -18.9845 -18.5525 -12.6735 -12.3763 -12.1632 -11.8246 -10.3508 -10.0688
    -9.9488  -9.6325  -8.8473  -8.5948  -8.4808  -8.0585  -7.9854  -7.8008
    -7.6209  -7.4297  -7.3016  -7.0732

     occupation numbers 
     1.0000   1.0000   1.0000   1.0000   1.0000   1.0000   1.0000   1.0000
     1.0000   1.0000   1.0000   1.0000   1.0000   1.0000   1.0000   1.0000
     1.0000   1.0000   1.0000   1.0000   1.0000   1.0000   1.0000   1.0000
     1.0000   1.0000   1.0000   1.0000   1.0000   1.0000   1.0000   1.0000
     1.0000   1.0000   1.0000   1.0000   1.0000   1.0000   1.0000   1.0000
     1.0000   1.0000   1.0000   1.0000

          k =-0.4929-0.1758 0.0000 ( 45008 PWs)   bands (ev):

   -24.1259 -23.7656 -23.7092 -23.6123 -23.5579 -23.4361 -20.0834 -20.0553
   -20.0082 -19.9104 -19.9026 -19.8548 -19.7931 -19.6702 -19.6244 -19.5686
   -19.5302 -19.5142 -19.4882 -19.4200 -19.3805 -19.3706 -19.1591 -19.0715
   -18.9756 -18.5511 -12.6402 -12.3565 -12.2318 -11.8588 -10.3989 -10.1051
    -9.7078  -9.5347  -8.8644  -8.6283  -8.5402  -8.2472  -8.0313  -7.7813
    -7.5394  -7.4054  -7.2829  -7.0710

     occupation numbers 
     1.0000   1.0000   1.0000   1.0000   1.0000   1.0000   1.0000   1.0000
     1.0000   1.0000   1.0000   1.0000   1.0000   1.0000   1.0000   1.0000
     1.0000   1.0000   1.0000   1.0000   1.0000   1.0000   1.0000   1.0000
     1.0000   1.0000   1.0000   1.0000   1.0000   1.0000   1.0000   1.0000
     1.0000   1.0000   1.0000   1.0000   1.0000   1.0000   1.0000   1.0000
     1.0000   1.0000   1.0000   1.0000

     highest occupied level (ev):    -6.7945

!    total energy              =   -1361.96756753 Ry
     estimated scf accuracy    <          9.9E-09 Ry

     convergence has been achieved in  12 iterations

     negative rho (up, down):  4.274E-04 0.000E+00

     Forces acting on atoms (cartesian axes, Ry/au):

     atom    1 type  1   force =    -0.01193660   -0.01079077    0.01055901
     atom    2 type  1   force =     0.02651749    0.04209245    0.02743737
     atom    3 type  2   force =    -0.03158722    0.03117662   -0.03462093
     atom    4 type  2   force =     0.04192620   -0.05810986    0.00099782
     atom    5 type  2   force =    -0.02506123   -0.00548168   -0.00448557
     atom    6 type  1   force =     0.00427448   -0.03987242   -0.00483265
     atom    7 type  1   force =    -0.00688172    0.05531380    0.00487583
     atom    8 type  2   force =    -0.01641496    0.01209732    0.00340892
     atom    9 type  2   force =     0.01519346    0.00502010   -0.00111812
     atom   10 type  2   force =     0.00397009   -0.03144555   -0.00222169
     The non-local contrib.  to forces
     atom    1 type  1   force =     0.28310266    0.21532955   -0.03572719
     atom    2 type  1   force =     0.27114421   -0.02173256   -0.24016816
     atom    3 type  2   force =    -0.08868223    0.49955661   -1.06687568
     atom    4 type  2   force =     1.08374503    0.13693075   -0.24796208
     atom    5 type  2   force =     0.03764442   -0.42652620    0.88729656
     atom    6 type  1   force =     0.20603631    0.15857258    0.10591132
     atom    7 type  1   force =     0.14956469   -0.08375653   -0.08889623
     atom    8 type  2   force =    -0.12683241    0.45655740   -0.87656919
     atom    9 type  2   force =     1.08281632    0.15334197    0.02517709
     atom   10 type  2   force =    -0.07007056   -0.48149144    0.90672104
     The ionic contribution  to forces
     atom    1 type  1   force =     2.22438258   11.98633689  -87.26540917
     atom    2 type  1   force =     3.56878772   -9.75222997 -135.18867388
     atom    3 type  2   force =    -0.21680905   -1.60441763  -15.06481104
     atom    4 type  2   force =    -4.74693889   -2.07241304  -47.16692040
     atom    5 type  2   force =    -0.86828228    2.22559750  -85.11948749
     atom    6 type  1   force =     2.29100848   10.36168094  132.77218933
     atom    7 type  1   force =     2.38247044  -10.14596808   86.20139840
     atom    8 type  2   force =     0.08471936   -2.05902864   84.76490094
     atom    9 type  2   force =    -4.99258119   -0.12589205   49.23344127
     atom   10 type  2   force =     0.27324283    1.18633406   16.83337204
     The local contribution  to forces
     atom    1 type  1   force =    -2.51715683  -12.21162692   87.31156164
     atom    2 type  1   force =    -3.80982481    9.82001100  135.45497208
     atom    3 type  2   force =     0.27277063    1.14080785   16.08802212
     atom    4 type  2   force =     3.71525018    1.87805913   47.41371169
     atom    5 type  2   force =     0.80556327   -1.80843282   84.23470580
     atom    6 type  1   force =    -2.49159434  -10.56213635 -132.88217493
     atom    7 type  1   force =    -2.53903698   10.28888219  -86.10806725
     atom    8 type  2   force =     0.02433150    1.61879866  -83.89184810
     atom    9 type  2   force =     3.93483690   -0.02099728  -49.25950510
     atom   10 type  2   force =    -0.19988573   -0.74089485  -17.73503078
     The core correction contribution to forces
     atom    1 type  1   force =    -0.00228284   -0.00081425    0.00022742
     atom    2 type  1   force =    -0.00357800   -0.00395647    0.00139790
     atom    3 type  2   force =     0.00113331   -0.00476217    0.00900203
     atom    4 type  2   force =    -0.01012545   -0.00070640    0.00218557
     atom    5 type  2   force =     0.00001239    0.00390029   -0.00703604
     atom    6 type  1   force =    -0.00119244    0.00203859   -0.00059544
     atom    7 type  1   force =     0.00012348   -0.00391381    0.00061064
     atom    8 type  2   force =     0.00136757   -0.00422685    0.00695222
     atom    9 type  2   force =    -0.00987350   -0.00143087   -0.00019478
     atom   10 type  2   force =     0.00068007    0.00459224   -0.00722573
     The Hubbard contrib.    to forces
     atom    1 type  1   force =     0.00000000    0.00000000    0.00000000
     atom    2 type  1   force =     0.00000000    0.00000000    0.00000000
     atom    3 type  2   force =     0.00000000    0.00000000    0.00000000
     atom    4 type  2   force =     0.00000000    0.00000000    0.00000000
     atom    5 type  2   force =     0.00000000    0.00000000    0.00000000
     atom    6 type  1   force =     0.00000000    0.00000000    0.00000000
     atom    7 type  1   force =     0.00000000    0.00000000    0.00000000
     atom    8 type  2   force =     0.00000000    0.00000000    0.00000000
     atom    9 type  2   force =     0.00000000    0.00000000    0.00000000
     atom   10 type  2   force =     0.00000000    0.00000000    0.00000000
     The SCF correction term to forces
     atom    1 type  1   force =     0.00001599   -0.00002078   -0.00011950
     atom    2 type  1   force =    -0.00001347   -0.00000428   -0.00011637
     atom    3 type  2   force =    -0.00000172   -0.00001279    0.00001583
     atom    4 type  2   force =    -0.00000651    0.00001496   -0.00004279
     atom    5 type  2   force =    -0.00000086   -0.00002518    0.00000978
     atom    6 type  1   force =     0.00001464   -0.00003292   -0.00018874
     atom    7 type  1   force =    -0.00000518    0.00006530   -0.00019554
     atom    8 type  2   force =    -0.00000281   -0.00000800   -0.00005276
     atom    9 type  2   force =    -0.00000691   -0.00000641   -0.00006242
     atom   10 type  2   force =     0.00000165    0.00000969   -0.00008406

     Total force =     0.137974     Total SCF correction =     0.000354


     Computing stress (Cartesian axis) and pressure


     negative rho (up, down):  4.274E-04 0.000E+00
          total   stress  (Ry/bohr**3)                   (kbar)     P=      -19.02
  -0.00017017   0.00001709  -0.00001835          -25.03        2.51       -2.70
   0.00001709  -0.00019778   0.00001154            2.51      -29.09        1.70
  -0.00001835   0.00001154  -0.00001990           -2.70        1.70       -2.93

     kinetic stress (kbar)   4769.23      6.17     -2.51
                                6.17   4765.32     -4.45
                               -2.51     -4.45   4817.29

     local   stress (kbar)-497688.63    -97.08     30.85
                              -97.08-494398.17   -796.19
                               30.85   -796.19 495416.86

     nonloc. stress (kbar)   -104.87     -1.42     -0.42
                               -1.42   -127.01     16.98
                               -0.42     16.98      5.51

     hartree stress (kbar) 250994.34     49.07    -13.54
                               49.07 249378.00    379.74
                              -13.54    379.74-241774.62

     exc-cor stress (kbar)    600.65     -0.04      0.04
                               -0.04    601.72     -0.81
                                0.04     -0.81    591.69

     corecor stress (kbar)  -2383.27     -0.04      0.01
                               -0.04  -2383.39      0.17
                                0.01      0.17  -2382.90

     ewald   stress (kbar) 243787.51     45.86    -17.14
                               45.86 242134.44    406.26
                              -17.14    406.26-256676.76

     hubbard stress (kbar)      0.00      0.00      0.00
                                0.00      0.00      0.00
                                0.00      0.00      0.00

     DFT-D   stress (kbar)      0.00      0.00      0.00
                                0.00      0.00      0.00
                                0.00      0.00      0.00

     XDM     stress (kbar)      0.00      0.00      0.00
                                0.00      0.00      0.00
                                0.00      0.00      0.00

     dft-nl  stress (kbar)      0.00      0.00      0.00
                                0.00      0.00      0.00
                                0.00      0.00      0.00

     TS-vdW  stress (kbar)      0.00      0.00      0.00
                                0.00      0.00      0.00
                                0.00      0.00      0.00


                                0.00      0.00      0.00
                                0.00      0.00      0.00


                                0.00      0.00      0.00


     Entering Dynamics:    iteration =    17
                           time      =   0.0164 pico-seconds


     Canonical sampling velocity rescaling

ATOMIC_POSITIONS (crystal)
Ga            0.8340506819        0.7166062678        0.4261113633
Ga            0.5052621381        0.3007541475        0.3989918516
O             0.4158106954        0.5589374304        0.4480843595
O             0.4414276666        0.0169605978        0.4158197085
O             0.9494293198        0.4504005454        0.3799450517
Ga            0.8196547428        0.7222202063        0.5998258725
Ga            0.5137227293        0.3005546975        0.5738577409
O             0.3844865355        0.5753868184        0.6193426477
O             0.4743760491        0.0070123732        0.5858467978
O             0.9331372912        0.4557995109        0.5550470565


     kinetic energy (Ekin) =           0.04694694 Ry
     temperature           =         549.06187136 K 
     Ekin + Etot (const)   =       -1361.92062059 Ry
     Ions kinetic stress =            1.23 (kbar)
                                      1.53           0.04           0.11
                                      0.04           0.36          -0.65
                                      0.11          -0.65           1.81



     Linear momentum :   -0.0000000000    0.0000000000   -0.0000000000

     Writing config-only to output data dir ./tmp/Ga2O3-BL-001-300K.save/

     second order wave-functions extrapolation
     second order charge density extrapolation

     negative rho (up, down):  4.293E-04 0.000E+00

     total cpu time spent up to now is      939.5 secs

     Self-consistent Calculation

     iteration #  1     ecut=    80.00 Ry     beta= 0.20
     Davidson diagonalization with overlap

---- Real-time Memory Report at c_bands before calling an iterative solver
           314 MiB given to the printing process from OS
             0 MiB allocation reported by mallinfo(arena+hblkhd)
        367081 MiB available memory on the node where the printing process lives
------------------
     ethr =  1.00E-06,  avg # of iterations =  2.0

     Threshold (ethr) on eigenvalues was too large:
     Diagonalizing with lowered threshold

     Davidson diagonalization with overlap

---- Real-time Memory Report at c_bands before calling an iterative solver
           314 MiB given to the printing process from OS
             0 MiB allocation reported by mallinfo(arena+hblkhd)
        367069 MiB available memory on the node where the printing process lives
------------------
     ethr =  2.28E-09,  avg # of iterations =  6.6

     negative rho (up, down):  4.290E-04 0.000E+00

     total cpu time spent up to now is      944.4 secs

     total energy              =   -1361.96940949 Ry
     estimated scf accuracy    <       0.00000481 Ry

     iteration #  2     ecut=    80.00 Ry     beta= 0.20
     Davidson diagonalization with overlap

---- Real-time Memory Report at c_bands before calling an iterative solver
           314 MiB given to the printing process from OS
             0 MiB allocation reported by mallinfo(arena+hblkhd)
        367081 MiB available memory on the node where the printing process lives
------------------
     ethr =  5.47E-09,  avg # of iterations =  2.3

     negative rho (up, down):  4.287E-04 0.000E+00

     total cpu time spent up to now is      946.2 secs

     total energy              =   -1361.96940807 Ry
     estimated scf accuracy    <       0.00000203 Ry

     iteration #  3     ecut=    80.00 Ry     beta= 0.20
     Davidson diagonalization with overlap

---- Real-time Memory Report at c_bands before calling an iterative solver
           314 MiB given to the printing process from OS
             0 MiB allocation reported by mallinfo(arena+hblkhd)
        367075 MiB available memory on the node where the printing process lives
------------------
     ethr =  2.31E-09,  avg # of iterations =  9.9

     negative rho (up, down):  4.285E-04 0.000E+00

     total cpu time spent up to now is      949.9 secs

     total energy              =   -1361.96940913 Ry
     estimated scf accuracy    <       0.00001062 Ry

     iteration #  4     ecut=    80.00 Ry     beta= 0.20
     Davidson diagonalization with overlap

---- Real-time Memory Report at c_bands before calling an iterative solver
           314 MiB given to the printing process from OS
             0 MiB allocation reported by mallinfo(arena+hblkhd)
        367080 MiB available memory on the node where the printing process lives
------------------
     ethr =  2.31E-09,  avg # of iterations =  6.8

     negative rho (up, down):  4.283E-04 0.000E+00

     total cpu time spent up to now is      952.8 secs

     total energy              =   -1361.96941013 Ry
     estimated scf accuracy    <       0.00000105 Ry

     iteration #  5     ecut=    80.00 Ry     beta= 0.20
     Davidson diagonalization with overlap

---- Real-time Memory Report at c_bands before calling an iterative solver
           314 MiB given to the printing process from OS
             0 MiB allocation reported by mallinfo(arena+hblkhd)
        367072 MiB available memory on the node where the printing process lives
------------------
     ethr =  1.19E-09,  avg # of iterations =  2.0

     negative rho (up, down):  4.282E-04 0.000E+00

     total cpu time spent up to now is      954.7 secs

     total energy              =   -1361.96941013 Ry
     estimated scf accuracy    <       0.00000095 Ry

     iteration #  6     ecut=    80.00 Ry     beta= 0.20
     Davidson diagonalization with overlap

---- Real-time Memory Report at c_bands before calling an iterative solver
           314 MiB given to the printing process from OS
             0 MiB allocation reported by mallinfo(arena+hblkhd)
        367072 MiB available memory on the node where the printing process lives
------------------
     ethr =  1.08E-09,  avg # of iterations =  1.9

     negative rho (up, down):  4.281E-04 0.000E+00

     total cpu time spent up to now is      956.5 secs

     total energy              =   -1361.96940994 Ry
     estimated scf accuracy    <       0.00000077 Ry

     iteration #  7     ecut=    80.00 Ry     beta= 0.20
     Davidson diagonalization with overlap

---- Real-time Memory Report at c_bands before calling an iterative solver
           314 MiB given to the printing process from OS
             0 MiB allocation reported by mallinfo(arena+hblkhd)
        367071 MiB available memory on the node where the printing process lives
------------------
     ethr =  8.74E-10,  avg # of iterations =  5.7

     negative rho (up, down):  4.280E-04 0.000E+00

     total cpu time spent up to now is      958.9 secs

     total energy              =   -1361.96941003 Ry
     estimated scf accuracy    <       0.00000014 Ry

     iteration #  8     ecut=    80.00 Ry     beta= 0.20
     Davidson diagonalization with overlap

---- Real-time Memory Report at c_bands before calling an iterative solver
           314 MiB given to the printing process from OS
             0 MiB allocation reported by mallinfo(arena+hblkhd)
        367072 MiB available memory on the node where the printing process lives
------------------
     ethr =  1.56E-10,  avg # of iterations =  9.1

     negative rho (up, down):  4.279E-04 0.000E+00

     total cpu time spent up to now is      962.3 secs

     total energy              =   -1361.96941013 Ry
     estimated scf accuracy    <       0.00000003 Ry

     iteration #  9     ecut=    80.00 Ry     beta= 0.20
     Davidson diagonalization with overlap

---- Real-time Memory Report at c_bands before calling an iterative solver
           314 MiB given to the printing process from OS
             0 MiB allocation reported by mallinfo(arena+hblkhd)
        367072 MiB available memory on the node where the printing process lives
------------------
     ethr =  3.28E-11,  avg # of iterations = 10.4

     negative rho (up, down):  4.278E-04 0.000E+00

     total cpu time spent up to now is      966.1 secs

     total energy              =   -1361.96941015 Ry
     estimated scf accuracy    <       0.00000004 Ry

     iteration # 10     ecut=    80.00 Ry     beta= 0.20
     Davidson diagonalization with overlap

---- Real-time Memory Report at c_bands before calling an iterative solver
           314 MiB given to the printing process from OS
             0 MiB allocation reported by mallinfo(arena+hblkhd)
        367073 MiB available memory on the node where the printing process lives
------------------
     ethr =  3.28E-11,  avg # of iterations =  1.5

     negative rho (up, down):  4.278E-04 0.000E+00

     total cpu time spent up to now is      967.8 secs

     total energy              =   -1361.96941015 Ry
     estimated scf accuracy    <       0.00000004 Ry

     iteration # 11     ecut=    80.00 Ry     beta= 0.20
     Davidson diagonalization with overlap

---- Real-time Memory Report at c_bands before calling an iterative solver
           314 MiB given to the printing process from OS
             0 MiB allocation reported by mallinfo(arena+hblkhd)
        367073 MiB available memory on the node where the printing process lives
------------------
     ethr =  3.28E-11,  avg # of iterations =  2.5

     negative rho (up, down):  4.277E-04 0.000E+00

     total cpu time spent up to now is      969.8 secs

     total energy              =   -1361.96941014 Ry
     estimated scf accuracy    <       0.00000004 Ry

     iteration # 12     ecut=    80.00 Ry     beta= 0.20
     Davidson diagonalization with overlap

---- Real-time Memory Report at c_bands before calling an iterative solver
           314 MiB given to the printing process from OS
             0 MiB allocation reported by mallinfo(arena+hblkhd)
        367073 MiB available memory on the node where the printing process lives
------------------
     ethr =  3.28E-11,  avg # of iterations = 10.8

     negative rho (up, down):  4.277E-04 0.000E+00

     total cpu time spent up to now is      973.5 secs

     total energy              =   -1361.96941014 Ry
     estimated scf accuracy    <       0.00000009 Ry

     iteration # 13     ecut=    80.00 Ry     beta= 0.20
     Davidson diagonalization with overlap

---- Real-time Memory Report at c_bands before calling an iterative solver
           314 MiB given to the printing process from OS
             0 MiB allocation reported by mallinfo(arena+hblkhd)
        367073 MiB available memory on the node where the printing process lives
------------------
     ethr =  3.28E-11,  avg # of iterations =  7.4

     negative rho (up, down):  4.276E-04 0.000E+00

     total cpu time spent up to now is      976.5 secs

     End of self-consistent calculation

          k = 0.0000 0.0000 0.0000 ( 45065 PWs)   bands (ev):

   -24.7401 -24.4386 -23.7614 -23.5718 -23.5553 -23.2499 -20.1079 -20.0275
   -19.9729 -19.9633 -19.9405 -19.8853 -19.8503 -19.7626 -19.6774 -19.5195
   -19.4913 -19.4588 -19.4489 -19.3908 -19.3729 -19.3714 -19.3294 -19.2710
   -18.8278 -18.7742 -12.6708 -12.4740 -10.2532  -9.7140  -9.5554  -9.2711
    -8.6987  -8.3120  -8.2100  -8.1722  -8.0697  -8.0241  -7.7786  -7.7501
    -7.6241  -7.3945  -7.2416  -6.9541

     occupation numbers 
     1.0000   1.0000   1.0000   1.0000   1.0000   1.0000   1.0000   1.0000
     1.0000   1.0000   1.0000   1.0000   1.0000   1.0000   1.0000   1.0000
     1.0000   1.0000   1.0000   1.0000   1.0000   1.0000   1.0000   1.0000
     1.0000   1.0000   1.0000   1.0000   1.0000   1.0000   1.0000   1.0000
     1.0000   1.0000   1.0000   1.0000   1.0000   1.0000   1.0000   1.0000
     1.0000   1.0000   1.0000   1.0000

          k =-0.0062 0.1431 0.0000 ( 45113 PWs)   bands (ev):

   -24.6880 -24.3563 -23.8693 -23.7079 -23.5227 -23.1943 -20.0838 -20.0263
   -19.9845 -19.9636 -19.9385 -19.8765 -19.8421 -19.7589 -19.6466 -19.5251
   -19.5104 -19.4591 -19.4530 -19.4457 -19.3809 -19.3608 -19.3171 -19.2626
   -18.9115 -18.7591 -12.2652 -12.0566 -10.3729  -9.8383  -9.7593  -9.5347
    -9.2761  -8.8157  -8.2884  -8.1130  -7.9816  -7.8270  -7.7706  -7.5648
    -7.4559  -7.3411  -7.1952  -6.9937

     occupation numbers 
     1.0000   1.0000   1.0000   1.0000   1.0000   1.0000   1.0000   1.0000
     1.0000   1.0000   1.0000   1.0000   1.0000   1.0000   1.0000   1.0000
     1.0000   1.0000   1.0000   1.0000   1.0000   1.0000   1.0000   1.0000
     1.0000   1.0000   1.0000   1.0000   1.0000   1.0000   1.0000   1.0000
     1.0000   1.0000   1.0000   1.0000   1.0000   1.0000   1.0000   1.0000
     1.0000   1.0000   1.0000   1.0000

          k = 0.0124-0.2862 0.0000 ( 45174 PWs)   bands (ev):

   -24.6252 -24.2283 -23.9686 -23.8835 -23.4951 -23.1592 -20.0654 -20.0174
   -19.9958 -19.9638 -19.9319 -19.8590 -19.8381 -19.7572 -19.6109 -19.5368
   -19.5359 -19.5207 -19.4642 -19.4395 -19.3680 -19.3515 -19.3095 -19.2536
   -18.9965 -18.7498 -11.5409 -11.3516 -10.7858 -10.2968 -10.2073  -9.9288
    -9.4368  -9.0597  -8.3467  -8.0796  -8.0110  -7.6822  -7.6228  -7.5067
    -7.4064  -7.2410  -7.0760  -7.0569

     occupation numbers 
     1.0000   1.0000   1.0000   1.0000   1.0000   1.0000   1.0000   1.0000
     1.0000   1.0000   1.0000   1.0000   1.0000   1.0000   1.0000   1.0000
     1.0000   1.0000   1.0000   1.0000   1.0000   1.0000   1.0000   1.0000
     1.0000   1.0000   1.0000   1.0000   1.0000   1.0000   1.0000   1.0000
     1.0000   1.0000   1.0000   1.0000   1.0000   1.0000   1.0000   1.0000
     1.0000   1.0000   1.0000   1.0000

          k = 0.1684-0.0368 0.0000 ( 45086 PWs)   bands (ev):

   -24.6127 -24.2994 -23.7590 -23.5636 -23.5533 -23.2479 -20.0999 -20.0262
   -19.9924 -19.9460 -19.9219 -19.8780 -19.8275 -19.7605 -19.6626 -19.5300
   -19.4941 -19.4466 -19.4387 -19.3911 -19.3476 -19.3414 -19.2648 -19.2610
   -18.7894 -18.7343 -12.5522 -12.3607 -10.4880 -10.2523 -10.0142  -9.8901
    -9.1523  -8.6996  -8.5657  -8.2601  -8.2116  -7.9876  -7.9432  -7.7442
    -7.6494  -7.3878  -7.2267  -6.7658

     occupation numbers 
     1.0000   1.0000   1.0000   1.0000   1.0000   1.0000   1.0000   1.0000
     1.0000   1.0000   1.0000   1.0000   1.0000   1.0000   1.0000   1.0000
     1.0000   1.0000   1.0000   1.0000   1.0000   1.0000   1.0000   1.0000
     1.0000   1.0000   1.0000   1.0000   1.0000   1.0000   1.0000   1.0000
     1.0000   1.0000   1.0000   1.0000   1.0000   1.0000   1.0000   1.0000
     1.0000   1.0000   1.0000   1.0000

          k = 0.1622 0.1063 0.0000 ( 45049 PWs)   bands (ev):

   -24.5947 -24.2682 -23.7938 -23.6116 -23.5464 -23.2286 -20.0969 -20.0201
   -19.9854 -19.9416 -19.9317 -19.8785 -19.8279 -19.7451 -19.6515 -19.5347
   -19.4966 -19.4504 -19.4415 -19.3980 -19.3826 -19.3394 -19.2565 -19.2519
   -18.8604 -18.6865 -12.4032 -12.2236 -10.6602 -10.1462 -10.1143  -9.8387
    -9.2769  -8.9206  -8.6387  -8.3160  -8.2202  -7.8816  -7.8650  -7.7727
    -7.5817  -7.3494  -7.2315  -6.7746

     occupation numbers 
     1.0000   1.0000   1.0000   1.0000   1.0000   1.0000   1.0000   1.0000
     1.0000   1.0000   1.0000   1.0000   1.0000   1.0000   1.0000   1.0000
     1.0000   1.0000   1.0000   1.0000   1.0000   1.0000   1.0000   1.0000
     1.0000   1.0000   1.0000   1.0000   1.0000   1.0000   1.0000   1.0000
     1.0000   1.0000   1.0000   1.0000   1.0000   1.0000   1.0000   1.0000
     1.0000   1.0000   1.0000   1.0000

          k = 0.1808-0.3231 0.0000 ( 45092 PWs)   bands (ev):

   -24.5262 -24.1266 -23.8949 -23.8037 -23.5235 -23.1923 -20.0753 -20.0137
   -19.9817 -19.9532 -19.9173 -19.8714 -19.8238 -19.7231 -19.6151 -19.5375
   -19.5331 -19.5109 -19.4550 -19.4370 -19.3721 -19.3388 -19.2225 -19.2189
   -18.9957 -18.6575 -11.6867 -11.4887 -11.0488 -10.6025 -10.2274  -9.8811
    -9.7339  -9.4205  -8.8192  -8.4783  -8.1522  -7.8868  -7.7242  -7.5126
    -7.4913  -7.2642  -7.1454  -6.7951

     occupation numbers 
     1.0000   1.0000   1.0000   1.0000   1.0000   1.0000   1.0000   1.0000
     1.0000   1.0000   1.0000   1.0000   1.0000   1.0000   1.0000   1.0000
     1.0000   1.0000   1.0000   1.0000   1.0000   1.0000   1.0000   1.0000
     1.0000   1.0000   1.0000   1.0000   1.0000   1.0000   1.0000   1.0000
     1.0000   1.0000   1.0000   1.0000   1.0000   1.0000   1.0000   1.0000
     1.0000   1.0000   1.0000   1.0000

          k = 0.1746-0.1799 0.0000 ( 45085 PWs)   bands (ev):

   -24.5487 -24.1840 -23.8615 -23.7306 -23.5315 -23.2036 -20.0746 -20.0131
   -20.0003 -19.9533 -19.9158 -19.8684 -19.8229 -19.7510 -19.6282 -19.5279
   -19.5069 -19.4834 -19.4544 -19.4354 -19.3802 -19.3385 -19.2341 -19.2211
   -18.9478 -18.6747 -12.0087 -11.7685 -10.7132 -10.3952 -10.3132  -9.8713
    -9.6386  -9.2791  -8.7496  -8.4258  -8.1450  -7.9236  -7.7583  -7.5480
    -7.4834  -7.2753  -7.2422  -6.7860

     occupation numbers 
     1.0000   1.0000   1.0000   1.0000   1.0000   1.0000   1.0000   1.0000
     1.0000   1.0000   1.0000   1.0000   1.0000   1.0000   1.0000   1.0000
     1.0000   1.0000   1.0000   1.0000   1.0000   1.0000   1.0000   1.0000
     1.0000   1.0000   1.0000   1.0000   1.0000   1.0000   1.0000   1.0000
     1.0000   1.0000   1.0000   1.0000   1.0000   1.0000   1.0000   1.0000
     1.0000   1.0000   1.0000   1.0000

          k = 0.3368-0.0737 0.0000 ( 45074 PWs)   bands (ev):

   -24.3242 -23.9671 -23.7410 -23.5821 -23.5394 -23.3077 -20.0641 -20.0165
   -19.9877 -19.9614 -19.8734 -19.8563 -19.8058 -19.7095 -19.6196 -19.5134
   -19.4847 -19.4634 -19.3989 -19.3754 -19.3556 -19.3161 -19.1954 -19.1136
   -18.8335 -18.5832 -12.5761 -12.3418 -11.4932 -11.1108 -10.6907 -10.3052
    -9.5579  -9.1946  -8.7910  -8.5322  -8.3438  -8.2754  -7.9938  -7.6439
    -7.5287  -7.4192  -7.2851  -6.7812

     occupation numbers 
     1.0000   1.0000   1.0000   1.0000   1.0000   1.0000   1.0000   1.0000
     1.0000   1.0000   1.0000   1.0000   1.0000   1.0000   1.0000   1.0000
     1.0000   1.0000   1.0000   1.0000   1.0000   1.0000   1.0000   1.0000
     1.0000   1.0000   1.0000   1.0000   1.0000   1.0000   1.0000   1.0000
     1.0000   1.0000   1.0000   1.0000   1.0000   1.0000   1.0000   1.0000
     1.0000   1.0000   1.0000   1.0000

          k = 0.3306 0.0695 0.0000 ( 45046 PWs)   bands (ev):

   -24.3306 -23.9785 -23.7456 -23.5710 -23.5295 -23.3044 -20.0774 -20.0183
   -19.9776 -19.9425 -19.8812 -19.8565 -19.8051 -19.7079 -19.6220 -19.5150
   -19.4920 -19.4700 -19.3916 -19.3666 -19.3300 -19.3244 -19.2047 -19.1429
   -18.7969 -18.5933 -12.6045 -12.4154 -11.5795 -11.0643 -10.6140 -10.3399
    -9.4649  -9.1506  -8.7904  -8.4759  -8.3535  -8.2050  -8.0362  -7.7192
    -7.5305  -7.4477  -7.2760  -6.7826

     occupation numbers 
     1.0000   1.0000   1.0000   1.0000   1.0000   1.0000   1.0000   1.0000
     1.0000   1.0000   1.0000   1.0000   1.0000   1.0000   1.0000   1.0000
     1.0000   1.0000   1.0000   1.0000   1.0000   1.0000   1.0000   1.0000
     1.0000   1.0000   1.0000   1.0000   1.0000   1.0000   1.0000   1.0000
     1.0000   1.0000   1.0000   1.0000   1.0000   1.0000   1.0000   1.0000
     1.0000   1.0000   1.0000   1.0000

          k = 0.3492-0.3599 0.0000 ( 45085 PWs)   bands (ev):

   -24.2935 -23.8758 -23.7679 -23.6492 -23.5890 -23.2951 -20.0609 -20.0184
   -19.9739 -19.9265 -19.8833 -19.8532 -19.8063 -19.6591 -19.5947 -19.5160
   -19.5027 -19.4979 -19.4713 -19.3912 -19.3669 -19.3269 -19.1551 -19.0842
   -18.9535 -18.5298 -12.2712 -12.0380 -11.8409 -11.3879 -10.3411 -10.0679
    -9.6878  -9.4520  -8.9560  -8.5957  -8.5354  -8.1839  -8.0643  -7.5979
    -7.5796  -7.2870  -7.2128  -6.7962

     occupation numbers 
     1.0000   1.0000   1.0000   1.0000   1.0000   1.0000   1.0000   1.0000
     1.0000   1.0000   1.0000   1.0000   1.0000   1.0000   1.0000   1.0000
     1.0000   1.0000   1.0000   1.0000   1.0000   1.0000   1.0000   1.0000
     1.0000   1.0000   1.0000   1.0000   1.0000   1.0000   1.0000   1.0000
     1.0000   1.0000   1.0000   1.0000   1.0000   1.0000   1.0000   1.0000
     1.0000   1.0000   1.0000   1.0000

          k = 0.3430-0.2168 0.0000 ( 45092 PWs)   bands (ev):

   -24.2864 -23.8514 -23.7643 -23.6725 -23.6000 -23.2979 -20.0481 -20.0124
   -19.9816 -19.9559 -19.8692 -19.8520 -19.8074 -19.6662 -19.5954 -19.5170
   -19.5123 -19.4831 -19.4670 -19.3993 -19.3697 -19.3210 -19.1280 -19.0677
   -19.0030 -18.5267 -12.2603 -11.8911 -11.7445 -11.4915 -10.3693 -10.0004
    -9.8639  -9.5677  -8.9666  -8.6406  -8.4865  -8.1242  -8.0182  -7.6916
    -7.4899  -7.3181  -7.1809  -6.8019

     occupation numbers 
     1.0000   1.0000   1.0000   1.0000   1.0000   1.0000   1.0000   1.0000
     1.0000   1.0000   1.0000   1.0000   1.0000   1.0000   1.0000   1.0000
     1.0000   1.0000   1.0000   1.0000   1.0000   1.0000   1.0000   1.0000
     1.0000   1.0000   1.0000   1.0000   1.0000   1.0000   1.0000   1.0000
     1.0000   1.0000   1.0000   1.0000   1.0000   1.0000   1.0000   1.0000
     1.0000   1.0000   1.0000   1.0000

          k =-0.5052 0.1105 0.0000 ( 45134 PWs)   bands (ev):

   -24.1465 -23.7311 -23.7246 -23.6225 -23.4888 -23.4528 -20.0439 -20.0161
   -19.9899 -19.9522 -19.8618 -19.8279 -19.7980 -19.6283 -19.5955 -19.5241
   -19.4843 -19.4309 -19.4218 -19.3832 -19.3677 -19.2891 -19.1075 -19.0324
   -18.9336 -18.5042 -12.7146 -12.3957 -12.1013 -11.7810 -10.4356 -10.0926
    -9.8770  -9.5006  -8.9914  -8.6485  -8.3287  -8.0663  -8.0302  -7.6708
    -7.5540  -7.4346  -7.2445  -7.0276

     occupation numbers 
     1.0000   1.0000   1.0000   1.0000   1.0000   1.0000   1.0000   1.0000
     1.0000   1.0000   1.0000   1.0000   1.0000   1.0000   1.0000   1.0000
     1.0000   1.0000   1.0000   1.0000   1.0000   1.0000   1.0000   1.0000
     1.0000   1.0000   1.0000   1.0000   1.0000   1.0000   1.0000   1.0000
     1.0000   1.0000   1.0000   1.0000   1.0000   1.0000   1.0000   1.0000
     1.0000   1.0000   1.0000   1.0000

          k =-0.5114 0.2536 0.0000 ( 45094 PWs)   bands (ev):

   -24.1436 -23.7417 -23.7105 -23.6154 -23.5226 -23.4330 -20.0487 -20.0249
   -19.9855 -19.9250 -19.8725 -19.8191 -19.7859 -19.6328 -19.5901 -19.5245
   -19.4834 -19.4561 -19.4415 -19.3818 -19.3435 -19.3033 -19.1054 -19.0390
   -18.9319 -18.5010 -12.6857 -12.3754 -12.1674 -11.8135 -10.3396 -10.0421
    -9.9272  -9.5944  -8.8475  -8.5825  -8.4566  -8.0142  -7.9691  -7.7779
    -7.5924  -7.4084  -7.2630  -7.0344

     occupation numbers 
     1.0000   1.0000   1.0000   1.0000   1.0000   1.0000   1.0000   1.0000
     1.0000   1.0000   1.0000   1.0000   1.0000   1.0000   1.0000   1.0000
     1.0000   1.0000   1.0000   1.0000   1.0000   1.0000   1.0000   1.0000
     1.0000   1.0000   1.0000   1.0000   1.0000   1.0000   1.0000   1.0000
     1.0000   1.0000   1.0000   1.0000   1.0000   1.0000   1.0000   1.0000
     1.0000   1.0000   1.0000   1.0000

          k =-0.4929-0.1758 0.0000 ( 45008 PWs)   bands (ev):

   -24.1407 -23.7514 -23.6930 -23.6093 -23.5506 -23.4224 -20.0569 -20.0257
   -19.9828 -19.8908 -19.8745 -19.8314 -19.7701 -19.6407 -19.5844 -19.5233
   -19.4842 -19.4693 -19.4580 -19.3725 -19.3359 -19.3236 -19.1058 -19.0463
   -18.9231 -18.4992 -12.6481 -12.3561 -12.2409 -11.8477 -10.3828 -10.0744
    -9.6877  -9.5037  -8.8546  -8.6188  -8.5197  -8.2126  -8.0133  -7.7641
    -7.5010  -7.3837  -7.2450  -7.0323

     occupation numbers 
     1.0000   1.0000   1.0000   1.0000   1.0000   1.0000   1.0000   1.0000
     1.0000   1.0000   1.0000   1.0000   1.0000   1.0000   1.0000   1.0000
     1.0000   1.0000   1.0000   1.0000   1.0000   1.0000   1.0000   1.0000
     1.0000   1.0000   1.0000   1.0000   1.0000   1.0000   1.0000   1.0000
     1.0000   1.0000   1.0000   1.0000   1.0000   1.0000   1.0000   1.0000
     1.0000   1.0000   1.0000   1.0000

     highest occupied level (ev):    -6.7658

!    total energy              =   -1361.96941016 Ry
     estimated scf accuracy    <          7.5E-09 Ry

     convergence has been achieved in  13 iterations

     negative rho (up, down):  4.276E-04 0.000E+00

     Forces acting on atoms (cartesian axes, Ry/au):

     atom    1 type  1   force =    -0.01022995   -0.00956013    0.01087262
     atom    2 type  1   force =     0.02807564    0.03991959    0.02916030
     atom    3 type  2   force =    -0.03328235    0.03026759   -0.03171029
     atom    4 type  2   force =     0.04091994   -0.05641709   -0.00006337
     atom    5 type  2   force =    -0.02562952   -0.00533366   -0.00836027
     atom    6 type  1   force =     0.00528824   -0.03916088   -0.00484746
     atom    7 type  1   force =    -0.00586610    0.05630985    0.00524464
     atom    8 type  2   force =    -0.01648173    0.01128420    0.00702893
     atom    9 type  2   force =     0.01286979    0.00382541   -0.00100425
     atom   10 type  2   force =     0.00433603   -0.03113488   -0.00632084
     The non-local contrib.  to forces
     atom    1 type  1   force =     0.28499498    0.20852751   -0.03592729
     atom    2 type  1   force =     0.26782184   -0.02022675   -0.24906679
     atom    3 type  2   force =    -0.08922672    0.50072299   -1.05603895
     atom    4 type  2   force =     1.08122987    0.13283917   -0.25956141
     atom    5 type  2   force =     0.04393213   -0.42857004    0.87000680
     atom    6 type  1   force =     0.20107337    0.15471491    0.10879984
     atom    7 type  1   force =     0.14391321   -0.07769743   -0.09116295
     atom    8 type  2   force =    -0.12663027    0.45831733   -0.85915624
     atom    9 type  2   force =     1.07465072    0.15526834    0.02745340
     atom   10 type  2   force =    -0.06923289   -0.48175867    0.88793802
     The ionic contribution  to forces
     atom    1 type  1   force =     2.26817326   12.01881735  -87.24287131
     atom    2 type  1   force =     3.56132868   -9.84726722 -135.37343616
     atom    3 type  2   force =    -0.24377257   -1.60010117  -15.19266310
     atom    4 type  2   force =    -4.72209250   -1.98579477  -46.99923030
     atom    5 type  2   force =    -0.90201875    2.18817244  -84.98992745
     atom    6 type  1   force =     2.27530277   10.39082095  132.82918150
     atom    7 type  1   force =     2.36150694  -10.13185269   86.16041682
     atom    8 type  2   force =     0.07694819   -2.01906645   84.59412521
     atom    9 type  2   force =    -4.95031222   -0.15828917   49.18547054
     atom   10 type  2   force =     0.27493619    1.14456073   17.02893425
     The local contribution  to forces
     atom    1 type  1   force =    -2.56106797  -12.23616604   87.28938248
     atom    2 type  1   force =    -3.79744710    9.91135912  135.65021302
     atom    3 type  2   force =     0.29855577    1.13440986   16.20811137
     atom    4 type  2   force =     3.69188827    1.79723621   47.25642124
     atom    5 type  2   force =     0.83249301   -1.76886268   84.11839950
     atom    6 type  1   force =    -2.46993297  -10.58683271 -132.94241857
     atom    7 type  1   force =    -2.51145879   10.26995945  -86.06479766
     atom    8 type  2   force =     0.03182903    1.57626045  -83.73474444
     atom    9 type  2   force =     3.89831687    0.00829010  -49.21375228
     atom   10 type  2   force =    -0.20203704   -0.69852831  -17.91621351
     The core correction contribution to forces
     atom    1 type  1   force =    -0.00235508   -0.00072678    0.00022130
     atom    2 type  1   force =    -0.00361161   -0.00390879    0.00140224
     atom    3 type  2   force =     0.00115002   -0.00476697    0.00887158
     atom    4 type  2   force =    -0.01010281   -0.00068933    0.00229754
     atom    5 type  2   force =    -0.00003777    0.00391842   -0.00684371
     atom    6 type  1   force =    -0.00113048    0.00210157   -0.00059085
     atom    7 type  1   force =     0.00018495   -0.00407881    0.00061459
     atom    8 type  2   force =     0.00136445   -0.00423837    0.00675996
     atom    9 type  2   force =    -0.00978529   -0.00143583   -0.00021628
     atom   10 type  2   force =     0.00066800    0.00459325   -0.00701736
     The Hubbard contrib.    to forces
     atom    1 type  1   force =     0.00000000    0.00000000    0.00000000
     atom    2 type  1   force =     0.00000000    0.00000000    0.00000000
     atom    3 type  2   force =     0.00000000    0.00000000    0.00000000
     atom    4 type  2   force =     0.00000000    0.00000000    0.00000000
     atom    5 type  2   force =     0.00000000    0.00000000    0.00000000
     atom    6 type  1   force =     0.00000000    0.00000000    0.00000000
     atom    7 type  1   force =     0.00000000    0.00000000    0.00000000
     atom    8 type  2   force =     0.00000000    0.00000000    0.00000000
     atom    9 type  2   force =     0.00000000    0.00000000    0.00000000
     atom   10 type  2   force =     0.00000000    0.00000000    0.00000000
     The SCF correction term to forces
     atom    1 type  1   force =     0.00002189   -0.00001102    0.00009410
     atom    2 type  1   force =    -0.00001914   -0.00003563    0.00007466
     atom    3 type  2   force =     0.00000818    0.00000402    0.00003547
     atom    4 type  2   force =    -0.00000585   -0.00000722    0.00003622
     atom    5 type  2   force =    -0.00000110    0.00000935    0.00003125
     atom    6 type  1   force =    -0.00002742    0.00003555    0.00020728
     atom    7 type  1   force =    -0.00001536   -0.00001951    0.00020051
     atom    8 type  2   force =     0.00000391    0.00001239    0.00007109
     atom    9 type  2   force =    -0.00000324   -0.00000689    0.00006704
     atom   10 type  2   force =    -0.00000120   -0.00000073    0.00006441

     Total force =     0.136616     Total SCF correction =     0.000347


     Computing stress (Cartesian axis) and pressure


     negative rho (up, down):  4.276E-04 0.000E+00
          total   stress  (Ry/bohr**3)                   (kbar)     P=      -17.54
  -0.00015763   0.00001670  -0.00001896          -23.19        2.46       -2.79
   0.00001670  -0.00018692   0.00001055            2.46      -27.50        1.55
  -0.00001896   0.00001055  -0.00001320           -2.79        1.55       -1.94

     kinetic stress (kbar)   4781.61      6.18     -2.50
                                6.18   4776.75     -4.92
                               -2.50     -4.92   4825.25

     local   stress (kbar)-497847.86    -88.53     32.11
                              -88.53-494570.62   -835.02
                               32.11   -835.02 495599.92

     nonloc. stress (kbar)   -116.75     -1.19     -0.49
                               -1.19   -139.05     17.19
                               -0.49     17.19     -2.74

     hartree stress (kbar) 251074.71     46.03    -14.16
                               46.03 249463.13    396.78
                              -14.16    396.78-241857.87

     exc-cor stress (kbar)    600.22     -0.06      0.04
                               -0.06    601.31     -0.80
                                0.04     -0.80    591.15

     corecor stress (kbar)  -2383.22     -0.04      0.01
                               -0.04  -2383.34      0.17
                                0.01      0.17  -2382.81

     ewald   stress (kbar) 243868.11     40.06    -17.80
                               40.06 242224.31    428.14
                              -17.80    428.14-256774.84

     hubbard stress (kbar)      0.00      0.00      0.00
                                0.00      0.00      0.00
                                0.00      0.00      0.00

     DFT-D   stress (kbar)      0.00      0.00      0.00
                                0.00      0.00      0.00
                                0.00      0.00      0.00

     XDM     stress (kbar)      0.00      0.00      0.00
                                0.00      0.00      0.00
                                0.00      0.00      0.00

     dft-nl  stress (kbar)      0.00      0.00      0.00
                                0.00      0.00      0.00
                                0.00      0.00      0.00

     TS-vdW  stress (kbar)      0.00      0.00      0.00
                                0.00      0.00      0.00
                                0.00      0.00      0.00


                                0.00      0.00      0.00
                                0.00      0.00      0.00


                                0.00      0.00      0.00


     Entering Dynamics:    iteration =    18
                           time      =   0.0174 pico-seconds


     Canonical sampling velocity rescaling

ATOMIC_POSITIONS (crystal)
Ga            0.8342710500        0.7163672972        0.4260976006
Ga            0.5045022970        0.3008612179        0.3989282873
O             0.4161955701        0.5594196744        0.4477821098
O             0.4446986748        0.0164691799        0.4159830702
O             0.9493381439        0.4499009811        0.3801709587
Ga            0.8191974648        0.7221906388        0.5998406119
Ga            0.5132062294        0.3006898319        0.5738869864
O             0.3835798934        0.5764614026        0.6190708230
O             0.4782815328        0.0072571430        0.5858152584
O             0.9331684293        0.4551036545        0.5554087047


     kinetic energy (Ekin) =           0.04902375 Ry
     temperature           =         573.35092136 K 
     Ekin + Etot (const)   =       -1361.92038641 Ry
     Ions kinetic stress =            1.29 (kbar)
                                      1.61          -0.01           0.13
                                     -0.01           0.42          -0.73
                                      0.13          -0.73           1.83



     Linear momentum :    0.0000000000    0.0000000000    0.0000000000

     Writing config-only to output data dir ./tmp/Ga2O3-BL-001-300K.save/

     second order wave-functions extrapolation
     second order charge density extrapolation

     negative rho (up, down):  4.287E-04 0.000E+00

     total cpu time spent up to now is      985.4 secs

     Self-consistent Calculation

     iteration #  1     ecut=    80.00 Ry     beta= 0.20
     Davidson diagonalization with overlap

---- Real-time Memory Report at c_bands before calling an iterative solver
           314 MiB given to the printing process from OS
             0 MiB allocation reported by mallinfo(arena+hblkhd)
        367068 MiB available memory on the node where the printing process lives
------------------
     ethr =  1.00E-06,  avg # of iterations =  2.0

     Threshold (ethr) on eigenvalues was too large:
     Diagonalizing with lowered threshold

     Davidson diagonalization with overlap

---- Real-time Memory Report at c_bands before calling an iterative solver
           314 MiB given to the printing process from OS
             0 MiB allocation reported by mallinfo(arena+hblkhd)
        367060 MiB available memory on the node where the printing process lives
------------------
     ethr =  2.46E-09,  avg # of iterations =  7.2

     negative rho (up, down):  4.284E-04 0.000E+00

     total cpu time spent up to now is      990.3 secs

     total energy              =   -1361.97120787 Ry
     estimated scf accuracy    <       0.00000505 Ry

     iteration #  2     ecut=    80.00 Ry     beta= 0.20
     Davidson diagonalization with overlap

---- Real-time Memory Report at c_bands before calling an iterative solver
           314 MiB given to the printing process from OS
             0 MiB allocation reported by mallinfo(arena+hblkhd)
        367068 MiB available memory on the node where the printing process lives
------------------
     ethr =  5.74E-09,  avg # of iterations =  3.6

     negative rho (up, down):  4.281E-04 0.000E+00

     total cpu time spent up to now is      992.3 secs

     total energy              =   -1361.97120686 Ry
     estimated scf accuracy    <       0.00000178 Ry

     iteration #  3     ecut=    80.00 Ry     beta= 0.20
     Davidson diagonalization with overlap

---- Real-time Memory Report at c_bands before calling an iterative solver
           314 MiB given to the printing process from OS
             0 MiB allocation reported by mallinfo(arena+hblkhd)
        367072 MiB available memory on the node where the printing process lives
------------------
     ethr =  2.02E-09,  avg # of iterations =  9.9

     negative rho (up, down):  4.279E-04 0.000E+00

     total cpu time spent up to now is      995.9 secs

     total energy              =   -1361.97120766 Ry
     estimated scf accuracy    <       0.00000676 Ry

     iteration #  4     ecut=    80.00 Ry     beta= 0.20
     Davidson diagonalization with overlap

---- Real-time Memory Report at c_bands before calling an iterative solver
           314 MiB given to the printing process from OS
             0 MiB allocation reported by mallinfo(arena+hblkhd)
        367075 MiB available memory on the node where the printing process lives
------------------
     ethr =  2.02E-09,  avg # of iterations =  6.6

     negative rho (up, down):  4.277E-04 0.000E+00

     total cpu time spent up to now is      998.7 secs

     total energy              =   -1361.97120853 Ry
     estimated scf accuracy    <       0.00000021 Ry

     iteration #  5     ecut=    80.00 Ry     beta= 0.20
     Davidson diagonalization with overlap

---- Real-time Memory Report at c_bands before calling an iterative solver
           314 MiB given to the printing process from OS
             0 MiB allocation reported by mallinfo(arena+hblkhd)
        367075 MiB available memory on the node where the printing process lives
------------------
     ethr =  2.44E-10,  avg # of iterations =  6.4

     negative rho (up, down):  4.275E-04 0.000E+00

     total cpu time spent up to now is     1001.2 secs

     total energy              =   -1361.97120852 Ry
     estimated scf accuracy    <       0.00000019 Ry

     iteration #  6     ecut=    80.00 Ry     beta= 0.20
     Davidson diagonalization with overlap

---- Real-time Memory Report at c_bands before calling an iterative solver
           314 MiB given to the printing process from OS
             0 MiB allocation reported by mallinfo(arena+hblkhd)
        367075 MiB available memory on the node where the printing process lives
------------------
     ethr =  2.18E-10,  avg # of iterations =  4.5

     negative rho (up, down):  4.274E-04 0.000E+00

     total cpu time spent up to now is     1003.4 secs

     total energy              =   -1361.97120853 Ry
     estimated scf accuracy    <       0.00000006 Ry

     iteration #  7     ecut=    80.00 Ry     beta= 0.20
     Davidson diagonalization with overlap

---- Real-time Memory Report at c_bands before calling an iterative solver
           314 MiB given to the printing process from OS
             0 MiB allocation reported by mallinfo(arena+hblkhd)
        367068 MiB available memory on the node where the printing process lives
------------------
     ethr =  6.90E-11,  avg # of iterations =  9.4

     negative rho (up, down):  4.273E-04 0.000E+00

     total cpu time spent up to now is     1006.7 secs

     total energy              =   -1361.97120857 Ry
     estimated scf accuracy    <       0.00000002 Ry

     iteration #  8     ecut=    80.00 Ry     beta= 0.20
     Davidson diagonalization with overlap

---- Real-time Memory Report at c_bands before calling an iterative solver
           314 MiB given to the printing process from OS
             0 MiB allocation reported by mallinfo(arena+hblkhd)
        367068 MiB available memory on the node where the printing process lives
------------------
     ethr =  2.33E-11,  avg # of iterations =  9.9

     negative rho (up, down):  4.273E-04 0.000E+00

     total cpu time spent up to now is     1009.9 secs

     total energy              =   -1361.97120857 Ry
     estimated scf accuracy    <       0.00000002 Ry

     iteration #  9     ecut=    80.00 Ry     beta= 0.20
     Davidson diagonalization with overlap

---- Real-time Memory Report at c_bands before calling an iterative solver
           314 MiB given to the printing process from OS
             0 MiB allocation reported by mallinfo(arena+hblkhd)
        367062 MiB available memory on the node where the printing process lives
------------------
     ethr =  2.33E-11,  avg # of iterations =  1.9

     negative rho (up, down):  4.272E-04 0.000E+00

     total cpu time spent up to now is     1011.8 secs

     total energy              =   -1361.97120857 Ry
     estimated scf accuracy    <       0.00000002 Ry

     iteration # 10     ecut=    80.00 Ry     beta= 0.20
     Davidson diagonalization with overlap

---- Real-time Memory Report at c_bands before calling an iterative solver
           314 MiB given to the printing process from OS
             0 MiB allocation reported by mallinfo(arena+hblkhd)
        367067 MiB available memory on the node where the printing process lives
------------------
     ethr =  2.33E-11,  avg # of iterations =  1.6

     negative rho (up, down):  4.272E-04 0.000E+00

     total cpu time spent up to now is     1013.5 secs

     total energy              =   -1361.97120857 Ry
     estimated scf accuracy    <       0.00000002 Ry

     iteration # 11     ecut=    80.00 Ry     beta= 0.20
     Davidson diagonalization with overlap

---- Real-time Memory Report at c_bands before calling an iterative solver
           314 MiB given to the printing process from OS
             0 MiB allocation reported by mallinfo(arena+hblkhd)
        367067 MiB available memory on the node where the printing process lives
------------------
     ethr =  2.33E-11,  avg # of iterations =  1.8

     negative rho (up, down):  4.271E-04 0.000E+00

     total cpu time spent up to now is     1015.4 secs

     total energy              =   -1361.97120858 Ry
     estimated scf accuracy    <       0.00000002 Ry

     iteration # 12     ecut=    80.00 Ry     beta= 0.20
     Davidson diagonalization with overlap

---- Real-time Memory Report at c_bands before calling an iterative solver
           314 MiB given to the printing process from OS
             0 MiB allocation reported by mallinfo(arena+hblkhd)
        367068 MiB available memory on the node where the printing process lives
------------------
     ethr =  2.33E-11,  avg # of iterations =  8.6

     negative rho (up, down):  4.271E-04 0.000E+00

     total cpu time spent up to now is     1018.5 secs

     total energy              =   -1361.97120856 Ry
     estimated scf accuracy    <       0.00000010 Ry

     iteration # 13     ecut=    80.00 Ry     beta= 0.20
     Davidson diagonalization with overlap

---- Real-time Memory Report at c_bands before calling an iterative solver
           314 MiB given to the printing process from OS
             0 MiB allocation reported by mallinfo(arena+hblkhd)
        367070 MiB available memory on the node where the printing process lives
------------------
     ethr =  2.33E-11,  avg # of iterations =  7.7

     negative rho (up, down):  4.270E-04 0.000E+00

     total cpu time spent up to now is     1021.6 secs

     End of self-consistent calculation

          k = 0.0000 0.0000 0.0000 ( 45065 PWs)   bands (ev):

   -24.7550 -24.4388 -23.7528 -23.5651 -23.5428 -23.2360 -20.0851 -19.9994
   -19.9403 -19.9361 -19.9129 -19.8604 -19.8284 -19.7389 -19.6408 -19.4753
   -19.4493 -19.4147 -19.4045 -19.3457 -19.3429 -19.3231 -19.2937 -19.2232
   -18.7735 -18.7165 -12.6651 -12.4560 -10.2411  -9.6862  -9.5705  -9.2726
    -8.6738  -8.3032  -8.1815  -8.1625  -8.0503  -8.0059  -7.7595  -7.7266
    -7.5852  -7.3782  -7.1836  -6.9352

     occupation numbers 
     1.0000   1.0000   1.0000   1.0000   1.0000   1.0000   1.0000   1.0000
     1.0000   1.0000   1.0000   1.0000   1.0000   1.0000   1.0000   1.0000
     1.0000   1.0000   1.0000   1.0000   1.0000   1.0000   1.0000   1.0000
     1.0000   1.0000   1.0000   1.0000   1.0000   1.0000   1.0000   1.0000
     1.0000   1.0000   1.0000   1.0000   1.0000   1.0000   1.0000   1.0000
     1.0000   1.0000   1.0000   1.0000

          k =-0.0062 0.1431 0.0000 ( 45113 PWs)   bands (ev):

   -24.7046 -24.3579 -23.8584 -23.6931 -23.5177 -23.1807 -20.0597 -19.9990
   -19.9567 -19.9339 -19.9089 -19.8522 -19.8194 -19.7350 -19.6092 -19.4820
   -19.4681 -19.4257 -19.4148 -19.4004 -19.3357 -19.3129 -19.2799 -19.2149
   -18.8612 -18.6980 -12.2556 -12.0357 -10.3618  -9.8122  -9.7566  -9.5203
    -9.2812  -8.8042  -8.2753  -8.1045  -7.9566  -7.8110  -7.7491  -7.5358
    -7.4319  -7.3094  -7.1443  -6.9763

     occupation numbers 
     1.0000   1.0000   1.0000   1.0000   1.0000   1.0000   1.0000   1.0000
     1.0000   1.0000   1.0000   1.0000   1.0000   1.0000   1.0000   1.0000
     1.0000   1.0000   1.0000   1.0000   1.0000   1.0000   1.0000   1.0000
     1.0000   1.0000   1.0000   1.0000   1.0000   1.0000   1.0000   1.0000
     1.0000   1.0000   1.0000   1.0000   1.0000   1.0000   1.0000   1.0000
     1.0000   1.0000   1.0000   1.0000

          k = 0.0124-0.2862 0.0000 ( 45174 PWs)   bands (ev):

   -24.6446 -24.2349 -23.9544 -23.8638 -23.4905 -23.1459 -20.0391 -19.9912
   -19.9689 -19.9353 -19.9012 -19.8333 -19.8155 -19.7334 -19.5725 -19.5115
   -19.4945 -19.4778 -19.4198 -19.3937 -19.3230 -19.3038 -19.2718 -19.2058
   -18.9480 -18.6874 -11.5186 -11.3253 -10.7820 -10.2705 -10.1956  -9.9075
    -9.4587  -9.0708  -8.3245  -8.0734  -7.9748  -7.6627  -7.5937  -7.4920
    -7.3847  -7.1886  -7.0649  -7.0239

     occupation numbers 
     1.0000   1.0000   1.0000   1.0000   1.0000   1.0000   1.0000   1.0000
     1.0000   1.0000   1.0000   1.0000   1.0000   1.0000   1.0000   1.0000
     1.0000   1.0000   1.0000   1.0000   1.0000   1.0000   1.0000   1.0000
     1.0000   1.0000   1.0000   1.0000   1.0000   1.0000   1.0000   1.0000
     1.0000   1.0000   1.0000   1.0000   1.0000   1.0000   1.0000   1.0000
     1.0000   1.0000   1.0000   1.0000

          k = 0.1684-0.0368 0.0000 ( 45086 PWs)   bands (ev):

   -24.6270 -24.2983 -23.7495 -23.5564 -23.5413 -23.2341 -20.0760 -19.9998
   -19.9625 -19.9159 -19.8967 -19.8521 -19.8045 -19.7359 -19.6251 -19.4877
   -19.4502 -19.4028 -19.3952 -19.3458 -19.3156 -19.2937 -19.2318 -19.2128
   -18.7350 -18.6783 -12.5508 -12.3474 -10.4791 -10.2614 -10.0009  -9.8771
    -9.1388  -8.6649  -8.5552  -8.2453  -8.1935  -7.9665  -7.9160  -7.7095
    -7.6201  -7.3408  -7.2049  -6.7400

     occupation numbers 
     1.0000   1.0000   1.0000   1.0000   1.0000   1.0000   1.0000   1.0000
     1.0000   1.0000   1.0000   1.0000   1.0000   1.0000   1.0000   1.0000
     1.0000   1.0000   1.0000   1.0000   1.0000   1.0000   1.0000   1.0000
     1.0000   1.0000   1.0000   1.0000   1.0000   1.0000   1.0000   1.0000
     1.0000   1.0000   1.0000   1.0000   1.0000   1.0000   1.0000   1.0000
     1.0000   1.0000   1.0000   1.0000

          k = 0.1622 0.1063 0.0000 ( 45049 PWs)   bands (ev):

   -24.6098 -24.2675 -23.7828 -23.5975 -23.5417 -23.2149 -20.0719 -19.9929
   -19.9572 -19.9134 -19.9044 -19.8528 -19.8053 -19.7198 -19.6140 -19.4924
   -19.4528 -19.4053 -19.3990 -19.3674 -19.3370 -19.2917 -19.2190 -19.2075
   -18.8083 -18.6284 -12.4004 -12.2101 -10.6550 -10.1497 -10.0990  -9.8268
    -9.2656  -8.8918  -8.6327  -8.2959  -8.1996  -7.8574  -7.8288  -7.7472
    -7.5534  -7.3069  -7.2076  -6.7496

     occupation numbers 
     1.0000   1.0000   1.0000   1.0000   1.0000   1.0000   1.0000   1.0000
     1.0000   1.0000   1.0000   1.0000   1.0000   1.0000   1.0000   1.0000
     1.0000   1.0000   1.0000   1.0000   1.0000   1.0000   1.0000   1.0000
     1.0000   1.0000   1.0000   1.0000   1.0000   1.0000   1.0000   1.0000
     1.0000   1.0000   1.0000   1.0000   1.0000   1.0000   1.0000   1.0000
     1.0000   1.0000   1.0000   1.0000

          k = 0.1808-0.3231 0.0000 ( 45092 PWs)   bands (ev):

   -24.5441 -24.1301 -23.8805 -23.7853 -23.5195 -23.1790 -20.0488 -19.9850
   -19.9577 -19.9239 -19.8898 -19.8455 -19.8014 -19.6965 -19.5764 -19.5108
   -19.4919 -19.4678 -19.4113 -19.3923 -19.3264 -19.2915 -19.1842 -19.1729
   -18.9457 -18.5979 -11.6726 -11.4672 -11.0471 -10.5846 -10.2302  -9.8682
    -9.7392  -9.4141  -8.8066  -8.4505  -8.1314  -7.8530  -7.6867  -7.4823
    -7.4578  -7.2480  -7.1121  -6.7714

     occupation numbers 
     1.0000   1.0000   1.0000   1.0000   1.0000   1.0000   1.0000   1.0000
     1.0000   1.0000   1.0000   1.0000   1.0000   1.0000   1.0000   1.0000
     1.0000   1.0000   1.0000   1.0000   1.0000   1.0000   1.0000   1.0000
     1.0000   1.0000   1.0000   1.0000   1.0000   1.0000   1.0000   1.0000
     1.0000   1.0000   1.0000   1.0000   1.0000   1.0000   1.0000   1.0000
     1.0000   1.0000   1.0000   1.0000

          k = 0.1746-0.1799 0.0000 ( 45085 PWs)   bands (ev):

   -24.5654 -24.1850 -23.8488 -23.7148 -23.5270 -23.1903 -20.0489 -19.9886
   -19.9712 -19.9232 -19.8897 -19.8425 -19.7999 -19.7258 -19.5897 -19.4863
   -19.4639 -19.4554 -19.4112 -19.3903 -19.3346 -19.2911 -19.1866 -19.1843
   -18.8967 -18.6160 -12.0008 -11.7488 -10.7047 -10.3796 -10.3213  -9.8593
    -9.6370  -9.2664  -8.7392  -8.4003  -8.1248  -7.8922  -7.7214  -7.5249
    -7.4365  -7.2537  -7.2154  -6.7615

     occupation numbers 
     1.0000   1.0000   1.0000   1.0000   1.0000   1.0000   1.0000   1.0000
     1.0000   1.0000   1.0000   1.0000   1.0000   1.0000   1.0000   1.0000
     1.0000   1.0000   1.0000   1.0000   1.0000   1.0000   1.0000   1.0000
     1.0000   1.0000   1.0000   1.0000   1.0000   1.0000   1.0000   1.0000
     1.0000   1.0000   1.0000   1.0000   1.0000   1.0000   1.0000   1.0000
     1.0000   1.0000   1.0000   1.0000

          k = 0.3368-0.0737 0.0000 ( 45074 PWs)   bands (ev):

   -24.3374 -23.9613 -23.7292 -23.5777 -23.5257 -23.2956 -20.0392 -19.9856
   -19.9609 -19.9360 -19.8487 -19.8286 -19.7828 -19.6830 -19.5809 -19.4688
   -19.4423 -19.4195 -19.3562 -19.3298 -19.3235 -19.2705 -19.1448 -19.0837
   -18.7799 -18.5313 -12.5893 -12.3419 -11.4888 -11.0949 -10.6863 -10.2863
    -9.5448  -9.1639  -8.7700  -8.5212  -8.3063  -8.2534  -7.9755  -7.6165
    -7.4925  -7.3844  -7.2636  -6.7456

     occupation numbers 
     1.0000   1.0000   1.0000   1.0000   1.0000   1.0000   1.0000   1.0000
     1.0000   1.0000   1.0000   1.0000   1.0000   1.0000   1.0000   1.0000
     1.0000   1.0000   1.0000   1.0000   1.0000   1.0000   1.0000   1.0000
     1.0000   1.0000   1.0000   1.0000   1.0000   1.0000   1.0000   1.0000
     1.0000   1.0000   1.0000   1.0000   1.0000   1.0000   1.0000   1.0000
     1.0000   1.0000   1.0000   1.0000

          k = 0.3306 0.0695 0.0000 ( 45046 PWs)   bands (ev):

   -24.3437 -23.9727 -23.7341 -23.5663 -23.5160 -23.2920 -20.0512 -19.9876
   -19.9509 -19.9189 -19.8552 -19.8294 -19.7820 -19.6809 -19.5837 -19.4709
   -19.4491 -19.4254 -19.3483 -19.3220 -19.2957 -19.2784 -19.1542 -19.1159
   -18.7440 -18.5405 -12.6169 -12.4175 -11.5774 -11.0476 -10.6076 -10.3208
    -9.4437  -9.1127  -8.7764  -8.4673  -8.3285  -8.1792  -8.0118  -7.6989
    -7.4963  -7.4080  -7.2552  -6.7470

     occupation numbers 
     1.0000   1.0000   1.0000   1.0000   1.0000   1.0000   1.0000   1.0000
     1.0000   1.0000   1.0000   1.0000   1.0000   1.0000   1.0000   1.0000
     1.0000   1.0000   1.0000   1.0000   1.0000   1.0000   1.0000   1.0000
     1.0000   1.0000   1.0000   1.0000   1.0000   1.0000   1.0000   1.0000
     1.0000   1.0000   1.0000   1.0000   1.0000   1.0000   1.0000   1.0000
     1.0000   1.0000   1.0000   1.0000

          k = 0.3492-0.3599 0.0000 ( 45085 PWs)   bands (ev):

   -24.3083 -23.8713 -23.7519 -23.6343 -23.5874 -23.2830 -20.0335 -19.9883
   -19.9463 -19.9045 -19.8566 -19.8276 -19.7834 -19.6298 -19.5565 -19.4731
   -19.4721 -19.4550 -19.4266 -19.3486 -19.3213 -19.2812 -19.1041 -19.0540
   -18.9019 -18.4759 -12.2780 -12.0355 -11.8429 -11.3743 -10.3338 -10.0501
    -9.6795  -9.4295  -8.9406  -8.5677  -8.5077  -8.1450  -8.0478  -7.5707
    -7.5508  -7.2641  -7.1805  -6.7604

     occupation numbers 
     1.0000   1.0000   1.0000   1.0000   1.0000   1.0000   1.0000   1.0000
     1.0000   1.0000   1.0000   1.0000   1.0000   1.0000   1.0000   1.0000
     1.0000   1.0000   1.0000   1.0000   1.0000   1.0000   1.0000   1.0000
     1.0000   1.0000   1.0000   1.0000   1.0000   1.0000   1.0000   1.0000
     1.0000   1.0000   1.0000   1.0000   1.0000   1.0000   1.0000   1.0000
     1.0000   1.0000   1.0000   1.0000

          k = 0.3430-0.2168 0.0000 ( 45092 PWs)   bands (ev):

   -24.3014 -23.8478 -23.7476 -23.6565 -23.5990 -23.2860 -20.0214 -19.9826
   -19.9535 -19.9323 -19.8436 -19.8263 -19.7845 -19.6381 -19.5566 -19.4827
   -19.4729 -19.4406 -19.4229 -19.3568 -19.3237 -19.2757 -19.0771 -19.0362
   -18.9506 -18.4735 -12.2682 -11.8832 -11.7441 -11.4822 -10.3667  -9.9855
    -9.8554  -9.5455  -8.9509  -8.6090  -8.4612  -8.1006  -7.9772  -7.6600
    -7.4689  -7.2968  -7.1473  -6.7662

     occupation numbers 
     1.0000   1.0000   1.0000   1.0000   1.0000   1.0000   1.0000   1.0000
     1.0000   1.0000   1.0000   1.0000   1.0000   1.0000   1.0000   1.0000
     1.0000   1.0000   1.0000   1.0000   1.0000   1.0000   1.0000   1.0000
     1.0000   1.0000   1.0000   1.0000   1.0000   1.0000   1.0000   1.0000
     1.0000   1.0000   1.0000   1.0000   1.0000   1.0000   1.0000   1.0000
     1.0000   1.0000   1.0000   1.0000

          k =-0.5052 0.1105 0.0000 ( 45134 PWs)   bands (ev):

   -24.1594 -23.7171 -23.7106 -23.6196 -23.4800 -23.4423 -20.0170 -19.9873
   -19.9625 -19.9274 -19.8365 -19.8011 -19.7733 -19.6026 -19.5563 -19.4795
   -19.4399 -19.3901 -19.3883 -19.3388 -19.3225 -19.2451 -19.0550 -19.0037
   -18.8819 -18.4550 -12.7305 -12.3966 -12.1028 -11.7729 -10.4203 -10.0615
    -9.8645  -9.4724  -8.9785  -8.6230  -8.3126  -8.0347  -8.0154  -7.6430
    -7.5190  -7.4122  -7.2093  -6.9909

     occupation numbers 
     1.0000   1.0000   1.0000   1.0000   1.0000   1.0000   1.0000   1.0000
     1.0000   1.0000   1.0000   1.0000   1.0000   1.0000   1.0000   1.0000
     1.0000   1.0000   1.0000   1.0000   1.0000   1.0000   1.0000   1.0000
     1.0000   1.0000   1.0000   1.0000   1.0000   1.0000   1.0000   1.0000
     1.0000   1.0000   1.0000   1.0000   1.0000   1.0000   1.0000   1.0000
     1.0000   1.0000   1.0000   1.0000

          k =-0.5114 0.2536 0.0000 ( 45094 PWs)   bands (ev):

   -24.1568 -23.7275 -23.6957 -23.6123 -23.5153 -23.4220 -20.0217 -19.9942
   -19.9589 -19.9018 -19.8466 -19.7929 -19.7616 -19.6051 -19.5514 -19.4799
   -19.4389 -19.4129 -19.4096 -19.3362 -19.2992 -19.2595 -19.0531 -19.0117
   -18.8805 -18.4513 -12.6980 -12.3766 -12.1726 -11.8055 -10.3273 -10.0156
    -9.9048  -9.5568  -8.8475  -8.5713  -8.4306  -7.9790  -7.9431  -7.7544
    -7.5648  -7.3866  -7.2270  -6.9973

     occupation numbers 
     1.0000   1.0000   1.0000   1.0000   1.0000   1.0000   1.0000   1.0000
     1.0000   1.0000   1.0000   1.0000   1.0000   1.0000   1.0000   1.0000
     1.0000   1.0000   1.0000   1.0000   1.0000   1.0000   1.0000   1.0000
     1.0000   1.0000   1.0000   1.0000   1.0000   1.0000   1.0000   1.0000
     1.0000   1.0000   1.0000   1.0000   1.0000   1.0000   1.0000   1.0000
     1.0000   1.0000   1.0000   1.0000

          k =-0.4929-0.1758 0.0000 ( 45008 PWs)   bands (ev):

   -24.1543 -23.7369 -23.6763 -23.6061 -23.5454 -23.4111 -20.0292 -19.9949
   -19.9564 -19.8713 -19.8448 -19.8073 -19.7464 -19.6098 -19.5460 -19.4790
   -19.4398 -19.4265 -19.4256 -19.3267 -19.2928 -19.2783 -19.0539 -19.0203
   -18.8720 -18.4490 -12.6557 -12.3580 -12.2511 -11.8390 -10.3657 -10.0442
    -9.6673  -9.4731  -8.8470  -8.6053  -8.5018  -8.1761  -7.9942  -7.7464
    -7.4638  -7.3616  -7.2097  -6.9950

     occupation numbers 
     1.0000   1.0000   1.0000   1.0000   1.0000   1.0000   1.0000   1.0000
     1.0000   1.0000   1.0000   1.0000   1.0000   1.0000   1.0000   1.0000
     1.0000   1.0000   1.0000   1.0000   1.0000   1.0000   1.0000   1.0000
     1.0000   1.0000   1.0000   1.0000   1.0000   1.0000   1.0000   1.0000
     1.0000   1.0000   1.0000   1.0000   1.0000   1.0000   1.0000   1.0000
     1.0000   1.0000   1.0000   1.0000

     highest occupied level (ev):    -6.7400

!    total energy              =   -1361.97120857 Ry
     estimated scf accuracy    <          6.7E-09 Ry

     convergence has been achieved in  13 iterations

     negative rho (up, down):  4.270E-04 0.000E+00

     Forces acting on atoms (cartesian axes, Ry/au):

     atom    1 type  1   force =    -0.00837986   -0.00836897    0.01089887
     atom    2 type  1   force =     0.02930224    0.03725568    0.03077508
     atom    3 type  2   force =    -0.03496438    0.02911187   -0.02847962
     atom    4 type  2   force =     0.03988788   -0.05373235   -0.00122880
     atom    5 type  2   force =    -0.02597987   -0.00535497   -0.01202883
     atom    6 type  1   force =     0.00615723   -0.03823541   -0.00515610
     atom    7 type  1   force =    -0.00489063    0.05710128    0.00541163
     atom    8 type  2   force =    -0.01638135    0.01038065    0.01078781
     atom    9 type  2   force =     0.01060163    0.00246379   -0.00074224
     atom   10 type  2   force =     0.00464709   -0.03062157   -0.01023781
     The non-local contrib.  to forces
     atom    1 type  1   force =     0.28640983    0.20006940   -0.03572711
     atom    2 type  1   force =     0.26352344   -0.01916618   -0.25740828
     atom    3 type  2   force =    -0.09038309    0.50107669   -1.04426506
     atom    4 type  2   force =     1.07841888    0.12794738   -0.27032125
     atom    5 type  2   force =     0.04985963   -0.43127034    0.85298283
     atom    6 type  1   force =     0.19567498    0.14994589    0.11116081
     atom    7 type  1   force =     0.13812247   -0.07090369   -0.09340863
     atom    8 type  2   force =    -0.12652101    0.45987336   -0.84172885
     atom    9 type  2   force =     1.06535033    0.15682486    0.02994804
     atom   10 type  2   force =    -0.06841685   -0.48176314    0.86930010
     The ionic contribution  to forces
     atom    1 type  1   force =     2.31272552   12.04089903  -87.21364189
     atom    2 type  1   force =     3.54142571   -9.95664508 -135.54615049
     atom    3 type  2   force =    -0.26776242   -1.59562813  -15.33053694
     atom    4 type  2   force =    -4.69519352   -1.86926973  -46.83948317
     atom    5 type  2   force =    -0.92907673    2.14578748  -84.86076219
     atom    6 type  1   force =     2.25198379   10.42115011  132.88114413
     atom    7 type  1   force =     2.33849311  -10.11920569   86.12296277
     atom    8 type  2   force =     0.07278238   -1.97627209   84.42241537
     atom    9 type  2   force =    -4.90114502   -0.19254151   49.13706556
     atom   10 type  2   force =     0.27576717    1.10172561   17.22698685
     The local contribution  to forces
     atom    1 type  1   force =    -2.60513925  -12.24874821   87.26021340
     atom    2 type  1   force =    -3.77199655   10.01690103  135.83309377
     atom    3 type  2   force =     0.32200426    1.12842291   16.33762962
     atom    4 type  2   force =     3.66674304    1.68827858   47.10620155
     atom    5 type  2   force =     0.85332118   -1.72382044   84.00243269
     atom    6 type  1   force =    -2.44043233  -10.61152743 -132.99687438
     atom    7 type  1   force =    -2.48174070   10.25144938  -86.02476874
     atom    8 type  2   force =     0.03599238    1.53102355  -83.57647600
     atom    9 type  2   force =     3.85607459    0.03960518  -49.16752682
     atom   10 type  2   force =    -0.20336295   -0.65516418  -18.09973390
     The core correction contribution to forces
     atom    1 type  1   force =    -0.00242109   -0.00060915    0.00021106
     atom    2 type  1   force =    -0.00361850   -0.00382653    0.00139365
     atom    3 type  2   force =     0.00117180   -0.00476256    0.00873022
     atom    4 type  2   force =    -0.01007756   -0.00067445    0.00240380
     atom    5 type  2   force =    -0.00008676    0.00394393   -0.00665504
     atom    6 type  1   force =    -0.00105585    0.00216076   -0.00058126
     atom    7 type  1   force =     0.00024937   -0.00423405    0.00060966
     atom    8 type  2   force =     0.00136066   -0.00424785    0.00656766
     atom    9 type  2   force =    -0.00968796   -0.00143625   -0.00024041
     atom   10 type  2   force =     0.00065632    0.00459082   -0.00681153
     The Hubbard contrib.    to forces
     atom    1 type  1   force =     0.00000000    0.00000000    0.00000000
     atom    2 type  1   force =     0.00000000    0.00000000    0.00000000
     atom    3 type  2   force =     0.00000000    0.00000000    0.00000000
     atom    4 type  2   force =     0.00000000    0.00000000    0.00000000
     atom    5 type  2   force =     0.00000000    0.00000000    0.00000000
     atom    6 type  1   force =     0.00000000    0.00000000    0.00000000
     atom    7 type  1   force =     0.00000000    0.00000000    0.00000000
     atom    8 type  2   force =     0.00000000    0.00000000    0.00000000
     atom    9 type  2   force =     0.00000000    0.00000000    0.00000000
     atom   10 type  2   force =     0.00000000    0.00000000    0.00000000
     The SCF correction term to forces
     atom    1 type  1   force =     0.00004249    0.00002062   -0.00017016
     atom    2 type  1   force =    -0.00003450   -0.00000689   -0.00016713
     atom    3 type  2   force =     0.00000241    0.00000363   -0.00005102
     atom    4 type  2   force =    -0.00000561   -0.00001347   -0.00004330
     atom    5 type  2   force =     0.00000017    0.00000506   -0.00004068
     atom    6 type  1   force =    -0.00001601    0.00003592   -0.00001897
     atom    7 type  1   force =    -0.00001753   -0.00000400    0.00000300
     atom    8 type  2   force =     0.00000158    0.00000434   -0.00000393
     atom    9 type  2   force =     0.00000703    0.00001217   -0.00000218
     atom   10 type  2   force =     0.00000076   -0.00001001    0.00000710

     Total force =     0.134825     Total SCF correction =     0.000263


     Computing stress (Cartesian axis) and pressure


     negative rho (up, down):  4.270E-04 0.000E+00
          total   stress  (Ry/bohr**3)                   (kbar)     P=      -16.03
  -0.00014448   0.00001611  -0.00001948          -21.25        2.37       -2.87
   0.00001611  -0.00017584   0.00000965            2.37      -25.87        1.42
  -0.00001948   0.00000965  -0.00000655           -2.87        1.42       -0.96

     kinetic stress (kbar)   4794.34      6.14     -2.47
                                6.14   4788.45     -5.37
                               -2.47     -5.37   4833.26

     local   stress (kbar)-498009.29    -78.53     32.83
                              -78.53-494740.08   -875.21
                               32.83   -875.21 495783.02

     nonloc. stress (kbar)   -128.98     -0.90     -0.58
                               -0.90   -151.28     17.38
                               -0.58     17.38    -11.11

     hartree stress (kbar) 251155.69     42.52    -14.61
                               42.52 249546.97    414.37
                              -14.61    414.37-241940.84

     exc-cor stress (kbar)    599.79     -0.07      0.05
                               -0.07    600.90     -0.78
                                0.05     -0.78    590.61

     corecor stress (kbar)  -2383.18     -0.04      0.01
                               -0.04  -2383.29      0.18
                                0.01      0.18  -2382.72

     ewald   stress (kbar) 243950.38     33.24    -18.08
                               33.24 242312.47    450.85
                              -18.08    450.85-256873.19

     hubbard stress (kbar)      0.00      0.00      0.00
                                0.00      0.00      0.00
                                0.00      0.00      0.00

     DFT-D   stress (kbar)      0.00      0.00      0.00
                                0.00      0.00      0.00
                                0.00      0.00      0.00

     XDM     stress (kbar)      0.00      0.00      0.00
                                0.00      0.00      0.00
                                0.00      0.00      0.00

     dft-nl  stress (kbar)      0.00      0.00      0.00
                                0.00      0.00      0.00
                                0.00      0.00      0.00

     TS-vdW  stress (kbar)      0.00      0.00      0.00
                                0.00      0.00      0.00
                                0.00      0.00      0.00


                                0.00      0.00      0.00
                                0.00      0.00      0.00


                                0.00      0.00      0.00


     Entering Dynamics:    iteration =    19
                           time      =   0.0184 pico-seconds


     Canonical sampling velocity rescaling

ATOMIC_POSITIONS (crystal)
Ga            0.8344864869        0.7161216195        0.4260849323
Ga            0.5037579795        0.3009903056        0.3988676056
O             0.4163971291        0.5599842799        0.4474635391
O             0.4482302567        0.0158318219        0.4161472108
O             0.9491342221        0.4493863956        0.3803929445
Ga            0.8187513793        0.7221382312        0.5998549028
Ga            0.5126673897        0.3008597317        0.5739170786
O             0.3825814434        0.5775733760        0.6188019329
O             0.4822652700        0.0075090988        0.5857830947
O             0.9332510280        0.4543231317        0.5557684397


     kinetic energy (Ekin) =           0.05167197 Ry
     temperature           =         604.32286245 K 
     Ekin + Etot (const)   =       -1361.91953661 Ry
     Ions kinetic stress =            1.36 (kbar)
                                      1.71          -0.07           0.16
                                     -0.07           0.50          -0.82
                                      0.16          -0.82           1.86



     Linear momentum :   -0.0000000000    0.0000000000    0.0000000000

     Writing config-only to output data dir ./tmp/Ga2O3-BL-001-300K.save/

     second order wave-functions extrapolation
     second order charge density extrapolation

     negative rho (up, down):  4.273E-04 0.000E+00

     total cpu time spent up to now is     1029.7 secs

     Self-consistent Calculation

     iteration #  1     ecut=    80.00 Ry     beta= 0.20
     Davidson diagonalization with overlap

---- Real-time Memory Report at c_bands before calling an iterative solver
           314 MiB given to the printing process from OS
             0 MiB allocation reported by mallinfo(arena+hblkhd)
        367066 MiB available memory on the node where the printing process lives
------------------
     ethr =  1.00E-06,  avg # of iterations =  2.0

     Threshold (ethr) on eigenvalues was too large:
     Diagonalizing with lowered threshold

     Davidson diagonalization with overlap

---- Real-time Memory Report at c_bands before calling an iterative solver
           314 MiB given to the printing process from OS
             0 MiB allocation reported by mallinfo(arena+hblkhd)
        367082 MiB available memory on the node where the printing process lives
------------------
     ethr =  1.39E-09,  avg # of iterations =  7.7

     negative rho (up, down):  4.269E-04 0.000E+00

     total cpu time spent up to now is     1034.8 secs

     total energy              =   -1361.97294299 Ry
     estimated scf accuracy    <       0.00000331 Ry

     iteration #  2     ecut=    80.00 Ry     beta= 0.20
     Davidson diagonalization with overlap

---- Real-time Memory Report at c_bands before calling an iterative solver
           314 MiB given to the printing process from OS
             0 MiB allocation reported by mallinfo(arena+hblkhd)
        367080 MiB available memory on the node where the printing process lives
------------------
     ethr =  3.76E-09,  avg # of iterations =  1.8

     negative rho (up, down):  4.266E-04 0.000E+00

     total cpu time spent up to now is     1036.6 secs

     total energy              =   -1361.97294194 Ry
     estimated scf accuracy    <       0.00000146 Ry

     iteration #  3     ecut=    80.00 Ry     beta= 0.20
     Davidson diagonalization with overlap

---- Real-time Memory Report at c_bands before calling an iterative solver
           314 MiB given to the printing process from OS
             0 MiB allocation reported by mallinfo(arena+hblkhd)
        367081 MiB available memory on the node where the printing process lives
------------------
     ethr =  1.65E-09,  avg # of iterations = 10.7

     negative rho (up, down):  4.264E-04 0.000E+00

     total cpu time spent up to now is     1040.6 secs

     total energy              =   -1361.97294276 Ry
     estimated scf accuracy    <       0.00000886 Ry

     iteration #  4     ecut=    80.00 Ry     beta= 0.20
     Davidson diagonalization with overlap

---- Real-time Memory Report at c_bands before calling an iterative solver
           314 MiB given to the printing process from OS
             0 MiB allocation reported by mallinfo(arena+hblkhd)
        367079 MiB available memory on the node where the printing process lives
------------------
     ethr =  1.65E-09,  avg # of iterations =  7.1

     negative rho (up, down):  4.262E-04 0.000E+00

     total cpu time spent up to now is     1043.6 secs

     total energy              =   -1361.97294332 Ry
     estimated scf accuracy    <       0.00000095 Ry

     iteration #  5     ecut=    80.00 Ry     beta= 0.20
     Davidson diagonalization with overlap

---- Real-time Memory Report at c_bands before calling an iterative solver
           314 MiB given to the printing process from OS
             0 MiB allocation reported by mallinfo(arena+hblkhd)
        367069 MiB available memory on the node where the printing process lives
------------------
     ethr =  1.08E-09,  avg # of iterations =  2.5

     negative rho (up, down):  4.260E-04 0.000E+00

     total cpu time spent up to now is     1045.6 secs

     total energy              =   -1361.97294332 Ry
     estimated scf accuracy    <       0.00000050 Ry

     iteration #  6     ecut=    80.00 Ry     beta= 0.20
     Davidson diagonalization with overlap

---- Real-time Memory Report at c_bands before calling an iterative solver
           314 MiB given to the printing process from OS
             0 MiB allocation reported by mallinfo(arena+hblkhd)
        367069 MiB available memory on the node where the printing process lives
------------------
     ethr =  5.65E-10,  avg # of iterations =  7.0

     negative rho (up, down):  4.259E-04 0.000E+00

     total cpu time spent up to now is     1048.3 secs

     total energy              =   -1361.97294344 Ry
     estimated scf accuracy    <       0.00000003 Ry

     iteration #  7     ecut=    80.00 Ry     beta= 0.20
     Davidson diagonalization with overlap

---- Real-time Memory Report at c_bands before calling an iterative solver
           314 MiB given to the printing process from OS
             0 MiB allocation reported by mallinfo(arena+hblkhd)
        367070 MiB available memory on the node where the printing process lives
------------------
     ethr =  3.11E-11,  avg # of iterations = 14.9

     negative rho (up, down):  4.258E-04 0.000E+00

     total cpu time spent up to now is     1053.2 secs

     total energy              =   -1361.97294352 Ry
     estimated scf accuracy    <       0.00000003 Ry

     iteration #  8     ecut=    80.00 Ry     beta= 0.20
     Davidson diagonalization with overlap

---- Real-time Memory Report at c_bands before calling an iterative solver
           314 MiB given to the printing process from OS
             0 MiB allocation reported by mallinfo(arena+hblkhd)
        367071 MiB available memory on the node where the printing process lives
------------------
     ethr =  3.11E-11,  avg # of iterations =  1.7

     negative rho (up, down):  4.257E-04 0.000E+00

     total cpu time spent up to now is     1055.0 secs

     total energy              =   -1361.97294352 Ry
     estimated scf accuracy    <       0.00000003 Ry

     iteration #  9     ecut=    80.00 Ry     beta= 0.20
     Davidson diagonalization with overlap

---- Real-time Memory Report at c_bands before calling an iterative solver
           314 MiB given to the printing process from OS
             0 MiB allocation reported by mallinfo(arena+hblkhd)
        367064 MiB available memory on the node where the printing process lives
------------------
     ethr =  2.96E-11,  avg # of iterations =  1.9

     negative rho (up, down):  4.257E-04 0.000E+00

     total cpu time spent up to now is     1056.9 secs

     total energy              =   -1361.97294350 Ry
     estimated scf accuracy    <       0.00000004 Ry

     iteration # 10     ecut=    80.00 Ry     beta= 0.20
     Davidson diagonalization with overlap

---- Real-time Memory Report at c_bands before calling an iterative solver
           314 MiB given to the printing process from OS
             0 MiB allocation reported by mallinfo(arena+hblkhd)
        367064 MiB available memory on the node where the printing process lives
------------------
     ethr =  2.96E-11,  avg # of iterations = 11.8

     negative rho (up, down):  4.256E-04 0.000E+00

     total cpu time spent up to now is     1061.0 secs

     total energy              =   -1361.97294355 Ry
     estimated scf accuracy    <       0.00000014 Ry

     iteration # 11     ecut=    80.00 Ry     beta= 0.20
     Davidson diagonalization with overlap

---- Real-time Memory Report at c_bands before calling an iterative solver
           314 MiB given to the printing process from OS
             0 MiB allocation reported by mallinfo(arena+hblkhd)
        367065 MiB available memory on the node where the printing process lives
------------------
     ethr =  2.96E-11,  avg # of iterations =  1.5

     negative rho (up, down):  4.256E-04 0.000E+00

     total cpu time spent up to now is     1062.7 secs

     total energy              =   -1361.97294354 Ry
     estimated scf accuracy    <       0.00000014 Ry

     iteration # 12     ecut=    80.00 Ry     beta= 0.20
     Davidson diagonalization with overlap

---- Real-time Memory Report at c_bands before calling an iterative solver
           314 MiB given to the printing process from OS
             0 MiB allocation reported by mallinfo(arena+hblkhd)
        367065 MiB available memory on the node where the printing process lives
------------------
     ethr =  2.96E-11,  avg # of iterations =  2.6

     negative rho (up, down):  4.256E-04 0.000E+00

     total cpu time spent up to now is     1064.7 secs

     total energy              =   -1361.97294352 Ry
     estimated scf accuracy    <       0.00000010 Ry

     iteration # 13     ecut=    80.00 Ry     beta= 0.20
     Davidson diagonalization with overlap

---- Real-time Memory Report at c_bands before calling an iterative solver
           314 MiB given to the printing process from OS
             0 MiB allocation reported by mallinfo(arena+hblkhd)
        367066 MiB available memory on the node where the printing process lives
------------------
     ethr =  2.96E-11,  avg # of iterations =  6.5

     negative rho (up, down):  4.255E-04 0.000E+00

     total cpu time spent up to now is     1067.5 secs

     total energy              =   -1361.97294353 Ry
     estimated scf accuracy    <       0.00000001 Ry

     iteration # 14     ecut=    80.00 Ry     beta= 0.20
     Davidson diagonalization with overlap

---- Real-time Memory Report at c_bands before calling an iterative solver
           314 MiB given to the printing process from OS
             0 MiB allocation reported by mallinfo(arena+hblkhd)
        367068 MiB available memory on the node where the printing process lives
------------------
     ethr =  1.23E-11,  avg # of iterations =  4.4

     negative rho (up, down):  4.254E-04 0.000E+00

     total cpu time spent up to now is     1069.7 secs

     End of self-consistent calculation

          k = 0.0000 0.0000 0.0000 ( 45065 PWs)   bands (ev):

   -24.7706 -24.4406 -23.7443 -23.5583 -23.5292 -23.2247 -20.0621 -19.9706
   -19.9097 -19.9062 -19.8839 -19.8344 -19.8065 -19.7146 -19.6051 -19.4322
   -19.4083 -19.3723 -19.3605 -19.3122 -19.3017 -19.2759 -19.2570 -19.1766
   -18.7203 -18.6596 -12.6587 -12.4372 -10.2297  -9.6611  -9.5869  -9.2761
    -8.6481  -8.2948  -8.1762  -8.1331  -8.0313  -7.9867  -7.7406  -7.7029
    -7.5450  -7.3616  -7.1243  -6.9183

     occupation numbers 
     1.0000   1.0000   1.0000   1.0000   1.0000   1.0000   1.0000   1.0000
     1.0000   1.0000   1.0000   1.0000   1.0000   1.0000   1.0000   1.0000
     1.0000   1.0000   1.0000   1.0000   1.0000   1.0000   1.0000   1.0000
     1.0000   1.0000   1.0000   1.0000   1.0000   1.0000   1.0000   1.0000
     1.0000   1.0000   1.0000   1.0000   1.0000   1.0000   1.0000   1.0000
     1.0000   1.0000   1.0000   1.0000

          k =-0.0062 0.1431 0.0000 ( 45113 PWs)   bands (ev):

   -24.7219 -24.3613 -23.8472 -23.6777 -23.5123 -23.1696 -20.0354 -19.9711
   -19.9294 -19.9029 -19.8777 -19.8272 -19.7966 -19.7104 -19.5729 -19.4402
   -19.4267 -19.3977 -19.3721 -19.3557 -19.2917 -19.2662 -19.2416 -19.1682
   -18.8123 -18.6373 -12.2455 -12.0142 -10.3510  -9.7898  -9.7549  -9.5073
    -9.2851  -8.7931  -8.2645  -8.0949  -7.9343  -7.7951  -7.7274  -7.5071
    -7.4066  -7.2780  -7.0917  -6.9604

     occupation numbers 
     1.0000   1.0000   1.0000   1.0000   1.0000   1.0000   1.0000   1.0000
     1.0000   1.0000   1.0000   1.0000   1.0000   1.0000   1.0000   1.0000
     1.0000   1.0000   1.0000   1.0000   1.0000   1.0000   1.0000   1.0000
     1.0000   1.0000   1.0000   1.0000   1.0000   1.0000   1.0000   1.0000
     1.0000   1.0000   1.0000   1.0000   1.0000   1.0000   1.0000   1.0000
     1.0000   1.0000   1.0000   1.0000

          k = 0.0124-0.2862 0.0000 ( 45174 PWs)   bands (ev):

   -24.6647 -24.2437 -23.9401 -23.8430 -23.4857 -23.1348 -20.0123 -19.9649
   -19.9421 -19.9054 -19.8694 -19.8068 -19.7928 -19.7089 -19.5352 -19.4857
   -19.4544 -19.4358 -19.3765 -19.3485 -19.2791 -19.2572 -19.2328 -19.1592
   -18.9012 -18.6253 -11.4961 -11.2990 -10.7767 -10.2462 -10.1824  -9.8876
    -9.4815  -9.0842  -8.3039  -8.0663  -7.9412  -7.6449  -7.5649  -7.4753
    -7.3617  -7.1359  -7.0567  -6.9900

     occupation numbers 
     1.0000   1.0000   1.0000   1.0000   1.0000   1.0000   1.0000   1.0000
     1.0000   1.0000   1.0000   1.0000   1.0000   1.0000   1.0000   1.0000
     1.0000   1.0000   1.0000   1.0000   1.0000   1.0000   1.0000   1.0000
     1.0000   1.0000   1.0000   1.0000   1.0000   1.0000   1.0000   1.0000
     1.0000   1.0000   1.0000   1.0000   1.0000   1.0000   1.0000   1.0000
     1.0000   1.0000   1.0000   1.0000

          k = 0.1684-0.0368 0.0000 ( 45086 PWs)   bands (ev):

   -24.6420 -24.2986 -23.7400 -23.5498 -23.5276 -23.2229 -20.0519 -19.9730
   -19.9317 -19.8849 -19.8715 -19.8250 -19.7814 -19.7105 -19.5887 -19.4466
   -19.4072 -19.3607 -19.3523 -19.3015 -19.2829 -19.2470 -19.1979 -19.1654
   -18.6817 -18.6230 -12.5492 -12.3336 -10.4717 -10.2709  -9.9921  -9.8647
    -9.1252  -8.6315  -8.5448  -8.2303  -8.1760  -7.9454  -7.8877  -7.6731
    -7.5907  -7.2967  -7.1801  -6.7169

     occupation numbers 
     1.0000   1.0000   1.0000   1.0000   1.0000   1.0000   1.0000   1.0000
     1.0000   1.0000   1.0000   1.0000   1.0000   1.0000   1.0000   1.0000
     1.0000   1.0000   1.0000   1.0000   1.0000   1.0000   1.0000   1.0000
     1.0000   1.0000   1.0000   1.0000   1.0000   1.0000   1.0000   1.0000
     1.0000   1.0000   1.0000   1.0000   1.0000   1.0000   1.0000   1.0000
     1.0000   1.0000   1.0000   1.0000

          k = 0.1622 0.1063 0.0000 ( 45049 PWs)   bands (ev):

   -24.6255 -24.2683 -23.7716 -23.5827 -23.5366 -23.2037 -20.0467 -19.9654
   -19.9284 -19.8859 -19.8750 -19.8259 -19.7827 -19.6938 -19.5775 -19.4513
   -19.4100 -19.3618 -19.3573 -19.3362 -19.2926 -19.2452 -19.1844 -19.1601
   -18.7574 -18.5709 -12.3974 -12.1962 -10.6505 -10.1542 -10.0867  -9.8163
    -9.2542  -8.8634  -8.6275  -8.2769  -8.1790  -7.8331  -7.7918  -7.7198
    -7.5252  -7.2696  -7.1784  -6.7273

     occupation numbers 
     1.0000   1.0000   1.0000   1.0000   1.0000   1.0000   1.0000   1.0000
     1.0000   1.0000   1.0000   1.0000   1.0000   1.0000   1.0000   1.0000
     1.0000   1.0000   1.0000   1.0000   1.0000   1.0000   1.0000   1.0000
     1.0000   1.0000   1.0000   1.0000   1.0000   1.0000   1.0000   1.0000
     1.0000   1.0000   1.0000   1.0000   1.0000   1.0000   1.0000   1.0000
     1.0000   1.0000   1.0000   1.0000

          k = 0.1808-0.3231 0.0000 ( 45092 PWs)   bands (ev):

   -24.5626 -24.1358 -23.8658 -23.7658 -23.5153 -23.1680 -20.0220 -19.9557
   -19.9341 -19.8934 -19.8615 -19.8184 -19.7788 -19.6690 -19.5389 -19.4835
   -19.4518 -19.4257 -19.3688 -19.3483 -19.2819 -19.2453 -19.1476 -19.1250
   -18.8971 -18.5389 -11.6588 -11.4459 -11.0451 -10.5682 -10.2336  -9.8572
    -9.7447  -9.4084  -8.7946  -8.4243  -8.1106  -7.8168  -7.6504  -7.4628
    -7.4123  -7.2319  -7.0785  -6.7504

     occupation numbers 
     1.0000   1.0000   1.0000   1.0000   1.0000   1.0000   1.0000   1.0000
     1.0000   1.0000   1.0000   1.0000   1.0000   1.0000   1.0000   1.0000
     1.0000   1.0000   1.0000   1.0000   1.0000   1.0000   1.0000   1.0000
     1.0000   1.0000   1.0000   1.0000   1.0000   1.0000   1.0000   1.0000
     1.0000   1.0000   1.0000   1.0000   1.0000   1.0000   1.0000   1.0000
     1.0000   1.0000   1.0000   1.0000

          k = 0.1746-0.1799 0.0000 ( 45085 PWs)   bands (ev):

   -24.5826 -24.1879 -23.8359 -23.6980 -23.5222 -23.1792 -20.0228 -19.9641
   -19.9414 -19.8921 -19.8633 -19.8154 -19.7767 -19.6996 -19.5523 -19.4460
   -19.4267 -19.4218 -19.3691 -19.3460 -19.2901 -19.2448 -19.1493 -19.1375
   -18.8469 -18.5578 -11.9928 -11.7290 -10.6971 -10.3678 -10.3283  -9.8492
    -9.6353  -9.2542  -8.7293  -8.3762  -8.1046  -7.8589  -7.6852  -7.5009
    -7.3887  -7.2359  -7.1847  -6.7396

     occupation numbers 
     1.0000   1.0000   1.0000   1.0000   1.0000   1.0000   1.0000   1.0000
     1.0000   1.0000   1.0000   1.0000   1.0000   1.0000   1.0000   1.0000
     1.0000   1.0000   1.0000   1.0000   1.0000   1.0000   1.0000   1.0000
     1.0000   1.0000   1.0000   1.0000   1.0000   1.0000   1.0000   1.0000
     1.0000   1.0000   1.0000   1.0000   1.0000   1.0000   1.0000   1.0000
     1.0000   1.0000   1.0000   1.0000

          k = 0.3368-0.0737 0.0000 ( 45074 PWs)   bands (ev):

   -24.3509 -23.9567 -23.7177 -23.5726 -23.5115 -23.2857 -20.0140 -19.9541
   -19.9332 -19.9102 -19.8239 -19.8001 -19.7590 -19.6557 -19.5432 -19.4252
   -19.4011 -19.3766 -19.3148 -19.2907 -19.2851 -19.2260 -19.0950 -19.0530
   -18.7270 -18.4807 -12.6031 -12.3428 -11.4855 -11.0820 -10.6817 -10.2682
    -9.5313  -9.1332  -8.7483  -8.5107  -8.2706  -8.2306  -7.9561  -7.5881
    -7.4566  -7.3493  -7.2419  -6.7127

     occupation numbers 
     1.0000   1.0000   1.0000   1.0000   1.0000   1.0000   1.0000   1.0000
     1.0000   1.0000   1.0000   1.0000   1.0000   1.0000   1.0000   1.0000
     1.0000   1.0000   1.0000   1.0000   1.0000   1.0000   1.0000   1.0000
     1.0000   1.0000   1.0000   1.0000   1.0000   1.0000   1.0000   1.0000
     1.0000   1.0000   1.0000   1.0000   1.0000   1.0000   1.0000   1.0000
     1.0000   1.0000   1.0000   1.0000

          k = 0.3306 0.0695 0.0000 ( 45046 PWs)   bands (ev):

   -24.3571 -23.9682 -23.7229 -23.5608 -23.5021 -23.2818 -20.0246 -19.9562
   -19.9234 -19.8956 -19.8281 -19.8017 -19.7585 -19.6530 -19.5464 -19.4278
   -19.4073 -19.3819 -19.3066 -19.2783 -19.2604 -19.2335 -19.1046 -19.0883
   -18.6921 -18.4889 -12.6302 -12.4206 -11.5756 -11.0338 -10.6015 -10.3022
    -9.4222  -9.0746  -8.7625  -8.4584  -8.3051  -8.1526  -7.9861  -7.6778
    -7.4633  -7.3673  -7.2345  -6.7140

     occupation numbers 
     1.0000   1.0000   1.0000   1.0000   1.0000   1.0000   1.0000   1.0000
     1.0000   1.0000   1.0000   1.0000   1.0000   1.0000   1.0000   1.0000
     1.0000   1.0000   1.0000   1.0000   1.0000   1.0000   1.0000   1.0000
     1.0000   1.0000   1.0000   1.0000   1.0000   1.0000   1.0000   1.0000
     1.0000   1.0000   1.0000   1.0000   1.0000   1.0000   1.0000   1.0000
     1.0000   1.0000   1.0000   1.0000

          k = 0.3492-0.3599 0.0000 ( 45085 PWs)   bands (ev):

   -24.3234 -23.8687 -23.7357 -23.6183 -23.5855 -23.2732 -20.0056 -19.9575
   -19.9180 -19.8835 -19.8287 -19.8010 -19.7601 -19.5995 -19.5194 -19.4425
   -19.4295 -19.4132 -19.3829 -19.3076 -19.2765 -19.2366 -19.0540 -19.0230
   -18.8514 -18.4232 -12.2857 -12.0344 -11.8451 -11.3627 -10.3265 -10.0334
    -9.6715  -9.4071  -8.9251  -8.5393  -8.4797  -8.1069  -8.0296  -7.5482
    -7.5168  -7.2420  -7.1477  -6.7273

     occupation numbers 
     1.0000   1.0000   1.0000   1.0000   1.0000   1.0000   1.0000   1.0000
     1.0000   1.0000   1.0000   1.0000   1.0000   1.0000   1.0000   1.0000
     1.0000   1.0000   1.0000   1.0000   1.0000   1.0000   1.0000   1.0000
     1.0000   1.0000   1.0000   1.0000   1.0000   1.0000   1.0000   1.0000
     1.0000   1.0000   1.0000   1.0000   1.0000   1.0000   1.0000   1.0000
     1.0000   1.0000   1.0000   1.0000

          k = 0.3430-0.2168 0.0000 ( 45092 PWs)   bands (ev):

   -24.3165 -23.8463 -23.7304 -23.6392 -23.5980 -23.2764 -19.9945 -19.9523
   -19.9246 -19.9082 -19.8185 -19.7992 -19.7608 -19.6090 -19.5189 -19.4523
   -19.4297 -19.3995 -19.3798 -19.3157 -19.2787 -19.2315 -19.0271 -19.0039
   -18.8991 -18.4214 -12.2766 -11.8766 -11.7450 -11.4750 -10.3635  -9.9719
    -9.8469  -9.5232  -8.9351  -8.5776  -8.4356  -8.0773  -7.9352  -7.6280
    -7.4468  -7.2757  -7.1135  -6.7333

     occupation numbers 
     1.0000   1.0000   1.0000   1.0000   1.0000   1.0000   1.0000   1.0000
     1.0000   1.0000   1.0000   1.0000   1.0000   1.0000   1.0000   1.0000
     1.0000   1.0000   1.0000   1.0000   1.0000   1.0000   1.0000   1.0000
     1.0000   1.0000   1.0000   1.0000   1.0000   1.0000   1.0000   1.0000
     1.0000   1.0000   1.0000   1.0000   1.0000   1.0000   1.0000   1.0000
     1.0000   1.0000   1.0000   1.0000

          k =-0.5052 0.1105 0.0000 ( 45134 PWs)   bands (ev):

   -24.1722 -23.7044 -23.6966 -23.6151 -23.4727 -23.4332 -19.9904 -19.9572
   -19.9347 -19.9015 -19.8105 -19.7760 -19.7458 -19.5762 -19.5182 -19.4357
   -19.3966 -19.3577 -19.3472 -19.2955 -19.2783 -19.2024 -19.0033 -18.9744
   -18.8311 -18.4072 -12.7471 -12.3988 -12.1057 -11.7679 -10.4044 -10.0303
    -9.8510  -9.4441  -8.9658  -8.5989  -8.2954  -8.0059  -7.9969  -7.6143
    -7.4845  -7.3892  -7.1755  -6.9560

     occupation numbers 
     1.0000   1.0000   1.0000   1.0000   1.0000   1.0000   1.0000   1.0000
     1.0000   1.0000   1.0000   1.0000   1.0000   1.0000   1.0000   1.0000
     1.0000   1.0000   1.0000   1.0000   1.0000   1.0000   1.0000   1.0000
     1.0000   1.0000   1.0000   1.0000   1.0000   1.0000   1.0000   1.0000
     1.0000   1.0000   1.0000   1.0000   1.0000   1.0000   1.0000   1.0000
     1.0000   1.0000   1.0000   1.0000

          k =-0.5114 0.2536 0.0000 ( 45094 PWs)   bands (ev):

   -24.1699 -23.7146 -23.6805 -23.6078 -23.5096 -23.4125 -19.9944 -19.9626
   -19.9318 -19.8786 -19.8199 -19.7669 -19.7359 -19.5764 -19.5138 -19.4363
   -19.3955 -19.3771 -19.3708 -19.2919 -19.2561 -19.2169 -19.0017 -18.9838
   -18.8300 -18.4030 -12.7109 -12.3794 -12.1792 -11.8000 -10.3142  -9.9887
    -9.8820  -9.5192  -8.8481  -8.5607  -8.4028  -7.9581  -7.9020  -7.7303
    -7.5377  -7.3643  -7.1933  -6.9616

     occupation numbers 
     1.0000   1.0000   1.0000   1.0000   1.0000   1.0000   1.0000   1.0000
     1.0000   1.0000   1.0000   1.0000   1.0000   1.0000   1.0000   1.0000
     1.0000   1.0000   1.0000   1.0000   1.0000   1.0000   1.0000   1.0000
     1.0000   1.0000   1.0000   1.0000   1.0000   1.0000   1.0000   1.0000
     1.0000   1.0000   1.0000   1.0000   1.0000   1.0000   1.0000   1.0000
     1.0000   1.0000   1.0000   1.0000

          k =-0.4929-0.1758 0.0000 ( 45008 PWs)   bands (ev):

   -24.1677 -23.7237 -23.6590 -23.6017 -23.5422 -23.4013 -20.0009 -19.9632
   -19.9295 -19.8522 -19.8137 -19.7831 -19.7224 -19.5776 -19.5087 -19.4357
   -19.3964 -19.3938 -19.3832 -19.2821 -19.2509 -19.2342 -19.0029 -18.9940
   -18.8219 -18.4003 -12.6635 -12.3619 -12.2627 -11.8326 -10.3479 -10.0139
    -9.6471  -9.4423  -8.8419  -8.5879  -8.4860  -8.1375  -7.9743  -7.7288
    -7.4274  -7.3390  -7.1770  -6.9587

     occupation numbers 
     1.0000   1.0000   1.0000   1.0000   1.0000   1.0000   1.0000   1.0000
     1.0000   1.0000   1.0000   1.0000   1.0000   1.0000   1.0000   1.0000
     1.0000   1.0000   1.0000   1.0000   1.0000   1.0000   1.0000   1.0000
     1.0000   1.0000   1.0000   1.0000   1.0000   1.0000   1.0000   1.0000
     1.0000   1.0000   1.0000   1.0000   1.0000   1.0000   1.0000   1.0000
     1.0000   1.0000   1.0000   1.0000

     highest occupied level (ev):    -6.7127

!    total energy              =   -1361.97294352 Ry
     estimated scf accuracy    <          4.6E-09 Ry

     convergence has been achieved in  14 iterations

     negative rho (up, down):  4.254E-04 0.000E+00

     Forces acting on atoms (cartesian axes, Ry/au):

     atom    1 type  1   force =    -0.00637809   -0.00728398    0.01095865
     atom    2 type  1   force =     0.03022162    0.03402502    0.03253093
     atom    3 type  2   force =    -0.03663058    0.02771464   -0.02511945
     atom    4 type  2   force =     0.03877106   -0.05002398   -0.00264079
     atom    5 type  2   force =    -0.02609304   -0.00552076   -0.01570631
     atom    6 type  1   force =     0.00683999   -0.03708289   -0.00546070
     atom    7 type  1   force =    -0.00397454    0.05766438    0.00567508
     atom    8 type  2   force =    -0.01609565    0.00939268    0.01442593
     atom    9 type  2   force =     0.00844145    0.00098641   -0.00050896
     atom   10 type  2   force =     0.00489776   -0.02987152   -0.01415439
     The non-local contrib.  to forces
     atom    1 type  1   force =     0.28725182    0.18991445   -0.03487714
     atom    2 type  1   force =     0.25822307   -0.01862258   -0.26495048
     atom    3 type  2   force =    -0.09221610    0.50058940   -1.03165303
     atom    4 type  2   force =     1.07521752    0.12228822   -0.28035045
     atom    5 type  2   force =     0.05542084   -0.43460823    0.83604298
     atom    6 type  1   force =     0.18976568    0.14421957    0.11331880
     atom    7 type  1   force =     0.13217137   -0.06332324   -0.09528528
     atom    8 type  2   force =    -0.12648885    0.46120142   -0.82461633
     atom    9 type  2   force =     1.05490903    0.15806283    0.03255009
     atom   10 type  2   force =    -0.06760545   -0.48144339    0.85056825
     The ionic contribution  to forces
     atom    1 type  1   force =     2.35749096   12.05176491  -87.17763121
     atom    2 type  1   force =     3.50901243  -10.07994615 -135.70676940
     atom    3 type  2   force =    -0.28836329   -1.59072739  -15.47912457
     atom    4 type  2   force =    -4.66629144   -1.72278424  -46.68702010
     atom    5 type  2   force =    -0.94920969    2.09848400  -84.73210940
     atom    6 type  1   force =     2.22078342   10.45209436  132.92779167
     atom    7 type  1   force =     2.31324934  -10.10794126   86.08938616
     atom    8 type  2   force =     0.07247743   -1.93054451   84.24972958
     atom    9 type  2   force =    -4.84477477   -0.22820690   49.08788328
     atom   10 type  2   force =     0.27562560    1.05780717   17.42786399
     The local contribution  to forces
     atom    1 type  1   force =    -2.64870539  -12.24851410   87.22340857
     atom    2 type  1   force =    -3.73339702   10.13634916  136.00300899
     atom    3 type  2   force =     0.34275587    1.12259492   16.47710872
     atom    4 type  2   force =     3.63989411    1.55111672   46.96226518
     atom    5 type  2   force =     0.86783029   -1.67336874   83.88685971
     atom    6 type  1   force =    -2.40274245  -10.63562938 -133.04594444
     atom    7 type  1   force =    -2.44967976   10.23327561  -85.98900385
     atom    8 type  2   force =     0.03656654    1.48298536  -83.41705199
     atom    9 type  2   force =     3.80788614    0.07255188  -49.12066177
     atom   10 type  2   force =    -0.20376959   -0.61082309  -18.28596190
     The core correction contribution to forces
     atom    1 type  1   force =    -0.00247860   -0.00046061    0.00019922
     atom    2 type  1   force =    -0.00359865   -0.00370998    0.00137363
     atom    3 type  2   force =     0.00119923   -0.00474878    0.00857952
     atom    4 type  2   force =    -0.01004873   -0.00066251    0.00250573
     atom    5 type  2   force =    -0.00013473    0.00397660   -0.00646803
     atom    6 type  1   force =    -0.00096686    0.00221790   -0.00056476
     atom    7 type  1   force =     0.00031619   -0.00438288    0.00059713
     atom    8 type  2   force =     0.00135588   -0.00425487    0.00637903
     atom    9 type  2   force =    -0.00958131   -0.00143291   -0.00026552
     atom   10 type  2   force =     0.00064477    0.00458397   -0.00660515
     The Hubbard contrib.    to forces
     atom    1 type  1   force =     0.00000000    0.00000000    0.00000000
     atom    2 type  1   force =     0.00000000    0.00000000    0.00000000
     atom    3 type  2   force =     0.00000000    0.00000000    0.00000000
     atom    4 type  2   force =     0.00000000    0.00000000    0.00000000
     atom    5 type  2   force =     0.00000000    0.00000000    0.00000000
     atom    6 type  1   force =     0.00000000    0.00000000    0.00000000
     atom    7 type  1   force =     0.00000000    0.00000000    0.00000000
     atom    8 type  2   force =     0.00000000    0.00000000    0.00000000
     atom    9 type  2   force =     0.00000000    0.00000000    0.00000000
     atom   10 type  2   force =     0.00000000    0.00000000    0.00000000
     The SCF correction term to forces
     atom    1 type  1   force =     0.00006447    0.00000777   -0.00015228
     atom    2 type  1   force =    -0.00001684   -0.00004903   -0.00014331
     atom    3 type  2   force =    -0.00000492    0.00000289   -0.00004160
     atom    4 type  2   force =     0.00000096    0.00001423   -0.00005266
     atom    5 type  2   force =     0.00000162   -0.00000798   -0.00004307
     atom    6 type  1   force =     0.00000156    0.00001105   -0.00007348
     atom    7 type  1   force =    -0.00003033    0.00003255   -0.00003059
     atom    8 type  2   force =    -0.00000529    0.00000170   -0.00002586
     atom    9 type  2   force =     0.00000372    0.00000791   -0.00002654
     atom   10 type  2   force =     0.00000379    0.00000021   -0.00003107

     Total force =     0.132756     Total SCF correction =     0.000261


     Computing stress (Cartesian axis) and pressure


     negative rho (up, down):  4.254E-04 0.000E+00
          total   stress  (Ry/bohr**3)                   (kbar)     P=      -14.49
  -0.00013080   0.00001532  -0.00001990          -19.24        2.25       -2.93
   0.00001532  -0.00016457   0.00000882            2.25      -24.21        1.30
  -0.00001990   0.00000882  -0.00000008           -2.93        1.30       -0.01

     kinetic stress (kbar)   4807.49      6.06     -2.42
                                6.06   4800.45     -5.80
                               -2.42     -5.80   4841.32

     local   stress (kbar)-498172.73    -67.04     32.98
                              -67.04-494906.12   -916.81
                               32.98   -916.81 495965.89

     nonloc. stress (kbar)   -141.61     -0.55     -0.70
                               -0.55   -163.79     17.56
                               -0.70     17.56    -19.65

     hartree stress (kbar) 251237.19     38.51    -14.87
                               38.51 249629.35    432.52
                              -14.87    432.52-242023.37

     exc-cor stress (kbar)    599.35     -0.09      0.05
                               -0.09    600.47     -0.77
                                0.05     -0.77    590.05

     corecor stress (kbar)  -2383.13     -0.03      0.00
                               -0.03  -2383.23      0.19
                                0.00      0.19  -2382.62

     ewald   stress (kbar) 244034.20     25.39    -17.97
                               25.39 242398.67    474.41
                              -17.97    474.41-256971.64

     hubbard stress (kbar)      0.00      0.00      0.00
                                0.00      0.00      0.00
                                0.00      0.00      0.00

     DFT-D   stress (kbar)      0.00      0.00      0.00
                                0.00      0.00      0.00
                                0.00      0.00      0.00

     XDM     stress (kbar)      0.00      0.00      0.00
                                0.00      0.00      0.00
                                0.00      0.00      0.00

     dft-nl  stress (kbar)      0.00      0.00      0.00
                                0.00      0.00      0.00
                                0.00      0.00      0.00

     TS-vdW  stress (kbar)      0.00      0.00      0.00
                                0.00      0.00      0.00
                                0.00      0.00      0.00


                                0.00      0.00      0.00
                                0.00      0.00      0.00


                                0.00      0.00      0.00


     Entering Dynamics:    iteration =    20
                           time      =   0.0194 pico-seconds


     Canonical sampling velocity rescaling

ATOMIC_POSITIONS (crystal)
Ga            0.8346956173        0.7158733691        0.4260735602
Ga            0.5030419219        0.3011377826        0.3988109159
O             0.4164047321        0.5606202659        0.4471348105
O             0.4519640810        0.0150662553        0.4163090449
O             0.9488192515        0.4488638019        0.3806059397
Ga            0.8183235723        0.7220642196        0.5998684979
Ga            0.5121147502        0.3010625031        0.5739476123
O             0.3815073292        0.5787041786        0.6185417079
O             0.4862611711        0.0077610649        0.5857508864
O             0.9333846990        0.4534705740        0.5561190716


     kinetic energy (Ekin) =           0.05274390 Ry
     temperature           =         616.85948939 K 
     Ekin + Etot (const)   =       -1361.92019962 Ry
     Ions kinetic stress =            1.39 (kbar)
                                      1.76          -0.13           0.18
                                     -0.13           0.58          -0.88
                                      0.18          -0.88           1.82



     Linear momentum :   -0.0000000000    0.0000000000    0.0000000000

     Writing config-only to output data dir ./tmp/Ga2O3-BL-001-300K.save/

     second order wave-functions extrapolation
     second order charge density extrapolation

     negative rho (up, down):  4.258E-04 0.000E+00

     total cpu time spent up to now is     1078.3 secs

     Self-consistent Calculation

     iteration #  1     ecut=    80.00 Ry     beta= 0.20
     Davidson diagonalization with overlap

---- Real-time Memory Report at c_bands before calling an iterative solver
           314 MiB given to the printing process from OS
             0 MiB allocation reported by mallinfo(arena+hblkhd)
        367078 MiB available memory on the node where the printing process lives
------------------
     ethr =  1.00E-06,  avg # of iterations =  2.0

     Threshold (ethr) on eigenvalues was too large:
     Diagonalizing with lowered threshold

     Davidson diagonalization with overlap

---- Real-time Memory Report at c_bands before calling an iterative solver
           314 MiB given to the printing process from OS
             0 MiB allocation reported by mallinfo(arena+hblkhd)
        367082 MiB available memory on the node where the printing process lives
------------------
     ethr =  1.11E-10,  avg # of iterations = 16.5

     negative rho (up, down):  4.255E-04 0.000E+00

     total cpu time spent up to now is     1086.0 secs

     total energy              =   -1361.97456452 Ry
     estimated scf accuracy    <       0.00000009 Ry

     iteration #  2     ecut=    80.00 Ry     beta= 0.20
     Davidson diagonalization with overlap

---- Real-time Memory Report at c_bands before calling an iterative solver
           314 MiB given to the printing process from OS
             0 MiB allocation reported by mallinfo(arena+hblkhd)
        367083 MiB available memory on the node where the printing process lives
------------------
     ethr =  1.00E-10,  avg # of iterations =  2.0

     negative rho (up, down):  4.252E-04 0.000E+00

     total cpu time spent up to now is     1087.9 secs

     total energy              =   -1361.97456451 Ry
     estimated scf accuracy    <       0.00000004 Ry

     iteration #  3     ecut=    80.00 Ry     beta= 0.20
     Davidson diagonalization with overlap

---- Real-time Memory Report at c_bands before calling an iterative solver
           314 MiB given to the printing process from OS
             0 MiB allocation reported by mallinfo(arena+hblkhd)
        367083 MiB available memory on the node where the printing process lives
------------------
     ethr =  4.58E-11,  avg # of iterations = 11.6

     negative rho (up, down):  4.249E-04 0.000E+00

     total cpu time spent up to now is     1091.8 secs

     total energy              =   -1361.97456460 Ry
     estimated scf accuracy    <       0.00000013 Ry

     iteration #  4     ecut=    80.00 Ry     beta= 0.20
     Davidson diagonalization with overlap

---- Real-time Memory Report at c_bands before calling an iterative solver
           314 MiB given to the printing process from OS
             0 MiB allocation reported by mallinfo(arena+hblkhd)
        367083 MiB available memory on the node where the printing process lives
------------------
     ethr =  4.58E-11,  avg # of iterations =  6.1

     negative rho (up, down):  4.247E-04 0.000E+00

     total cpu time spent up to now is     1094.3 secs

     total energy              =   -1361.97456461 Ry
     estimated scf accuracy    <       0.00000026 Ry

     iteration #  5     ecut=    80.00 Ry     beta= 0.20
     Davidson diagonalization with overlap

---- Real-time Memory Report at c_bands before calling an iterative solver
           314 MiB given to the printing process from OS
             0 MiB allocation reported by mallinfo(arena+hblkhd)
        367083 MiB available memory on the node where the printing process lives
------------------
     ethr =  4.58E-11,  avg # of iterations =  2.0

     negative rho (up, down):  4.246E-04 0.000E+00

     total cpu time spent up to now is     1096.2 secs

     total energy              =   -1361.97456461 Ry
     estimated scf accuracy    <       0.00000028 Ry

     iteration #  6     ecut=    80.00 Ry     beta= 0.20
     Davidson diagonalization with overlap

---- Real-time Memory Report at c_bands before calling an iterative solver
           314 MiB given to the printing process from OS
             0 MiB allocation reported by mallinfo(arena+hblkhd)
        367083 MiB available memory on the node where the printing process lives
------------------
     ethr =  4.58E-11,  avg # of iterations =  1.6

     negative rho (up, down):  4.245E-04 0.000E+00

     total cpu time spent up to now is     1097.9 secs

     total energy              =   -1361.97456453 Ry
     estimated scf accuracy    <       0.00000027 Ry

     iteration #  7     ecut=    80.00 Ry     beta= 0.20
     Davidson diagonalization with overlap

---- Real-time Memory Report at c_bands before calling an iterative solver
           314 MiB given to the printing process from OS
             0 MiB allocation reported by mallinfo(arena+hblkhd)
        367083 MiB available memory on the node where the printing process lives
------------------
     ethr =  4.58E-11,  avg # of iterations =  7.0

     negative rho (up, down):  4.244E-04 0.000E+00

     total cpu time spent up to now is     1100.9 secs

     total energy              =   -1361.97456456 Ry
     estimated scf accuracy    <       0.00000003 Ry

     iteration #  8     ecut=    80.00 Ry     beta= 0.20
     Davidson diagonalization with overlap

---- Real-time Memory Report at c_bands before calling an iterative solver
           314 MiB given to the printing process from OS
             0 MiB allocation reported by mallinfo(arena+hblkhd)
        367079 MiB available memory on the node where the printing process lives
------------------
     ethr =  3.69E-11,  avg # of iterations =  2.0

     negative rho (up, down):  4.243E-04 0.000E+00

     total cpu time spent up to now is     1102.8 secs

     total energy              =   -1361.97456456 Ry
     estimated scf accuracy    <       0.00000003 Ry

     iteration #  9     ecut=    80.00 Ry     beta= 0.20
     Davidson diagonalization with overlap

---- Real-time Memory Report at c_bands before calling an iterative solver
           314 MiB given to the printing process from OS
             0 MiB allocation reported by mallinfo(arena+hblkhd)
        367079 MiB available memory on the node where the printing process lives
------------------
     ethr =  3.23E-11,  avg # of iterations =  1.4

     negative rho (up, down):  4.242E-04 0.000E+00

     total cpu time spent up to now is     1104.5 secs

     total energy              =   -1361.97456456 Ry
     estimated scf accuracy    <       0.00000003 Ry

     iteration # 10     ecut=    80.00 Ry     beta= 0.20
     Davidson diagonalization with overlap

---- Real-time Memory Report at c_bands before calling an iterative solver
           314 MiB given to the printing process from OS
             0 MiB allocation reported by mallinfo(arena+hblkhd)
        367086 MiB available memory on the node where the printing process lives
------------------
     ethr =  3.14E-11,  avg # of iterations =  1.0

     negative rho (up, down):  4.242E-04 0.000E+00

     total cpu time spent up to now is     1106.2 secs

     total energy              =   -1361.97456455 Ry
     estimated scf accuracy    <       0.00000003 Ry

     iteration # 11     ecut=    80.00 Ry     beta= 0.20
     Davidson diagonalization with overlap

---- Real-time Memory Report at c_bands before calling an iterative solver
           314 MiB given to the printing process from OS
             0 MiB allocation reported by mallinfo(arena+hblkhd)
        367086 MiB available memory on the node where the printing process lives
------------------
     ethr =  3.14E-11,  avg # of iterations =  1.9

     negative rho (up, down):  4.241E-04 0.000E+00

     total cpu time spent up to now is     1108.1 secs

     total energy              =   -1361.97456456 Ry
     estimated scf accuracy    <       0.00000001 Ry

     iteration # 12     ecut=    80.00 Ry     beta= 0.20
     Davidson diagonalization with overlap

---- Real-time Memory Report at c_bands before calling an iterative solver
           314 MiB given to the printing process from OS
             0 MiB allocation reported by mallinfo(arena+hblkhd)
        367086 MiB available memory on the node where the printing process lives
------------------
     ethr =  1.15E-11,  avg # of iterations =  8.0

     negative rho (up, down):  4.241E-04 0.000E+00

     total cpu time spent up to now is     1111.2 secs

     total energy              =   -1361.97456456 Ry
     estimated scf accuracy    <       0.00000001 Ry

     iteration # 13     ecut=    80.00 Ry     beta= 0.20
     Davidson diagonalization with overlap

---- Real-time Memory Report at c_bands before calling an iterative solver
           314 MiB given to the printing process from OS
             0 MiB allocation reported by mallinfo(arena+hblkhd)
        367085 MiB available memory on the node where the printing process lives
------------------
     ethr =  1.15E-11,  avg # of iterations =  4.4

     negative rho (up, down):  4.240E-04 0.000E+00

     total cpu time spent up to now is     1113.3 secs

     End of self-consistent calculation

          k = 0.0000 0.0000 0.0000 ( 45065 PWs)   bands (ev):

   -24.7863 -24.4442 -23.7362 -23.5512 -23.5149 -23.2166 -20.0394 -19.9417
   -19.8837 -19.8734 -19.8528 -19.8081 -19.7853 -19.6902 -19.5711 -19.3910
   -19.3690 -19.3324 -19.3177 -19.2813 -19.2596 -19.2309 -19.2199 -19.1320
   -18.6691 -18.6046 -12.6518 -12.4179 -10.2190  -9.6396  -9.6039  -9.2817
    -8.6222  -8.2874  -8.1759  -8.1030  -8.0133  -7.9680  -7.7218  -7.6793
    -7.5044  -7.3447  -7.0650  -6.9037

     occupation numbers 
     1.0000   1.0000   1.0000   1.0000   1.0000   1.0000   1.0000   1.0000
     1.0000   1.0000   1.0000   1.0000   1.0000   1.0000   1.0000   1.0000
     1.0000   1.0000   1.0000   1.0000   1.0000   1.0000   1.0000   1.0000
     1.0000   1.0000   1.0000   1.0000   1.0000   1.0000   1.0000   1.0000
     1.0000   1.0000   1.0000   1.0000   1.0000   1.0000   1.0000   1.0000
     1.0000   1.0000   1.0000   1.0000

          k =-0.0062 0.1431 0.0000 ( 45113 PWs)   bands (ev):

   -24.7393 -24.3666 -23.8364 -23.6618 -23.5067 -23.1612 -20.0114 -19.9432
   -19.9033 -19.8713 -19.8454 -19.8022 -19.7741 -19.6856 -19.5383 -19.4006
   -19.3868 -19.3696 -19.3315 -19.3123 -19.2497 -19.2215 -19.2030 -19.1236
   -18.7657 -18.5783 -12.2350 -11.9925 -10.3406  -9.7737  -9.7522  -9.4964
    -9.2875  -8.7826  -8.2568  -8.0839  -7.9159  -7.7794  -7.7057  -7.4801
    -7.3796  -7.2478  -7.0388  -6.9461

     occupation numbers 
     1.0000   1.0000   1.0000   1.0000   1.0000   1.0000   1.0000   1.0000
     1.0000   1.0000   1.0000   1.0000   1.0000   1.0000   1.0000   1.0000
     1.0000   1.0000   1.0000   1.0000   1.0000   1.0000   1.0000   1.0000
     1.0000   1.0000   1.0000   1.0000   1.0000   1.0000   1.0000   1.0000
     1.0000   1.0000   1.0000   1.0000   1.0000   1.0000   1.0000   1.0000
     1.0000   1.0000   1.0000   1.0000

          k = 0.0124-0.2862 0.0000 ( 45174 PWs)   bands (ev):

   -24.6845 -24.2547 -23.9262 -23.8216 -23.4808 -23.1265 -19.9856 -19.9395
   -19.9160 -19.8745 -19.8371 -19.7800 -19.7706 -19.6841 -19.4996 -19.4598
   -19.4164 -19.3954 -19.3352 -19.3048 -19.2373 -19.2126 -19.1934 -19.1146
   -18.8568 -18.5646 -11.4740 -11.2733 -10.7699 -10.2261 -10.1665  -9.8697
    -9.5046  -9.0998  -8.2859  -8.0580  -7.9115  -7.6292  -7.5379  -7.4561
    -7.3377  -7.0870  -7.0482  -6.9565

     occupation numbers 
     1.0000   1.0000   1.0000   1.0000   1.0000   1.0000   1.0000   1.0000
     1.0000   1.0000   1.0000   1.0000   1.0000   1.0000   1.0000   1.0000
     1.0000   1.0000   1.0000   1.0000   1.0000   1.0000   1.0000   1.0000
     1.0000   1.0000   1.0000   1.0000   1.0000   1.0000   1.0000   1.0000
     1.0000   1.0000   1.0000   1.0000   1.0000   1.0000   1.0000   1.0000
     1.0000   1.0000   1.0000   1.0000

          k = 0.1684-0.0368 0.0000 ( 45086 PWs)   bands (ev):

   -24.6570 -24.3007 -23.7310 -23.5428 -23.5131 -23.2146 -20.0281 -19.9464
   -19.9009 -19.8538 -19.8464 -19.7973 -19.7587 -19.6847 -19.5540 -19.4073
   -19.3660 -19.3210 -19.3107 -19.2592 -19.2503 -19.2024 -19.1636 -19.1199
   -18.6304 -18.5697 -12.5472 -12.3197 -10.4655 -10.2804  -9.9875  -9.8538
    -9.1119  -8.6006  -8.5345  -8.2154  -8.1594  -7.9246  -7.8593  -7.6357
    -7.5616  -7.2582  -7.1509  -6.6971

     occupation numbers 
     1.0000   1.0000   1.0000   1.0000   1.0000   1.0000   1.0000   1.0000
     1.0000   1.0000   1.0000   1.0000   1.0000   1.0000   1.0000   1.0000
     1.0000   1.0000   1.0000   1.0000   1.0000   1.0000   1.0000   1.0000
     1.0000   1.0000   1.0000   1.0000   1.0000   1.0000   1.0000   1.0000
     1.0000   1.0000   1.0000   1.0000   1.0000   1.0000   1.0000   1.0000
     1.0000   1.0000   1.0000   1.0000

          k = 0.1622 0.1063 0.0000 ( 45049 PWs)   bands (ev):

   -24.6412 -24.2711 -23.7608 -23.5675 -23.5312 -23.1952 -20.0219 -19.9383
   -19.8999 -19.8589 -19.8445 -19.7983 -19.7605 -19.6674 -19.5427 -19.4121
   -19.3690 -19.3215 -19.3160 -19.3052 -19.2502 -19.2007 -19.1493 -19.1144
   -18.7087 -18.5152 -12.3944 -12.1824 -10.6466 -10.1592 -10.0778  -9.8078
    -9.2427  -8.8362  -8.6230  -8.2599  -8.1587  -7.8089  -7.7553  -7.6906
    -7.4978  -7.2398  -7.1428  -6.7083

     occupation numbers 
     1.0000   1.0000   1.0000   1.0000   1.0000   1.0000   1.0000   1.0000
     1.0000   1.0000   1.0000   1.0000   1.0000   1.0000   1.0000   1.0000
     1.0000   1.0000   1.0000   1.0000   1.0000   1.0000   1.0000   1.0000
     1.0000   1.0000   1.0000   1.0000   1.0000   1.0000   1.0000   1.0000
     1.0000   1.0000   1.0000   1.0000   1.0000   1.0000   1.0000   1.0000
     1.0000   1.0000   1.0000   1.0000

          k = 0.1808-0.3231 0.0000 ( 45092 PWs)   bands (ev):

   -24.5808 -24.1437 -23.8517 -23.7456 -23.5110 -23.1596 -19.9955 -19.9266
   -19.9115 -19.8624 -19.8333 -19.7903 -19.7569 -19.6410 -19.5031 -19.4561
   -19.4137 -19.3855 -19.3283 -19.3058 -19.2394 -19.2012 -19.1107 -19.0789
   -18.8510 -18.4815 -11.6455 -11.4253 -11.0427 -10.5537 -10.2373  -9.8486
    -9.7504  -9.4033  -8.7836  -8.4006  -8.0901  -7.7789  -7.6160  -7.4444
    -7.3661  -7.2159  -7.0452  -6.7326

     occupation numbers 
     1.0000   1.0000   1.0000   1.0000   1.0000   1.0000   1.0000   1.0000
     1.0000   1.0000   1.0000   1.0000   1.0000   1.0000   1.0000   1.0000
     1.0000   1.0000   1.0000   1.0000   1.0000   1.0000   1.0000   1.0000
     1.0000   1.0000   1.0000   1.0000   1.0000   1.0000   1.0000   1.0000
     1.0000   1.0000   1.0000   1.0000   1.0000   1.0000   1.0000   1.0000
     1.0000   1.0000   1.0000   1.0000

          k = 0.1746-0.1799 0.0000 ( 45085 PWs)   bands (ev):

   -24.5998 -24.1930 -23.8234 -23.6806 -23.5172 -23.1708 -19.9971 -19.9401
   -19.9115 -19.8606 -19.8370 -19.7878 -19.7539 -19.6729 -19.5167 -19.4077
   -19.3978 -19.3815 -19.3291 -19.3033 -19.2477 -19.2006 -19.1125 -19.0919
   -18.7993 -18.5014 -11.9846 -11.7094 -10.6907 -10.3620 -10.3317  -9.8414
    -9.6335  -9.2428  -8.7201  -8.3543  -8.0848  -7.8243  -7.6507  -7.4762
    -7.3414  -7.2204  -7.1525  -6.7209

     occupation numbers 
     1.0000   1.0000   1.0000   1.0000   1.0000   1.0000   1.0000   1.0000
     1.0000   1.0000   1.0000   1.0000   1.0000   1.0000   1.0000   1.0000
     1.0000   1.0000   1.0000   1.0000   1.0000   1.0000   1.0000   1.0000
     1.0000   1.0000   1.0000   1.0000   1.0000   1.0000   1.0000   1.0000
     1.0000   1.0000   1.0000   1.0000   1.0000   1.0000   1.0000   1.0000
     1.0000   1.0000   1.0000   1.0000

          k = 0.3368-0.0737 0.0000 ( 45074 PWs)   bands (ev):

   -24.3640 -23.9537 -23.7075 -23.5664 -23.4970 -23.2785 -19.9894 -19.9231
   -19.9049 -19.8847 -19.7992 -19.7719 -19.7347 -19.6280 -19.5073 -19.3832
   -19.3620 -19.3355 -19.2757 -19.2578 -19.2424 -19.1835 -19.0472 -19.0220
   -18.6761 -18.4323 -12.6174 -12.3448 -11.4834 -11.0725 -10.6768 -10.2513
    -9.5176  -9.1034  -8.7262  -8.5007  -8.2394  -8.2059  -7.9358  -7.5590
    -7.4217  -7.3146  -7.2206  -6.6833

     occupation numbers 
     1.0000   1.0000   1.0000   1.0000   1.0000   1.0000   1.0000   1.0000
     1.0000   1.0000   1.0000   1.0000   1.0000   1.0000   1.0000   1.0000
     1.0000   1.0000   1.0000   1.0000   1.0000   1.0000   1.0000   1.0000
     1.0000   1.0000   1.0000   1.0000   1.0000   1.0000   1.0000   1.0000
     1.0000   1.0000   1.0000   1.0000   1.0000   1.0000   1.0000   1.0000
     1.0000   1.0000   1.0000   1.0000

          k = 0.3306 0.0695 0.0000 ( 45046 PWs)   bands (ev):

   -24.3702 -23.9651 -23.7130 -23.5544 -23.4880 -23.2741 -19.9981 -19.9249
   -19.8956 -19.8733 -19.8005 -19.7738 -19.7352 -19.6245 -19.5109 -19.3866
   -19.3672 -19.3402 -19.2673 -19.2363 -19.2250 -19.1907 -19.0606 -19.0567
   -18.6423 -18.4393 -12.6439 -12.4247 -11.5740 -11.0235 -10.5958 -10.2847
    -9.4009  -9.0374  -8.7489  -8.4493  -8.2837  -8.1264  -7.9596  -7.6563
    -7.4316  -7.3271  -7.2142  -6.6847

     occupation numbers 
     1.0000   1.0000   1.0000   1.0000   1.0000   1.0000   1.0000   1.0000
     1.0000   1.0000   1.0000   1.0000   1.0000   1.0000   1.0000   1.0000
     1.0000   1.0000   1.0000   1.0000   1.0000   1.0000   1.0000   1.0000
     1.0000   1.0000   1.0000   1.0000   1.0000   1.0000   1.0000   1.0000
     1.0000   1.0000   1.0000   1.0000   1.0000   1.0000   1.0000   1.0000
     1.0000   1.0000   1.0000   1.0000

          k = 0.3492-0.3599 0.0000 ( 45085 PWs)   bands (ev):

   -24.3380 -23.8684 -23.7206 -23.6013 -23.5830 -23.2659 -19.9778 -19.9267
   -19.8893 -19.8638 -19.8006 -19.7735 -19.7372 -19.5688 -19.4841 -19.4118
   -19.3887 -19.3731 -19.3409 -19.2688 -19.2336 -19.1941 -19.0057 -18.9918
   -18.8030 -18.3726 -12.2940 -12.0351 -11.8476 -11.3535 -10.3193 -10.0181
    -9.6641  -9.3855  -8.9097  -8.5113  -8.4523  -8.0709  -8.0095  -7.5266
    -7.4823  -7.2209  -7.1151  -6.6976

     occupation numbers 
     1.0000   1.0000   1.0000   1.0000   1.0000   1.0000   1.0000   1.0000
     1.0000   1.0000   1.0000   1.0000   1.0000   1.0000   1.0000   1.0000
     1.0000   1.0000   1.0000   1.0000   1.0000   1.0000   1.0000   1.0000
     1.0000   1.0000   1.0000   1.0000   1.0000   1.0000   1.0000   1.0000
     1.0000   1.0000   1.0000   1.0000   1.0000   1.0000   1.0000   1.0000
     1.0000   1.0000   1.0000   1.0000

          k = 0.3430-0.2168 0.0000 ( 45092 PWs)   bands (ev):

   -24.3311 -23.8471 -23.7142 -23.6209 -23.5966 -23.2695 -19.9682 -19.9223
   -19.8954 -19.8840 -19.7945 -19.7715 -19.7367 -19.5795 -19.4830 -19.4218
   -19.3884 -19.3603 -19.3384 -19.2768 -19.2356 -19.1894 -18.9791 -18.9715
   -18.8496 -18.3716 -12.2852 -11.8716 -11.7472 -11.4704 -10.3597  -9.9598
    -9.8385  -9.5016  -8.9195  -8.5472  -8.4104  -8.0536  -7.8947  -7.5959
    -7.4242  -7.2555  -7.0803  -6.7039

     occupation numbers 
     1.0000   1.0000   1.0000   1.0000   1.0000   1.0000   1.0000   1.0000
     1.0000   1.0000   1.0000   1.0000   1.0000   1.0000   1.0000   1.0000
     1.0000   1.0000   1.0000   1.0000   1.0000   1.0000   1.0000   1.0000
     1.0000   1.0000   1.0000   1.0000   1.0000   1.0000   1.0000   1.0000
     1.0000   1.0000   1.0000   1.0000   1.0000   1.0000   1.0000   1.0000
     1.0000   1.0000   1.0000   1.0000

          k =-0.5052 0.1105 0.0000 ( 45134 PWs)   bands (ev):

   -24.1840 -23.6953 -23.6831 -23.6079 -23.4672 -23.4257 -19.9648 -19.9268
   -19.9074 -19.8747 -19.7845 -19.7531 -19.7160 -19.5498 -19.4819 -19.3936
   -19.3553 -19.3254 -19.3082 -19.2543 -19.2359 -19.1618 -18.9534 -18.9450
   -18.7820 -18.3619 -12.7641 -12.4026 -12.1099 -11.7661 -10.3882  -9.9997
    -9.8366  -9.4164  -8.9533  -8.5768  -8.2777  -7.9891  -7.9660  -7.5857
    -7.4514  -7.3659  -7.1437  -6.9239

     occupation numbers 
     1.0000   1.0000   1.0000   1.0000   1.0000   1.0000   1.0000   1.0000
     1.0000   1.0000   1.0000   1.0000   1.0000   1.0000   1.0000   1.0000
     1.0000   1.0000   1.0000   1.0000   1.0000   1.0000   1.0000   1.0000
     1.0000   1.0000   1.0000   1.0000   1.0000   1.0000   1.0000   1.0000
     1.0000   1.0000   1.0000   1.0000   1.0000   1.0000   1.0000   1.0000
     1.0000   1.0000   1.0000   1.0000

          k =-0.5114 0.2536 0.0000 ( 45094 PWs)   bands (ev):

   -24.1820 -23.7049 -23.6659 -23.6010 -23.5056 -23.4045 -19.9676 -19.9307
   -19.9047 -19.8559 -19.7930 -19.7419 -19.7093 -19.5472 -19.4779 -19.3943
   -19.3540 -19.3445 -19.3307 -19.2497 -19.2149 -19.1763 -18.9559 -18.9521
   -18.7814 -18.3572 -12.7240 -12.3840 -12.1869 -11.7975 -10.3005  -9.9621
    -9.8593  -9.4825  -8.8492  -8.5512  -8.3736  -7.9429  -7.8557  -7.7063
    -7.5117  -7.3422  -7.1628  -6.9281

     occupation numbers 
     1.0000   1.0000   1.0000   1.0000   1.0000   1.0000   1.0000   1.0000
     1.0000   1.0000   1.0000   1.0000   1.0000   1.0000   1.0000   1.0000
     1.0000   1.0000   1.0000   1.0000   1.0000   1.0000   1.0000   1.0000
     1.0000   1.0000   1.0000   1.0000   1.0000   1.0000   1.0000   1.0000
     1.0000   1.0000   1.0000   1.0000   1.0000   1.0000   1.0000   1.0000
     1.0000   1.0000   1.0000   1.0000

          k =-0.4929-0.1758 0.0000 ( 45008 PWs)   bands (ev):

   -24.1800 -23.7135 -23.6415 -23.5951 -23.5413 -23.3931 -19.9725 -19.9314
   -19.9024 -19.8342 -19.7817 -19.7593 -19.6988 -19.5447 -19.4733 -19.3940
   -19.3612 -19.3549 -19.3424 -19.2398 -19.2110 -19.1921 -18.9677 -18.9537
   -18.7737 -18.3540 -12.6713 -12.3679 -12.2755 -11.8287 -10.3296  -9.9841
    -9.6278  -9.4122  -8.8396  -8.5665  -8.4724  -8.0979  -7.9541  -7.7113
    -7.3926  -7.3166  -7.1478  -6.9242

     occupation numbers 
     1.0000   1.0000   1.0000   1.0000   1.0000   1.0000   1.0000   1.0000
     1.0000   1.0000   1.0000   1.0000   1.0000   1.0000   1.0000   1.0000
     1.0000   1.0000   1.0000   1.0000   1.0000   1.0000   1.0000   1.0000
     1.0000   1.0000   1.0000   1.0000   1.0000   1.0000   1.0000   1.0000
     1.0000   1.0000   1.0000   1.0000   1.0000   1.0000   1.0000   1.0000
     1.0000   1.0000   1.0000   1.0000

     highest occupied level (ev):    -6.6833

!    total energy              =   -1361.97456456 Ry
     estimated scf accuracy    <          4.9E-09 Ry

     convergence has been achieved in  13 iterations

     negative rho (up, down):  4.240E-04 0.000E+00

     Forces acting on atoms (cartesian axes, Ry/au):

     atom    1 type  1   force =    -0.00434688   -0.00632762    0.01099977
     atom    2 type  1   force =     0.03077546    0.03041688    0.03433498
     atom    3 type  2   force =    -0.03820629    0.02609641   -0.02167912
     atom    4 type  2   force =     0.03755999   -0.04538652   -0.00424646
     atom    5 type  2   force =    -0.02593240   -0.00583166   -0.01929685
     atom    6 type  1   force =     0.00728284   -0.03569357   -0.00572705
     atom    7 type  1   force =    -0.00307778    0.05786500    0.00600607
     atom    8 type  2   force =    -0.01559689    0.00832146    0.01787729
     atom    9 type  2   force =     0.00645032   -0.00056276   -0.00029189
     atom   10 type  2   force =     0.00509165   -0.02889763   -0.01797672
     The non-local contrib.  to forces
     atom    1 type  1   force =     0.28725945    0.17827107   -0.03332560
     atom    2 type  1   force =     0.25206260   -0.01845438   -0.27145388
     atom    3 type  2   force =    -0.09472576    0.49923031   -1.01843557
     atom    4 type  2   force =     1.07162352    0.11599728   -0.28947967
     atom    5 type  2   force =     0.06048802   -0.43853388    0.81950894
     atom    6 type  1   force =     0.18349503    0.13753844    0.11522782
     atom    7 type  1   force =     0.12624855   -0.05516205   -0.09686118
     atom    8 type  2   force =    -0.12653711    0.46223889   -0.80823161
     atom    9 type  2   force =     1.04348749    0.15894150    0.03523125
     atom   10 type  2   force =    -0.06681209   -0.48077789    0.83212399
     The ionic contribution  to forces
     atom    1 type  1   force =     2.40080970   12.05037346  -87.13543753
     atom    2 type  1   force =     3.46473555  -10.21406384 -135.85183209
     atom    3 type  2   force =    -0.30457879   -1.58519565  -15.63607530
     atom    4 type  2   force =    -4.63606406   -1.54955830  -46.54434593
     atom    5 type  2   force =    -0.96173557    2.04735042  -84.60684969
     atom    6 type  1   force =     2.18211341   10.48241573  132.96786504
     atom    7 type  1   force =     2.28614916  -10.09825905   86.06082015
     atom    8 type  2   force =     0.07630265   -1.88275186   84.07969339
     atom    9 type  2   force =    -4.78212951   -0.26401605   49.03855520
     atom   10 type  2   force =     0.27439745    1.01370514   17.62760676
     The local contribution  to forces
     atom    1 type  1   force =    -2.68989214  -12.23467680   87.17953475
     atom    2 type  1   force =    -3.68246104   10.26651765  136.15622202
     atom    3 type  2   force =     0.35985255    1.11679146   16.62439246
     atom    4 type  2   force =     3.61201713    1.38883760   46.82696314
     atom    5 type  2   force =     0.87548875   -1.61866782   83.77431009
     atom    6 type  1   force =    -2.35742720  -10.65792797 -133.08836936
     atom    7 type  1   force =    -2.41584402   10.21581087  -85.95864860
     atom    8 type  2   force =     0.03327759    1.43309241  -83.25980703
     atom    9 type  2   force =     3.75455576    0.10594894  -49.07381049
     atom   10 type  2   force =    -0.20312816   -0.56640827  -18.47133048
     The core correction contribution to forces
     atom    1 type  1   force =    -0.00252101   -0.00028311    0.00018538
     atom    2 type  1   force =    -0.00355339   -0.00356579    0.00134297
     atom    3 type  2   force =     0.00123169   -0.00472553    0.00842271
     atom    4 type  2   force =    -0.01001587   -0.00065389    0.00260157
     atom    5 type  2   force =    -0.00018082    0.00401601   -0.00628608
     atom    6 type  1   force =    -0.00086538    0.00227301   -0.00053920
     atom    7 type  1   force =     0.00038212   -0.00451943    0.00058172
     atom    8 type  2   force =     0.00135004   -0.00425897    0.00619864
     atom    9 type  2   force =    -0.00946733   -0.00142601   -0.00029131
     atom   10 type  2   force =     0.00063375    0.00457253   -0.00640261
     The Hubbard contrib.    to forces
     atom    1 type  1   force =     0.00000000    0.00000000    0.00000000
     atom    2 type  1   force =     0.00000000    0.00000000    0.00000000
     atom    3 type  2   force =     0.00000000    0.00000000    0.00000000
     atom    4 type  2   force =     0.00000000    0.00000000    0.00000000
     atom    5 type  2   force =     0.00000000    0.00000000    0.00000000
     atom    6 type  1   force =     0.00000000    0.00000000    0.00000000
     atom    7 type  1   force =     0.00000000    0.00000000    0.00000000
     atom    8 type  2   force =     0.00000000    0.00000000    0.00000000
     atom    9 type  2   force =     0.00000000    0.00000000    0.00000000
     atom   10 type  2   force =     0.00000000    0.00000000    0.00000000
     The SCF correction term to forces
     atom    1 type  1   force =    -0.00000824   -0.00000995    0.00005513
     atom    2 type  1   force =    -0.00001361   -0.00001447    0.00006833
     atom    3 type  2   force =     0.00000866   -0.00000190    0.00002895
     atom    4 type  2   force =    -0.00000607   -0.00000692    0.00002680
     atom    5 type  2   force =     0.00000187    0.00000589    0.00003226
     atom    6 type  1   force =    -0.00003837    0.00000951    0.00010101
     atom    7 type  1   force =    -0.00001894   -0.00000305    0.00012636
     atom    8 type  2   force =     0.00000460    0.00000329    0.00003626
     atom    9 type  2   force =    -0.00000143   -0.00000886    0.00003581
     atom   10 type  2   force =    -0.00000464    0.00001314    0.00003798

     Total force =     0.130466     Total SCF correction =     0.000209


     Computing stress (Cartesian axis) and pressure


     negative rho (up, down):  4.240E-04 0.000E+00
          total   stress  (Ry/bohr**3)                   (kbar)     P=      -12.96
  -0.00011691   0.00001433  -0.00002020          -17.20        2.11       -2.97
   0.00001433  -0.00015342   0.00000807            2.11      -22.57        1.19
  -0.00002020   0.00000807   0.00000593           -2.97        1.19        0.87

     kinetic stress (kbar)   4820.79      5.93     -2.34
                                5.93   4812.51     -6.21
                               -2.34     -6.21   4849.27

     local   stress (kbar)-498334.55    -54.27     32.52
                              -54.27-495064.90   -958.95
                               32.52   -958.95 496144.40

     nonloc. stress (kbar)   -154.43     -0.13     -0.84
                               -0.13   -176.32     17.71
                               -0.84     17.71    -28.19

     hartree stress (kbar) 251317.39     34.08    -14.93
                               34.08 249708.35    450.88
                              -14.93    450.88-242103.57

     exc-cor stress (kbar)    598.92     -0.11      0.05
                               -0.11    600.04     -0.75
                                0.05     -0.75    589.50

     corecor stress (kbar)  -2383.09     -0.03      0.00
                               -0.03  -2383.18      0.19
                                0.00      0.19  -2382.53

     ewald   stress (kbar) 244117.76     16.64    -17.44
                               16.64 242480.94    498.31
                              -17.44    498.31-257068.00

     hubbard stress (kbar)      0.00      0.00      0.00
                                0.00      0.00      0.00
                                0.00      0.00      0.00

     DFT-D   stress (kbar)      0.00      0.00      0.00
                                0.00      0.00      0.00
                                0.00      0.00      0.00

     XDM     stress (kbar)      0.00      0.00      0.00
                                0.00      0.00      0.00
                                0.00      0.00      0.00

     dft-nl  stress (kbar)      0.00      0.00      0.00
                                0.00      0.00      0.00
                                0.00      0.00      0.00

     TS-vdW  stress (kbar)      0.00      0.00      0.00
                                0.00      0.00      0.00
                                0.00      0.00      0.00


                                0.00      0.00      0.00
                                0.00      0.00      0.00


                                0.00      0.00      0.00


     Entering Dynamics:    iteration =    21
                           time      =   0.0203 pico-seconds


     Canonical sampling velocity rescaling

ATOMIC_POSITIONS (crystal)
Ga            0.8349033775        0.7156194995        0.4260633169
Ga            0.5023450337        0.3013035245        0.3987575779
O             0.4162141890        0.5613323730        0.4467929219
O             0.4559425668        0.0141742594        0.4164701390
O             0.9483904275        0.4483249175        0.3808113282
Ga            0.8179079169        0.7219684781        0.5998815675
Ga            0.5115413283        0.3013009531        0.5739790610
O             0.3803458769        0.5798671701        0.6182880190
O             0.4903192029        0.0080129258        0.5857182751
O             0.9335709598        0.4525366334        0.5564638537


     kinetic energy (Ekin) =           0.05524434 Ry
     temperature           =         646.10305701 K 
     Ekin + Etot (const)   =       -1361.91932022 Ry
     Ions kinetic stress =            1.45 (kbar)
                                      1.86          -0.20           0.22
                                     -0.20           0.68          -0.95
                                      0.22          -0.95           1.81



     Linear momentum :   -0.0000000000    0.0000000000    0.0000000000

     Writing config-only to output data dir ./tmp/Ga2O3-BL-001-300K.save/

     second order wave-functions extrapolation
     second order charge density extrapolation
