Phonopy displacement from POSCAR-021

800 atoms
2 atom types

0.0 34.5312476610872992 xlo xhi
0.0 43.3239956855702388 ylo yhi
0.0 30.0000000000000000 zlo zhi
13.8127802529437602 0.0 0.0 xy xz yz

Masses

1 69.723
2 15.999

Atoms # atomic

1 1 3.2915628951527593 4.2881698062176108 12.1228203567479973
2 1 6.7446876612614890 4.2881698062176108 12.1228203567479973
3 1 10.1978124273702182 4.2881698062176108 12.1228203567479973
4 1 13.6509371934789510 4.2881698062176108 12.1228203567479973
5 1 17.1040619595876819 4.2881698062176108 12.1228203567479973
6 1 20.5571867256964147 4.2881698062176108 12.1228203567479973
7 1 24.0103114918051439 4.2881698062176108 12.1228203567479973
8 1 27.4634362579138767 4.2881698062176108 12.1228203567479973
9 1 30.9165610240226023 4.2881698062176108 12.1228203567479973
10 1 34.3696857901313209 4.2881698062176108 12.1228203567479973
11 1 5.0181604267707280 9.7036692669138862 12.1228203567479973
12 1 8.4712851928794581 9.7036692669138862 12.1228203567479973
13 1 11.9244099589881927 9.7036692669138862 12.1228203567479973
14 1 15.3775347250969219 9.7036692669138862 12.1228203567479973
15 1 18.8306594912056511 9.7036692669138862 12.1228203567479973
16 1 22.2837842573143803 9.7036692669138862 12.1228203567479973
17 1 25.7369090234231095 9.7036692669138862 12.1228203567479973
18 1 29.1900337895318422 9.7036692669138862 12.1228203567479973
19 1 32.6431585556405679 9.7036692669138862 12.1228203567479973
20 1 36.0962833217492900 9.7036692669138862 12.1228203567479973
21 1 6.7447579583886981 15.1191687276101661 12.1228203567479973
22 1 10.1978827244974291 15.1191687276101661 12.1228203567479973
23 1 13.6510074906061565 15.1191687276101661 12.1228203567479973
24 1 17.1041322567148910 15.1191687276101661 12.1228203567479973
25 1 20.5572570228236202 15.1191687276101661 12.1228203567479973
26 1 24.0103817889323494 15.1191687276101661 12.1228203567479973
27 1 27.4635065550410786 15.1191687276101661 12.1228203567479973
28 1 30.9166313211498114 15.1191687276101661 12.1228203567479973
29 1 34.3697560872585370 15.1191687276101661 12.1228203567479973
30 1 37.8228808533672662 15.1191687276101661 12.1228203567479973
31 1 8.4713554900066690 20.5346681883064441 12.1228203567479973
32 1 11.9244802561153982 20.5346681883064441 12.1228203567479973
33 1 15.3776050222241274 20.5346681883064441 12.1228203567479973
34 1 18.8307297883328602 20.5346681883064441 12.1228203567479973
35 1 22.2838545544415823 20.5346681883064441 12.1228203567479973
36 1 25.7369793205503150 20.5346681883064441 12.1228203567479973
37 1 29.1901040866590442 20.5346681883064441 12.1228203567479973
38 1 32.6432288527677841 20.5346681883064441 12.1228203567479973
39 1 36.0963536188765062 20.5346681883064441 12.1228203567479973
40 1 39.5494783849852354 20.5346681883064441 12.1228203567479973
41 1 10.1979530216246399 25.9501676490027293 12.1228203567479973
42 1 13.6510777877333709 25.9501676490027293 12.1228203567479973
43 1 17.1042025538421001 25.9501676490027293 12.1228203567479973
44 1 20.5573273199508293 25.9501676490027293 12.1228203567479973
45 1 24.0104520860595656 25.9501676490027293 12.1228203567479973
46 1 27.4635768521682913 25.9501676490027293 12.1228203567479973
47 1 30.9167016182770205 25.9501676490027293 12.1228203567479973
48 1 34.3698263843857532 25.9501676490027293 12.1228203567479973
49 1 37.8229511504944753 25.9501676490027293 12.1228203567479973
50 1 41.2760759166032045 25.9501676490027293 12.1228203567479973
51 1 11.9245505532426055 31.3656671096990110 12.1228203567479973
52 1 15.3776753193513400 31.3656671096990110 12.1228203567479973
53 1 18.8308000854600692 31.3656671096990110 12.1228203567479973
54 1 22.2839248515687984 31.3656671096990110 12.1228203567479973
55 1 25.7370496176775241 31.3656671096990110 12.1228203567479973
56 1 29.1901743837862568 31.3656671096990110 12.1228203567479973
57 1 32.6432991498949860 31.3656671096990110 12.1228203567479973
58 1 36.0964239160037224 31.3656671096990110 12.1228203567479973
59 1 39.5495486821124445 31.3656671096990110 12.1228203567479973
60 1 43.0026734482211737 31.3656671096990110 12.1228203567479973
61 1 13.6511480848605764 36.7811665703952926 12.1228203567479973
62 1 17.1042728509693056 36.7811665703952926 12.1228203567479973
63 1 20.5573976170780384 36.7811665703952926 12.1228203567479973
64 1 24.0105223831867711 36.7811665703952926 12.1228203567479973
65 1 27.4636471492954968 36.7811665703952926 12.1228203567479973
66 1 30.9167719154042260 36.7811665703952926 12.1228203567479973
67 1 34.3698966815129623 36.7811665703952926 12.1228203567479973
68 1 37.8230214476216844 36.7811665703952926 12.1228203567479973
69 1 41.2761462137304207 36.7811665703952926 12.1228203567479973
70 1 44.7292709798391428 36.7811665703952926 12.1228203567479973
71 1 15.3777456164785473 42.1966660310915671 12.1228203567479973
72 1 18.8308703825872783 42.1966660310915671 12.1228203567479973
73 1 22.2839951486960111 42.1966660310915671 12.1228203567479973
74 1 25.7371199148047403 42.1966660310915671 12.1228203567479973
75 1 29.1902446809134730 42.1966660310915671 12.1228203567479973
76 1 32.6433694470221951 42.1966660310915671 12.1228203567479973
77 1 36.0964942131309314 42.1966660310915671 12.1228203567479973
78 1 39.5496189792396535 42.1966660310915671 12.1228203567479973
79 1 43.0027437453483898 42.1966660310915671 12.1228203567479973
80 1 46.4558685114571048 42.1966660310915671 12.1228203567479973
81 1 1.5649954244185897 2.2111307017728845 11.2524742547010010
82 1 5.0181201905273198 2.2111307017728845 11.2524742547010010
83 1 8.4712449566360490 2.2111307017728845 11.2524742547010010
84 1 11.9243697227447782 2.2111307017728845 11.2524742547010010
85 1 15.3774944888535128 2.2111307017728845 11.2524742547010010
86 1 18.8306192549622367 2.2111307017728845 11.2524742547010010
87 1 22.2837440210709694 2.2111307017728845 11.2524742547010010
88 1 25.7368687871796986 2.2111307017728845 11.2524742547010010
89 1 29.1899935532884243 2.2111307017728845 11.2524742547010010
90 1 32.6431183193971606 2.2111307017728845 11.2524742547010010
91 1 3.2915929560365611 7.6266301624691692 11.2524742547010010
92 1 6.7447177221452908 7.6266301624691692 11.2524742547010010
93 1 10.1978424882540217 7.6266301624691692 11.2524742547010010
94 1 13.6509672543627509 7.6266301624691692 11.2524742547010010
95 1 17.1040920204714837 7.6266301624691692 11.2524742547010010
96 1 20.5572167865802164 7.6266301624691692 11.2524742547010010
97 1 24.0103415526889492 7.6266301624691692 11.2524742547010010
98 1 27.4634663187976784 7.6266301624691692 11.2524742547010010
99 1 30.9165910849064041 7.6266301624691692 11.2524742547010010
100 1 34.3697158510151297 7.6266301624691692 11.2524742547010010
101 1 5.0181904876545307 13.0421296231654491 11.2524742547010010
102 1 8.4713152537632617 13.0421296231654491 11.2524742547010010
103 1 11.9244400198719909 13.0421296231654491 11.2524742547010010
104 1 15.3775647859807201 13.0421296231654491 11.2524742547010010
105 1 18.8306895520894528 13.0421296231654491 11.2524742547010010
106 1 22.2838143181981820 13.0421296231654491 11.2524742547010010
107 1 25.7369390843069148 13.0421296231654491 11.2524742547010010
108 1 29.1900638504156440 13.0421296231654491 11.2524742547010010
109 1 32.6431886165243696 13.0421296231654491 11.2524742547010010
110 1 36.0963133826330989 13.0421296231654491 11.2524742547010010
111 1 6.7447880192724989 18.4576290838617254 11.2524742547010010
112 1 10.1979127853812290 18.4576290838617254 11.2524742547010010
113 1 13.6510375514899600 18.4576290838617254 11.2524742547010010
114 1 17.1041623175986928 18.4576290838617254 11.2524742547010010
115 1 20.5572870837074220 18.4576290838617254 11.2524742547010010
116 1 24.0104118498161512 18.4576290838617254 11.2524742547010010
117 1 27.4635366159248839 18.4576290838617254 11.2524742547010010
118 1 30.9166613820336131 18.4576290838617254 11.2524742547010010
119 1 34.3697861481423388 18.4576290838617254 11.2524742547010010
120 1 37.8229109142510680 18.4576290838617254 11.2524742547010010
121 1 8.4713855508904707 23.8731285445580070 11.2524742547010010
122 1 11.9245103169991999 23.8731285445580070 11.2524742547010010
123 1 15.3776350831079291 23.8731285445580070 11.2524742547010010
124 1 18.8307598492166584 23.8731285445580070 11.2524742547010010
125 1 22.2838846153253911 23.8731285445580070 11.2524742547010010
126 1 25.7370093814341168 23.8731285445580070 11.2524742547010010
127 1 29.1901341475428495 23.8731285445580070 11.2524742547010010
128 1 32.6432589136515858 23.8731285445580070 11.2524742547010010
129 1 36.0963836797603079 23.8731285445580070 11.2524742547010010
130 1 39.5495084458690371 23.8731285445580070 11.2524742547010010
131 1 10.1979830825084399 29.2886280052542851 11.2524742547010010
132 1 13.6511078486171691 29.2886280052542851 11.2524742547010010
133 1 17.1042326147259018 29.2886280052542851 11.2524742547010010
134 1 20.5573573808346310 29.2886280052542851 11.2524742547010010
135 1 24.0104821469433638 29.2886280052542851 11.2524742547010010
136 1 27.4636069130520895 29.2886280052542851 11.2524742547010010
137 1 30.9167316791608258 29.2886280052542851 11.2524742547010010
138 1 34.3698564452695550 29.2886280052542851 11.2524742547010010
139 1 37.8229812113782771 29.2886280052542851 11.2524742547010010
140 1 41.2761059774869992 29.2886280052542851 11.2524742547010010
141 1 11.9245806141264090 34.7041274659505632 11.2524742547010010
142 1 15.3777053802351382 34.7041274659505632 11.2524742547010010
143 1 18.8308301463438710 34.7041274659505632 11.2524742547010010
144 1 22.2839549124525966 34.7041274659505632 11.2524742547010010
145 1 25.7370796785613294 34.7041274659505632 11.2524742547010010
146 1 29.1902044446700586 34.7041274659505632 11.2524742547010010
147 1 32.6433292107787949 34.7041274659505632 11.2524742547010010
148 1 36.0964539768875241 34.7041274659505632 11.2524742547010010
149 1 39.5495787429962462 34.7041274659505632 11.2524742547010010
150 1 43.0027035091049754 34.7041274659505632 11.2524742547010010
151 1 13.6511781457443764 40.1196269266468448 11.2524742547010010
152 1 17.1043029118531109 40.1196269266468448 11.2524742547010010
153 1 20.5574276779618401 40.1196269266468448 11.2524742547010010
154 1 24.0105524440705693 40.1196269266468448 11.2524742547010010
155 1 27.4636772101792985 40.1196269266468448 11.2524742547010010
156 1 30.9168019762880313 40.1196269266468448 11.2524742547010010
157 1 34.3699267423967640 40.1196269266468448 11.2524742547010010
158 1 37.8230515085054932 40.1196269266468448 11.2524742547010010
159 1 41.2761762746142153 40.1196269266468448 11.2524742547010010
160 1 44.7293010407229517 40.1196269266468448 11.2524742547010010
161 1 3.2600401779947292 4.3284501573796383 18.7481752062048024
162 1 6.7131649441034584 4.3284501573796383 18.7481752062048024
163 1 10.1662897102121903 4.3284501573796383 18.7481752062048024
164 1 13.6194144763209160 4.3284501573796383 18.7481752062048024
165 1 17.0725392424296487 4.3284501573796383 18.7481752062048024
166 1 20.5256640085383815 4.3284501573796383 18.7481752062048024
167 1 23.9787887746471107 4.3284501573796383 18.7481752062048024
168 1 27.4319135407558328 4.3284501573796383 18.7481752062048024
169 1 30.8850383068645620 4.3284501573796383 18.7481752062048024
170 1 34.3381630729732947 4.3284501573796383 18.7481752062048024
171 1 4.9866377096126993 9.7439496180759182 18.7481752062048024
172 1 8.4397624757214285 9.7439496180759182 18.7481752062048024
173 1 11.8928872418301594 9.7439496180759182 18.7481752062048024
174 1 15.3460120079388886 9.7439496180759182 18.7481752062048024
175 1 18.7991367740476178 9.7439496180759182 18.7481752062048024
176 1 22.2522615401563471 9.7439496180759182 18.7481752062048024
177 1 25.7053863062650763 9.7439496180759182 18.7481752062048024
178 1 29.1585110723738055 9.7439496180759182 18.7481752062048024
179 1 32.6116358384825347 9.7439496180759182 18.7481752062048024
180 1 36.0647606045912568 9.7439496180759182 18.7481752062048024
181 1 6.7132352412306684 15.1594490787721945 18.7481752062048024
182 1 10.1663600073393976 15.1594490787721945 18.7481752062048024
183 1 13.6194847734481286 15.1594490787721945 18.7481752062048024
184 1 17.0726095395568542 15.1594490787721945 18.7481752062048024
185 1 20.5257343056655870 15.1594490787721945 18.7481752062048024
186 1 23.9788590717743233 15.1594490787721945 18.7481752062048024
187 1 27.4319838378830525 15.1594490787721945 18.7481752062048024
188 1 30.8851086039917746 15.1594490787721945 18.7481752062048024
189 1 34.3382333701005038 15.1594490787721945 18.7481752062048024
190 1 37.7913581362092330 15.1594490787721945 18.7481752062048024
191 1 8.4398327728486375 20.5749485394684761 18.7481752062048024
192 1 11.8929575389573685 20.5749485394684761 18.7481752062048024
193 1 15.3460823050660977 20.5749485394684761 18.7481752062048024
194 1 18.7992070711748234 20.5749485394684761 18.7481752062048024
195 1 22.2523318372835561 20.5749485394684761 18.7481752062048024
196 1 25.7054566033922924 20.5749485394684761 18.7481752062048024
197 1 29.1585813695010216 20.5749485394684761 18.7481752062048024
198 1 32.6117061356097437 20.5749485394684761 18.7481752062048024
199 1 36.0648309017184658 20.5749485394684761 18.7481752062048024
200 1 39.5179556678272021 20.5749485394684761 18.7481752062048024
201 1 10.1664303044666084 25.9904480001647542 18.7481752062048024
202 1 13.6195550705753377 25.9904480001647542 18.7481752062048024
203 1 17.0726798366840669 25.9904480001647542 18.7481752062048024
204 1 20.5258046027927961 25.9904480001647542 18.7481752062048024
205 1 23.9789293689015253 25.9904480001647542 18.7481752062048024
206 1 27.4320541350102616 25.9904480001647542 18.7481752062048024
207 1 30.8851789011189908 25.9904480001647542 18.7481752062048024
208 1 34.3383036672277200 25.9904480001647542 18.7481752062048024
209 1 37.7914284333364492 25.9904480001647542 18.7481752062048024
210 1 41.2445531994451784 25.9904480001647542 18.7481752062048024
211 1 11.8930278360845794 31.4059474608610358 18.7481752062048024
212 1 15.3461526021933068 31.4059474608610358 18.7481752062048024
213 1 18.7992773683020395 31.4059474608610358 18.7481752062048024
214 1 22.2524021344107688 31.4059474608610358 18.7481752062048024
215 1 25.7055269005194980 31.4059474608610358 18.7481752062048024
216 1 29.1586516666282307 31.4059474608610358 18.7481752062048024
217 1 32.6117764327369599 31.4059474608610358 18.7481752062048024
218 1 36.0649011988456820 31.4059474608610358 18.7481752062048024
219 1 39.5180259649544183 31.4059474608610358 18.7481752062048024
220 1 42.9711507310631475 31.4059474608610358 18.7481752062048024
221 1 13.6196253677025503 36.8214469215573175 18.7481752062048024
222 1 17.0727501338112795 36.8214469215573175 18.7481752062048024
223 1 20.5258748999200051 36.8214469215573175 18.7481752062048024
224 1 23.9789996660287343 36.8214469215573175 18.7481752062048024
225 1 27.4321244321374706 36.8214469215573175 18.7481752062048024
226 1 30.8852491982462034 36.8214469215573175 18.7481752062048024
227 1 34.3383739643549291 36.8214469215573175 18.7481752062048024
228 1 37.7914987304636583 36.8214469215573175 18.7481752062048024
229 1 41.2446234965723875 36.8214469215573175 18.7481752062048024
230 1 44.6977482626811167 36.8214469215573175 18.7481752062048024
231 1 15.3462228993205176 42.2369463822535920 18.7481752062048024
232 1 18.7993476654292451 42.2369463822535920 18.7481752062048024
233 1 22.2524724315379778 42.2369463822535920 18.7481752062048024
234 1 25.7055971976467035 42.2369463822535920 18.7481752062048024
235 1 29.1587219637554362 42.2369463822535920 18.7481752062048024
236 1 32.6118467298641690 42.2369463822535920 18.7481752062048024
237 1 36.0649714959728911 42.2369463822535920 18.7481752062048024
238 1 39.5180962620816274 42.2369463822535920 18.7481752062048024
239 1 42.9712210281903495 42.2369463822535920 18.7481752062048024
240 1 46.4243457942990858 42.2369463822535920 18.7481752062048024
241 1 1.5334727073198038 2.2514110537364624 17.8778291036670005
242 1 4.9865974734285334 2.2514110537364624 17.8778291036670005
243 1 8.4397222395372644 2.2514110537364624 17.8778291036670005
244 1 11.8928470056459936 2.2514110537364624 17.8778291036670005
245 1 15.3459717717547228 2.2514110537364624 17.8778291036670005
246 1 18.7990965378634520 2.2514110537364624 17.8778291036670005
247 1 22.2522213039721848 2.2514110537364624 17.8778291036670005
248 1 25.7053460700809140 2.2514110537364624 17.8778291036670005
249 1 29.1584708361896467 2.2514110537364624 17.8778291036670005
250 1 32.6115956022983724 2.2514110537364624 17.8778291036670005
251 1 3.2600702389377734 7.6669105144327423 17.8778291036670005
252 1 6.7131950050465035 7.6669105144327423 17.8778291036670005
253 1 10.1663197711552336 7.6669105144327423 17.8778291036670005
254 1 13.6194445372639592 7.6669105144327423 17.8778291036670005
255 1 17.0725693033726884 7.6669105144327423 17.8778291036670005
256 1 20.5256940694814212 7.6669105144327423 17.8778291036670005
257 1 23.9788188355901504 7.6669105144327423 17.8778291036670005
258 1 27.4319436016988796 7.6669105144327423 17.8778291036670005
259 1 30.8850683678076123 7.6669105144327423 17.8778291036670005
260 1 34.3381931339163344 7.6669105144327423 17.8778291036670005
261 1 4.9866677705557434 13.0824099751290213 17.8778291036670005
262 1 8.4397925366644735 13.0824099751290213 17.8778291036670005
263 1 11.8929173027731991 13.0824099751290213 17.8778291036670005
264 1 15.3460420688819283 13.0824099751290213 17.8778291036670005
265 1 18.7991668349906611 13.0824099751290213 17.8778291036670005
266 1 22.2522916010993868 13.0824099751290213 17.8778291036670005
267 1 25.7054163672081195 13.0824099751290213 17.8778291036670005
268 1 29.1585411333168487 13.0824099751290213 17.8778291036670005
269 1 32.6116658994255886 13.0824099751290213 17.8778291036670005
270 1 36.0647906655343107 13.0824099751290213 17.8778291036670005
271 1 6.7132653021737134 18.4979094358253029 17.8778291036670005
272 1 10.1663900682824391 18.4979094358253029 17.8778291036670005
273 1 13.6195148343911701 18.4979094358253029 17.8778291036670005
274 1 17.0726396004998975 18.4979094358253029 17.8778291036670005
275 1 20.5257643666086302 18.4979094358253029 17.8778291036670005
276 1 23.9788891327173559 18.4979094358253029 17.8778291036670005
277 1 27.4320138988260922 18.4979094358253029 17.8778291036670005
278 1 30.8851386649348214 18.4979094358253029 17.8778291036670005
279 1 34.3382634310435506 18.4979094358253029 17.8778291036670005
280 1 37.7913881971522798 18.4979094358253029 17.8778291036670005
281 1 8.4398628337916843 23.9134088965215810 17.8778291036670005
282 1 11.8929875999004135 23.9134088965215810 17.8778291036670005
283 1 15.3461123660091410 23.9134088965215810 17.8778291036670005
284 1 18.7992371321178702 23.9134088965215810 17.8778291036670005
285 1 22.2523618982265994 23.9134088965215810 17.8778291036670005
286 1 25.7054866643353321 23.9134088965215810 17.8778291036670005
287 1 29.1586114304440649 23.9134088965215810 17.8778291036670005
288 1 32.6117361965527905 23.9134088965215810 17.8778291036670005
289 1 36.0648609626615197 23.9134088965215810 17.8778291036670005
290 1 39.5179857287702561 23.9134088965215810 17.8778291036670005
291 1 10.1664603654096535 29.3289083572178626 17.8778291036670005
292 1 13.6195851315183845 29.3289083572178626 17.8778291036670005
293 1 17.0727098976271101 29.3289083572178626 17.8778291036670005
294 1 20.5258346637358393 29.3289083572178626 17.8778291036670005
295 1 23.9789594298445721 29.3289083572178626 17.8778291036670005
296 1 27.4320841959533013 29.3289083572178626 17.8778291036670005
297 1 30.8852089620620340 29.3289083572178626 17.8778291036670005
298 1 34.3383337281707597 29.3289083572178626 17.8778291036670005
299 1 37.7914584942794960 29.3289083572178626 17.8778291036670005
300 1 41.2445832603882252 29.3289083572178626 17.8778291036670005
301 1 11.8930578970276226 34.7444078179141442 17.8778291036670005
302 1 15.3461826631363536 34.7444078179141442 17.8778291036670005
303 1 18.7993074292450792 34.7444078179141442 17.8778291036670005
304 1 22.2524321953538049 34.7444078179141442 17.8778291036670005
305 1 25.7055569614625341 34.7444078179141442 17.8778291036670005
306 1 29.1586817275712669 34.7444078179141442 17.8778291036670005
307 1 32.6118064936800067 34.7444078179141442 17.8778291036670005
308 1 36.0649312597887359 34.7444078179141442 17.8778291036670005
309 1 39.5180560258974651 34.7444078179141442 17.8778291036670005
310 1 42.9711807920061943 34.7444078179141442 17.8778291036670005
311 1 13.6196554286455918 40.1599072786104188 17.8778291036670005
312 1 17.0727801947543227 40.1599072786104188 17.8778291036670005
313 1 20.5259049608630484 40.1599072786104188 17.8778291036670005
314 1 23.9790297269717776 40.1599072786104188 17.8778291036670005
315 1 27.4321544930805103 40.1599072786104188 17.8778291036670005
316 1 30.8852792591892360 40.1599072786104188 17.8778291036670005
317 1 34.3384040252979759 40.1599072786104188 17.8778291036670005
318 1 37.7915287914066980 40.1599072786104188 17.8778291036670005
319 1 41.2446535575154343 40.1599072786104188 17.8778291036670005
320 1 44.6977783236241564 40.1599072786104188 17.8778291036670005
321 2 1.5650009463940302 3.6444307148319277 12.6663219055271998
322 2 5.0181257125027603 3.6444307148319277 12.6663219055271998
323 2 8.4712504786114859 3.6444307148319277 12.6663219055271998
324 2 11.9243752447202205 3.6444307148319277 12.6663219055271998
325 2 15.3775000108289461 3.6444307148319277 12.6663219055271998
326 2 18.8306247769376860 3.6444307148319277 12.6663219055271998
327 2 22.2837495430464152 3.6444307148319277 12.6663219055271998
328 2 25.7368743091551444 3.6444307148319277 12.6663219055271998
329 2 29.1899990752638772 3.6444307148319277 12.6663219055271998
330 2 32.6431238413725993 3.6444307148319277 12.6663219055271998
331 2 3.2915984780120002 9.0599301755282067 12.6663219055271998
332 2 6.7447232441207294 9.0599301755282067 12.6663219055271998
333 2 10.1978480102294604 9.0599301755282067 12.6663219055271998
334 2 13.6509727763381896 9.0599301755282067 12.6663219055271998
335 2 17.1040975424469153 9.0599301755282067 12.6663219055271998
336 2 20.5572223085556516 9.0599301755282067 12.6663219055271998
337 2 24.0103470746643808 9.0599301755282067 12.6663219055271998
338 2 27.4634718407731100 9.0599301755282067 12.6663219055271998
339 2 30.9165966068818427 9.0599301755282067 12.6663219055271998
340 2 34.3697213729905755 9.0599301755282067 12.6663219055271998
341 2 5.0181960096299703 14.4754296362244883 12.6663219055271998
342 2 8.4713207757387003 14.4754296362244883 12.6663219055271998
343 2 11.9244455418474296 14.4754296362244883 12.6663219055271998
344 2 15.3775703079561605 14.4754296362244883 12.6663219055271998
345 2 18.8306950740648844 14.4754296362244883 12.6663219055271998
346 2 22.2838198401736207 14.4754296362244883 12.6663219055271998
347 2 25.7369446062823499 14.4754296362244883 12.6663219055271998
348 2 29.1900693723910791 14.4754296362244883 12.6663219055271998
349 2 32.6431941384998154 14.4754296362244883 12.6663219055271998
350 2 36.0963189046085446 14.4754296362244883 12.6663219055271998
351 2 6.7447935412479385 19.8909290969207646 12.6663219055271998
352 2 10.1979183073566695 19.8909290969207646 12.6663219055271998
353 2 13.6510430734653987 19.8909290969207646 12.6663219055271998
354 2 17.1041678395741279 19.8909290969207646 12.6663219055271998
355 2 20.5572926056828571 19.8909290969207646 12.6663219055271998
356 2 24.0104173717915899 19.8909290969207646 12.6663219055271998
357 2 27.4635421379003191 19.8909290969207646 12.6663219055271998
358 2 30.9166669040090483 19.8909290969207646 12.6663219055271998
359 2 34.3697916701177846 19.8909290969207646 12.6663219055271998
360 2 37.8229164362265138 19.8909290969207646 12.6663219055271998
361 2 8.4713910728659094 25.3064285576170427 12.6663219055271998
362 2 11.9245158389746351 25.3064285576170427 12.6663219055271998
363 2 15.3776406050833643 25.3064285576170427 12.6663219055271998
364 2 18.8307653711921006 25.3064285576170427 12.6663219055271998
365 2 22.2838901373008298 25.3064285576170427 12.6663219055271998
366 2 25.7370149034095590 25.3064285576170427 12.6663219055271998
367 2 29.1901396695182882 25.3064285576170427 12.6663219055271998
368 2 32.6432644356270103 25.3064285576170427 12.6663219055271998
369 2 36.0963892017357537 25.3064285576170427 12.6663219055271998
370 2 39.5495139678444758 25.3064285576170427 12.6663219055271998
371 2 10.1979886044838803 30.7219280183133243 12.6663219055271998
372 2 13.6511133705926060 30.7219280183133243 12.6663219055271998
373 2 17.1042381367013370 30.7219280183133243 12.6663219055271998
374 2 20.5573629028100697 30.7219280183133243 12.6663219055271998
375 2 24.0104876689187989 30.7219280183133243 12.6663219055271998
376 2 27.4636124350275352 30.7219280183133243 12.6663219055271998
377 2 30.9167372011362644 30.7219280183133243 12.6663219055271998
378 2 34.3698619672449865 30.7219280183133243 12.6663219055271998
379 2 37.8229867333537300 30.7219280183133243 12.6663219055271998
380 2 41.2761114994624521 30.7219280183133243 12.6663219055271998
381 2 11.9245861361018495 36.1374274790096024 12.6663219055271998
382 2 15.3777109022105787 36.1374274790096024 12.6663219055271998
383 2 18.8308356683193097 36.1374274790096024 12.6663219055271998
384 2 22.2839604344280389 36.1374274790096024 12.6663219055271998
385 2 25.7370852005367645 36.1374274790096024 12.6663219055271998
386 2 29.1902099666455008 36.1374274790096024 12.6663219055271998
387 2 32.6433347327542336 36.1374274790096024 12.6663219055271998
388 2 36.0964594988629628 36.1374274790096024 12.6663219055271998
389 2 39.5495842649716991 36.1374274790096024 12.6663219055271998
390 2 43.0027090310804212 36.1374274790096024 12.6663219055271998
391 2 13.6511836677198168 41.5529269397058840 12.6663219055271998
392 2 17.1043084338285496 41.5529269397058840 12.6663219055271998
393 2 20.5574331999372788 41.5529269397058840 12.6663219055271998
394 2 24.0105579660460080 41.5529269397058840 12.6663219055271998
395 2 27.4636827321547372 41.5529269397058840 12.6663219055271998
396 2 30.9168074982634735 41.5529269397058840 12.6663219055271998
397 2 34.3699322643722027 41.5529269397058840 12.6663219055271998
398 2 37.8230570304809319 41.5529269397058840 12.6663219055271998
399 2 41.2761817965896611 41.5529269397058840 12.6663219055271998
400 2 44.7293065626983903 41.5529269397058840 12.6663219055271998
401 2 1.5710541604447621 0.6977046887027386 12.2272015291292959
402 2 5.0181037224117722 0.6786497183633136 12.2272015291292959
403 2 8.4712284885205023 0.6786497183633136 12.2272015291292959
404 2 11.9243532546292332 0.6786497183633136 12.2272015291292959
405 2 15.3774780207379624 0.6786497183633136 12.2272015291292959
406 2 18.8306027868466934 0.6786497183633136 12.2272015291292959
407 2 22.2837275529554226 0.6786497183633136 12.2272015291292959
408 2 25.7368523190641518 0.6786497183633136 12.2272015291292959
409 2 29.1899770851728810 0.6786497183633136 12.2272015291292959
410 2 32.6431018512816138 0.6786497183633136 12.2272015291292959
411 2 3.2915764879210103 6.0941491790595883 12.2272015291292959
412 2 6.7447012540297404 6.0941491790595883 12.2272015291292959
413 2 10.1978260201384696 6.0941491790595883 12.2272015291292959
414 2 13.6509507862472041 6.0941491790595883 12.2272015291292959
415 2 17.1040755523559334 6.0941491790595883 12.2272015291292959
416 2 20.5572003184646626 6.0941491790595883 12.2272015291292959
417 2 24.0103250845733918 6.0941491790595883 12.2272015291292959
418 2 27.4634498506821210 6.0941491790595883 12.2272015291292959
419 2 30.9165746167908502 6.0941491790595883 12.2272015291292959
420 2 34.3696993828995829 6.0941491790595883 12.2272015291292959
421 2 5.0181740195389803 11.5096486397558682 12.2272015291292959
422 2 8.4712987856477113 11.5096486397558682 12.2272015291292959
423 2 11.9244235517564405 11.5096486397558682 12.2272015291292959
424 2 15.3775483178651715 11.5096486397558682 12.2272015291292959
425 2 18.8306730839738989 11.5096486397558682 12.2272015291292959
426 2 22.2837978500826281 11.5096486397558682 12.2272015291292959
427 2 25.7369226161913573 11.5096486397558682 12.2272015291292959
428 2 29.1900473823000866 11.5096486397558682 12.2272015291292959
429 2 32.6431721484088158 11.5096486397558682 12.2272015291292959
430 2 36.0962969145175521 11.5096486397558682 12.2272015291292959
431 2 6.7447715511569513 16.9251481004521480 12.2272015291292959
432 2 10.1978963172656805 16.9251481004521480 12.2272015291292959
433 2 13.6510210833744097 16.9251481004521480 12.2272015291292959
434 2 17.1041458494831424 16.9251481004521480 12.2272015291292959
435 2 20.5572706155918716 16.9251481004521480 12.2272015291292959
436 2 24.0103953817005973 16.9251481004521480 12.2272015291292959
437 2 27.4635201478093265 16.9251481004521480 12.2272015291292959
438 2 30.9166449139180557 16.9251481004521480 12.2272015291292959
439 2 34.3697696800267920 16.9251481004521480 12.2272015291292959
440 2 37.8228944461355212 16.9251481004521480 12.2272015291292959
441 2 8.4713690827749222 22.3406475611484332 12.2272015291292959
442 2 11.9244938488836532 22.3406475611484332 12.2272015291292959
443 2 15.3776186149923824 22.3406475611484332 12.2272015291292959
444 2 18.8307433811011080 22.3406475611484332 12.2272015291292959
445 2 22.2838681472098408 22.3406475611484332 12.2272015291292959
446 2 25.7369929133185700 22.3406475611484332 12.2272015291292959
447 2 29.1901176794272992 22.3406475611484332 12.2272015291292959
448 2 32.6432424455360248 22.3406475611484332 12.2272015291292959
449 2 36.0963672116447540 22.3406475611484332 12.2272015291292959
450 2 39.5494919777534903 22.3406475611484332 12.2272015291292959
451 2 10.1979666143928913 27.7561470218447113 12.2272015291292959
452 2 13.6510913805016223 27.7561470218447113 12.2272015291292959
453 2 17.1042161466103515 27.7561470218447113 12.2272015291292959
454 2 20.5573409127190843 27.7561470218447113 12.2272015291292959
455 2 24.0104656788278135 27.7561470218447113 12.2272015291292959
456 2 27.4635904449365391 27.7561470218447113 12.2272015291292959
457 2 30.9167152110452683 27.7561470218447113 12.2272015291292959
458 2 34.3698399771540011 27.7561470218447113 12.2272015291292959
459 2 37.8229647432627303 27.7561470218447113 12.2272015291292959
460 2 41.2760895093714595 27.7561470218447113 12.2272015291292959
461 2 11.9245641460108622 33.1716464825409929 12.2272015291292959
462 2 15.3776889121195932 33.1716464825409929 12.2272015291292959
463 2 18.8308136782283242 33.1716464825409929 12.2272015291292959
464 2 22.2839384443370534 33.1716464825409929 12.2272015291292959
465 2 25.7370632104457790 33.1716464825409929 12.2272015291292959
466 2 29.1901879765545047 33.1716464825409929 12.2272015291292959
467 2 32.6433127426632339 33.1716464825409929 12.2272015291292959
468 2 36.0964375087719631 33.1716464825409929 12.2272015291292959
469 2 39.5495622748806994 33.1716464825409929 12.2272015291292959
470 2 43.0026870409894357 33.1716464825409929 12.2272015291292959
471 2 13.6511616776288278 38.5871459432372745 12.2272015291292959
472 2 17.1042864437375641 38.5871459432372745 12.2272015291292959
473 2 20.5574112098462933 38.5871459432372745 12.2272015291292959
474 2 24.0105359759550225 38.5871459432372745 12.2272015291292959
475 2 27.4636607420637517 38.5871459432372745 12.2272015291292959
476 2 30.9167855081724809 38.5871459432372745 12.2272015291292959
477 2 34.3699102742812030 38.5871459432372745 12.2272015291292959
478 2 37.8230350403899322 38.5871459432372745 12.2272015291292959
479 2 41.2761598064986615 38.5871459432372745 12.2272015291292959
480 2 44.7292845726074049 38.5871459432372745 12.2272015291292959
481 2 3.2915588801019382 2.9147786168274936 10.6919961096620995
482 2 6.7446836462106683 2.9147786168274936 10.6919961096620995
483 2 10.1978084123193984 2.9147786168274936 10.6919961096620995
484 2 13.6509331784281276 2.9147786168274936 10.6919961096620995
485 2 17.1040579445368586 2.9147786168274936 10.6919961096620995
486 2 20.5571827106455878 2.9147786168274936 10.6919961096620995
487 2 24.0103074767543205 2.9147786168274936 10.6919961096620995
488 2 27.4634322428630497 2.9147786168274936 10.6919961096620995
489 2 30.9165570089717789 2.9147786168274936 10.6919961096620995
490 2 34.3696817750805081 2.9147786168274936 10.6919961096620995
491 2 5.0181564117199073 8.3302780775237721 10.6919961096620995
492 2 8.4712811778286383 8.3302780775237721 10.6919961096620995
493 2 11.9244059439373693 8.3302780775237721 10.6919961096620995
494 2 15.3775307100460985 8.3302780775237721 10.6919961096620995
495 2 18.8306554761548242 8.3302780775237721 10.6919961096620995
496 2 22.2837802422635534 8.3302780775237721 10.6919961096620995
497 2 25.7369050083722861 8.3302780775237721 10.6919961096620995
498 2 29.1900297744810153 8.3302780775237721 10.6919961096620995
499 2 32.6431545405897481 8.3302780775237721 10.6919961096620995
500 2 36.0962793066984773 8.3302780775237721 10.6919961096620995
501 2 6.7447539433378783 13.7457775382200538 10.6919961096620995
502 2 10.1978787094466092 13.7457775382200538 10.6919961096620995
503 2 13.6510034755553384 13.7457775382200538 10.6919961096620995
504 2 17.1041282416640676 13.7457775382200538 10.6919961096620995
505 2 20.5572530077728004 13.7457775382200538 10.6919961096620995
506 2 24.0103777738815296 13.7457775382200538 10.6919961096620995
507 2 27.4635025399902624 13.7457775382200538 10.6919961096620995
508 2 30.9166273060989916 13.7457775382200538 10.6919961096620995
509 2 34.3697520722077172 13.7457775382200538 10.6919961096620995
510 2 37.8228768383164393 13.7457775382200538 10.6919961096620995
511 2 8.4713514749558492 19.1612769989163318 10.6919961096620995
512 2 11.9244762410645784 19.1612769989163318 10.6919961096620995
513 2 15.3776010071733094 19.1612769989163318 10.6919961096620995
514 2 18.8307257732820403 19.1612769989163318 10.6919961096620995
515 2 22.2838505393907695 19.1612769989163318 10.6919961096620995
516 2 25.7369753054994987 19.1612769989163318 10.6919961096620995
517 2 29.1901000716082279 19.1612769989163318 10.6919961096620995
518 2 32.6432248377169572 19.1612769989163318 10.6919961096620995
519 2 36.0963496038256864 19.1612769989163318 10.6919961096620995
520 2 39.5494743699344156 19.1612769989163318 10.6919961096620995
521 2 10.1979490065738148 24.5767764596126135 10.6919961096620995
522 2 13.6510737726825493 24.5767764596126135 10.6919961096620995
523 2 17.1041985387912803 24.5767764596126135 10.6919961096620995
524 2 20.5573233049000095 24.5767764596126135 10.6919961096620995
525 2 24.0104480710087387 24.5767764596126135 10.6919961096620995
526 2 27.4635728371174679 24.5767764596126135 10.6919961096620995
527 2 30.9166976032262006 24.5767764596126135 10.6919961096620995
528 2 34.3698223693349334 24.5767764596126135 10.6919961096620995
529 2 37.8229471354436626 24.5767764596126135 10.6919961096620995
530 2 41.2760719015523989 24.5767764596126135 10.6919961096620995
531 2 11.9245465381917892 29.9922759203088916 10.6919961096620995
532 2 15.3776713043005202 29.9922759203088916 10.6919961096620995
533 2 18.8307960704092530 29.9922759203088916 10.6919961096620995
534 2 22.2839208365179786 29.9922759203088916 10.6919961096620995
535 2 25.7370456026267078 29.9922759203088916 10.6919961096620995
536 2 29.1901703687354370 29.9922759203088916 10.6919961096620995
537 2 32.6432951348441733 29.9922759203088916 10.6919961096620995
538 2 36.0964199009529025 29.9922759203088916 10.6919961096620995
539 2 39.5495446670616317 29.9922759203088916 10.6919961096620995
540 2 43.0026694331703681 29.9922759203088916 10.6919961096620995
541 2 13.6511440698097548 35.4077753810051732 10.6919961096620995
542 2 17.1042688359184893 35.4077753810051732 10.6919961096620995
543 2 20.5573936020272185 35.4077753810051732 10.6919961096620995
544 2 24.0105183681359478 35.4077753810051732 10.6919961096620995
545 2 27.4636431342446770 35.4077753810051732 10.6919961096620995
546 2 30.9167679003534062 35.4077753810051732 10.6919961096620995
547 2 34.3698926664621425 35.4077753810051732 10.6919961096620995
548 2 37.8230174325708717 35.4077753810051732 10.6919961096620995
549 2 41.2761421986796009 35.4077753810051732 10.6919961096620995
550 2 44.7292669647883372 35.4077753810051732 10.6919961096620995
551 2 15.3777416014277293 40.8232748417014548 10.6919961096620995
552 2 18.8308663675364585 40.8232748417014548 10.6919961096620995
553 2 22.2839911336451877 40.8232748417014548 10.6919961096620995
554 2 25.7371158997539169 40.8232748417014548 10.6919961096620995
555 2 29.1902406658626496 40.8232748417014548 10.6919961096620995
556 2 32.6433654319713753 40.8232748417014548 10.6919961096620995
557 2 36.0964901980801116 40.8232748417014548 10.6919961096620995
558 2 39.5496149641888337 40.8232748417014548 10.6919961096620995
559 2 43.0027397302975700 40.8232748417014548 10.6919961096620995
560 2 46.4558644964062921 40.8232748417014548 10.6919961096620995
561 2 1.5334767223351038 3.6248022423747437 19.3086533512413006
562 2 4.9866014884438341 3.6248022423747437 19.3086533512413006
563 2 8.4397262545525642 3.6248022423747437 19.3086533512413006
564 2 11.8928510206612952 3.6248022423747437 19.3086533512413006
565 2 15.3459757867700279 3.6248022423747437 19.3086533512413006
566 2 18.7991005528787554 3.6248022423747437 19.3086533512413006
567 2 22.2522253189874846 3.6248022423747437 19.3086533512413006
568 2 25.7053500850962173 3.6248022423747437 19.3086533512413006
569 2 29.1584748512049430 3.6248022423747437 19.3086533512413006
570 2 32.6115996173136722 3.6248022423747437 19.3086533512413006
571 2 3.2600742539530736 9.0403017030710231 19.3086533512413006
572 2 6.7131990200618041 9.0403017030710231 19.3086533512413006
573 2 10.1663237861705333 9.0403017030710231 19.3086533512413006
574 2 13.6194485522792643 9.0403017030710231 19.3086533512413006
575 2 17.0725733183879953 9.0403017030710231 19.3086533512413006
576 2 20.5256980844967245 9.0403017030710231 19.3086533512413006
577 2 23.9788228506054537 9.0403017030710231 19.3086533512413006
578 2 27.4319476167141865 9.0403017030710231 19.3086533512413006
579 2 30.8850723828229121 9.0403017030710231 19.3086533512413006
580 2 34.3381971489316413 9.0403017030710231 19.3086533512413006
581 2 4.9866717855710441 14.4558011637673030 19.3086533512413006
582 2 8.4397965516797733 14.4558011637673030 19.3086533512413006
583 2 11.8929213177885025 14.4558011637673030 19.3086533512413006
584 2 15.3460460838972352 14.4558011637673030 19.3086533512413006
585 2 18.7991708500059644 14.4558011637673030 19.3086533512413006
586 2 22.2522956161146936 14.4558011637673030 19.3086533512413006
587 2 25.7054203822234228 14.4558011637673030 19.3086533512413006
588 2 29.1585451483321556 14.4558011637673030 19.3086533512413006
589 2 32.6116699144408813 14.4558011637673030 19.3086533512413006
590 2 36.0647946805496105 14.4558011637673030 19.3086533512413006
591 2 6.7132693171890141 19.8713006244635828 19.3086533512413006
592 2 10.1663940832977442 19.8713006244635828 19.3086533512413006
593 2 13.6195188494064734 19.8713006244635828 19.3086533512413006
594 2 17.0726436155152044 19.8713006244635828 19.3086533512413006
595 2 20.5257683816239371 19.8713006244635828 19.3086533512413006
596 2 23.9788931477326628 19.8713006244635828 19.3086533512413006
597 2 27.4320179138413920 19.8713006244635828 19.3086533512413006
598 2 30.8851426799501283 19.8713006244635828 19.3086533512413006
599 2 34.3382674460588504 19.8713006244635828 19.3086533512413006
600 2 37.7913922121675796 19.8713006244635828 19.3086533512413006
601 2 8.4398668488069841 25.2868000851598644 19.3086533512413006
602 2 11.8929916149157116 25.2868000851598644 19.3086533512413006
603 2 15.3461163810244443 25.2868000851598644 19.3086533512413006
604 2 18.7992411471331735 25.2868000851598644 19.3086533512413006
605 2 22.2523659132419098 25.2868000851598644 19.3086533512413006
606 2 25.7054906793506355 25.2868000851598644 19.3086533512413006
607 2 29.1586154454593647 25.2868000851598644 19.3086533512413006
608 2 32.6117402115680974 25.2868000851598644 19.3086533512413006
609 2 36.0648649776768195 25.2868000851598644 19.3086533512413006
610 2 39.5179897437855487 25.2868000851598644 19.3086533512413006
611 2 10.1664643804249497 30.7022995458561425 19.3086533512413006
612 2 13.6195891465336842 30.7022995458561425 19.3086533512413006
613 2 17.0727139126424134 30.7022995458561425 19.3086533512413006
614 2 20.5258386787511427 30.7022995458561425 19.3086533512413006
615 2 23.9789634448598719 30.7022995458561425 19.3086533512413006
616 2 27.4320882109686011 30.7022995458561425 19.3086533512413006
617 2 30.8852129770773303 30.7022995458561425 19.3086533512413006
618 2 34.3383377431860595 30.7022995458561425 19.3086533512413006
619 2 37.7914625092947958 30.7022995458561425 19.3086533512413006
620 2 41.2445872754035179 30.7022995458561425 19.3086533512413006
621 2 11.8930619120429242 36.1177990065524241 19.3086533512413006
622 2 15.3461866781516516 36.1177990065524241 19.3086533512413006
623 2 18.7993114442603826 36.1177990065524241 19.3086533512413006
624 2 22.2524362103691153 36.1177990065524241 19.3086533512413006
625 2 25.7055609764778410 36.1177990065524241 19.3086533512413006
626 2 29.1586857425865702 36.1177990065524241 19.3086533512413006
627 2 32.6118105086953065 36.1177990065524241 19.3086533512413006
628 2 36.0649352748040357 36.1177990065524241 19.3086533512413006
629 2 39.5180600409127578 36.1177990065524241 19.3086533512413006
630 2 42.9711848070214941 36.1177990065524241 19.3086533512413006
631 2 13.6196594436608915 41.5332984672487058 19.3086533512413006
632 2 17.0727842097696225 41.5332984672487058 19.3086533512413006
633 2 20.5259089758783553 41.5332984672487058 19.3086533512413006
634 2 23.9790337419870880 41.5332984672487058 19.3086533512413006
635 2 27.4321585080958172 41.5332984672487058 19.3086533512413006
636 2 30.8852832742045429 41.5332984672487058 19.3086533512413006
637 2 34.3384080403132685 41.5332984672487058 19.3086533512413006
638 2 37.7915328064220049 41.5332984672487058 19.3086533512413006
639 2 41.2446575725307270 41.5332984672487058 19.3086533512413006
640 2 44.6977823386394633 41.5332984672487058 19.3086533512413006
641 2 1.5334591143450889 0.4454316809104015 17.7734479332698996
642 2 4.9865838804538196 0.4454316809104015 17.7734479332698996
643 2 8.4397086465625488 0.4454316809104015 17.7734479332698996
644 2 11.8928334126712798 0.4454316809104015 17.7734479332698996
645 2 15.3459581787800126 0.4454316809104015 17.7734479332698996
646 2 18.7990829448887382 0.4454316809104015 17.7734479332698996
647 2 22.2522077109974674 0.4454316809104015 17.7734479332698996
648 2 25.7053324771062002 0.4454316809104015 17.7734479332698996
649 2 29.1584572432149258 0.4454316809104015 17.7734479332698996
650 2 32.6115820093236550 0.4454316809104015 17.7734479332698996
651 2 3.2600566459630587 5.8609311416066818 17.7734479332698996
652 2 6.7131814120717888 5.8609311416066818 17.7734479332698996
653 2 10.1663061781805180 5.8609311416066818 17.7734479332698996
654 2 13.6194309442892489 5.8609311416066818 17.7734479332698996
655 2 17.0725557103979817 5.8609311416066818 17.7734479332698996
656 2 20.5256804765067109 5.8609311416066818 17.7734479332698996
657 2 23.9788052426154401 5.8609311416066818 17.7734479332698996
658 2 27.4319300087241729 5.8609311416066818 17.7734479332698996
659 2 30.8850547748328985 5.8609311416066818 17.7734479332698996
660 2 34.3381795409416242 5.8609311416066818 17.7734479332698996
661 2 4.9866541775810287 11.2764306023029608 17.7734479332698996
662 2 8.4397789436897597 11.2764306023029608 17.7734479332698996
663 2 11.8929037097984889 11.2764306023029608 17.7734479332698996
664 2 15.3460284759072181 11.2764306023029608 17.7734479332698996
665 2 18.7991532420159508 11.2764306023029608 17.7734479332698996
666 2 22.2522780081246800 11.2764306023029608 17.7734479332698996
667 2 25.7054027742334092 11.2764306023029608 17.7734479332698996
668 2 29.1585275403421420 11.2764306023029608 17.7734479332698996
669 2 32.6116523064508641 11.2764306023029608 17.7734479332698996
670 2 36.0647770725595933 11.2764306023029608 17.7734479332698996
671 2 6.7132517091989987 16.6919300629992406 17.7734479332698996
672 2 10.1663764753077288 16.6919300629992406 17.7734479332698996
673 2 13.6195012414164580 16.6919300629992406 17.7734479332698996
674 2 17.0726260075251872 16.6919300629992406 17.7734479332698996
675 2 20.5257507736339235 16.6919300629992406 17.7734479332698996
676 2 23.9788755397426492 16.6919300629992406 17.7734479332698996
677 2 27.4320003058513784 16.6919300629992406 17.7734479332698996
678 2 30.8851250719601076 16.6919300629992406 17.7734479332698996
679 2 34.3382498380688332 16.6919300629992406 17.7734479332698996
680 2 37.7913746041775624 16.6919300629992406 17.7734479332698996
681 2 8.4398492408169687 22.1074295236955187 17.7734479332698996
682 2 11.8929740069256979 22.1074295236955187 17.7734479332698996
683 2 15.3460987730344272 22.1074295236955187 17.7734479332698996
684 2 18.7992235391431599 22.1074295236955187 17.7734479332698996
685 2 22.2523483052518891 22.1074295236955187 17.7734479332698996
686 2 25.7054730713606183 22.1074295236955187 17.7734479332698996
687 2 29.1585978374693475 22.1074295236955187 17.7734479332698996
688 2 32.6117226035780803 22.1074295236955187 17.7734479332698996
689 2 36.0648473696868095 22.1074295236955187 17.7734479332698996
690 2 39.5179721357955316 22.1074295236955187 17.7734479332698996
691 2 10.1664467724349343 27.5229289843918004 17.7734479332698996
692 2 13.6195715385436689 27.5229289843918004 17.7734479332698996
693 2 17.0726963046523963 27.5229289843918004 17.7734479332698996
694 2 20.5258210707611291 27.5229289843918004 17.7734479332698996
695 2 23.9789458368698618 27.5229289843918004 17.7734479332698996
696 2 27.4320706029785910 27.5229289843918004 17.7734479332698996
697 2 30.8851953690873202 27.5229289843918004 17.7734479332698996
698 2 34.3383201351960494 27.5229289843918004 17.7734479332698996
699 2 37.7914449013047786 27.5229289843918004 17.7734479332698996
700 2 41.2445696674134936 27.5229289843918004 17.7734479332698996
701 2 11.8930443040529088 32.9384284450880784 17.7734479332698996
702 2 15.3461690701616398 32.9384284450880784 17.7734479332698996
703 2 18.7992938362703690 32.9384284450880784 17.7734479332698996
704 2 22.2524186023791017 32.9384284450880784 17.7734479332698996
705 2 25.7055433684878309 32.9384284450880784 17.7734479332698996
706 2 29.1586681345965602 32.9384284450880784 17.7734479332698996
707 2 32.6117929007052894 32.9384284450880784 17.7734479332698996
708 2 36.0649176668140186 32.9384284450880784 17.7734479332698996
709 2 39.5180424329227549 32.9384284450880784 17.7734479332698996
710 2 42.9711671990314699 32.9384284450880784 17.7734479332698996
711 2 13.6196418356708779 38.3539279057843601 17.7734479332698996
712 2 17.0727666017796089 38.3539279057843601 17.7734479332698996
713 2 20.5258913678883381 38.3539279057843601 17.7734479332698996
714 2 23.9790161339970709 38.3539279057843601 17.7734479332698996
715 2 27.4321409001058001 38.3539279057843601 17.7734479332698996
716 2 30.8852656662145293 38.3539279057843601 17.7734479332698996
717 2 34.3383904323232585 38.3539279057843601 17.7734479332698996
718 2 37.7915151984319948 38.3539279057843601 17.7734479332698996
719 2 41.2446399645407098 38.3539279057843601 17.7734479332698996
720 2 44.6977647306494390 38.3539279057843601 17.7734479332698996
721 2 3.2600346560520821 2.8951501451497648 17.3343275544965998
722 2 6.7131594221608122 2.8951501451497648 17.3343275544965998
723 2 10.1662841882695432 2.8951501451497648 17.3343275544965998
724 2 13.6194089543782724 2.8951501451497648 17.3343275544965998
725 2 17.0725337204869980 2.8951501451497648 17.3343275544965998
726 2 20.5256584865957308 2.8951501451497648 17.3343275544965998
727 2 23.9787832527044600 2.8951501451497648 17.3343275544965998
728 2 27.4319080188131892 2.8951501451497648 17.3343275544965998
729 2 30.8850327849219219 2.8951501451497648 17.3343275544965998
730 2 34.3381575510306547 2.8951501451497648 17.3343275544965998
731 2 4.9866321876700521 8.3106496058460433 17.3343275544965998
732 2 8.4397569537787831 8.3106496058460433 17.3343275544965998
733 2 11.8928817198875123 8.3106496058460433 17.3343275544965998
734 2 15.3460064859962415 8.3106496058460433 17.3343275544965998
735 2 18.7991312521049707 8.3106496058460433 17.3343275544965998
736 2 22.2522560182136999 8.3106496058460433 17.3343275544965998
737 2 25.7053807843224291 8.3106496058460433 17.3343275544965998
738 2 29.1585055504311583 8.3106496058460433 17.3343275544965998
739 2 32.6116303165398946 8.3106496058460433 17.3343275544965998
740 2 36.0647550826486238 8.3106496058460433 17.3343275544965998
741 2 6.7132297192880221 13.7261490665423249 17.3343275544965998
742 2 10.1663544853967522 13.7261490665423249 17.3343275544965998
743 2 13.6194792515054814 13.7261490665423249 17.3343275544965998
744 2 17.0726040176142106 13.7261490665423249 17.3343275544965998
745 2 20.5257287837229434 13.7261490665423249 17.3343275544965998
746 2 23.9788535498316726 13.7261490665423249 17.3343275544965998
747 2 27.4319783159404018 13.7261490665423249 17.3343275544965998
748 2 30.8851030820491310 13.7261490665423249 17.3343275544965998
749 2 34.3382278481578638 13.7261490665423249 17.3343275544965998
750 2 37.7913526142665930 13.7261490665423249 17.3343275544965998
751 2 8.4398272509059922 19.1416485272386048 17.3343275544965998
752 2 11.8929520170147214 19.1416485272386048 17.3343275544965998
753 2 15.3460767831234524 19.1416485272386048 17.3343275544965998
754 2 18.7992015492321798 19.1416485272386048 17.3343275544965998
755 2 22.2523263153409090 19.1416485272386048 17.3343275544965998
756 2 25.7054510814496382 19.1416485272386048 17.3343275544965998
757 2 29.1585758475583674 19.1416485272386048 17.3343275544965998
758 2 32.6117006136670966 19.1416485272386048 17.3343275544965998
759 2 36.0648253797758258 19.1416485272386048 17.3343275544965998
760 2 39.5179501458845621 19.1416485272386048 17.3343275544965998
761 2 10.1664247825239613 24.5571479879348828 17.3343275544965998
762 2 13.6195495486326923 24.5571479879348828 17.3343275544965998
763 2 17.0726743147414268 24.5571479879348828 17.3343275544965998
764 2 20.5257990808501525 24.5571479879348828 17.3343275544965998
765 2 23.9789238469588781 24.5571479879348828 17.3343275544965998
766 2 27.4320486130676109 24.5571479879348828 17.3343275544965998
767 2 30.8851733791763401 24.5571479879348828 17.3343275544965998
768 2 34.3382981452850728 24.5571479879348828 17.3343275544965998
769 2 37.7914229113938021 24.5571479879348828 17.3343275544965998
770 2 41.2445476775025242 24.5571479879348828 17.3343275544965998
771 2 11.8930223141419322 29.9726474486311609 17.3343275544965998
772 2 15.3461470802506632 29.9726474486311609 17.3343275544965998
773 2 18.7992718463593924 29.9726474486311609 17.3343275544965998
774 2 22.2523966124681181 29.9726474486311609 17.3343275544965998
775 2 25.7055213785768473 29.9726474486311609 17.3343275544965998
776 2 29.1586461446855765 29.9726474486311609 17.3343275544965998
777 2 32.6117709107943128 29.9726474486311609 17.3343275544965998
778 2 36.0648956769030420 29.9726474486311609 17.3343275544965998
779 2 39.5180204430117712 29.9726474486311609 17.3343275544965998
780 2 42.9711452091204933 29.9726474486311609 17.3343275544965998
781 2 13.6196198457598996 35.3881469093274390 17.3343275544965998
782 2 17.0727446118686288 35.3881469093274390 17.3343275544965998
783 2 20.5258693779773580 35.3881469093274390 17.3343275544965998
784 2 23.9789941440860943 35.3881469093274390 17.3343275544965998
785 2 27.4321189101948200 35.3881469093274390 17.3343275544965998
786 2 30.8852436763035492 35.3881469093274390 17.3343275544965998
787 2 34.3383684424122748 35.3881469093274390 17.3343275544965998
788 2 37.7914932085210040 35.3881469093274390 17.3343275544965998
789 2 41.2446179746297332 35.3881469093274390 17.3343275544965998
790 2 44.6977427407384624 35.3881469093274390 17.3343275544965998
791 2 15.3462173773778723 40.8036463700237206 17.3343275544965998
792 2 18.7993421434865979 40.8036463700237206 17.3343275544965998
793 2 22.2524669095953271 40.8036463700237206 17.3343275544965998
794 2 25.7055916757040634 40.8036463700237206 17.3343275544965998
795 2 29.1587164418127891 40.8036463700237206 17.3343275544965998
796 2 32.6118412079215148 40.8036463700237206 17.3343275544965998
797 2 36.0649659740302440 40.8036463700237206 17.3343275544965998
798 2 39.5180907401389803 40.8036463700237206 17.3343275544965998
799 2 42.9712155062477024 40.8036463700237206 17.3343275544965998
800 2 46.4243402723564316 40.8036463700237206 17.3343275544965998
