#---------------------------------------------
#    2D Ga2O3
#    G. J. Gonzalez-Loera
#    2026, June
#    This is the band structure calculation of Ga2O3 Sist 2
#--------------------------------------------

SystemName       Ga2O3 monolayer
SystemLabel      Ga2O3-GGA-Bands

NumberOfAtoms    5
NumberOfSpecies  2
%block ChemicalSpeciesLabel
    1    8     O-gga
    2    31    Ga-gga-3d
%endblock ChemicalSpeciesLabel

#--------------------------------------------
#  Relaxed Structure (from STRUCT_OUT)
#--------------------------------------------
LatticeConstant 1.0 Ang
%block LatticeVectors
      3.147996932       0.016936913       0.000000000
     -0.055005939       5.524688550       0.000000000
      0.000000000       0.000000000      21.701095348
%endblock LatticeVectors

AtomicCoordinatesFormat Fractional
%block AtomicCoordinatesAndAtomicSpecies
      0.057614879       0.050128019       0.527226660    2
      0.560165526       0.478776568       0.562234232    2
      0.058892040       0.324183644       0.597372633    1
      0.557871280       0.819383276       0.546954968    1
      0.558114079       0.238008103       0.491387125    1
%endblock AtomicCoordinatesAndAtomicSpecies

#-----------------------------------------------------------
#  DFT  Control
#-----------------------------------------------------------
PAO.BasisSize      DZP
PAO.SplitNorm      0.15
PAO.EnergyShift    0.075 eV
XC.Functional      GGA
XC.Authors         PBE
MaxSCFIterations   150
MeshCutoff         500 Ry
DM.Tolerance       1.00E-5
DM.MixingWeight     0.2
DM.UseSaveDM       .False.
SolutionMethod     diagon

#-----------------------------------------------------------
#  K-sampling over the Brillouin zone (SCF)
#-----------------------------------------------------------
%block kgrid_Monkhorst_Pack
24      0       0       0.0
0       14      0       0.0
0       0       1       0.0
%endblock kgrid_Monkhorst_Pack

#-----------------------------------------------------------
#  Bands
#-----------------------------------------------------------
BandLinesScale ReciprocalLatticeVectors
%block BandLines
1                0.00000             0.00000             0.0     \Gamma
100              0.50000             0.00000             0.0     X
100              0.50000             0.50000             0.0     R
100              0.00000             0.50000             0.0     Y
100              0.00000             0.00000             0.0     \Gamma
%endblock BandLines

#-----------------------------------------------------------
#  K-sampling over the Brillouin zone (PDOS)
#-----------------------------------------------------------
%block PDOS.kgrid_Monkhorst_Pack
60              0             0       0.0
0               35            0       0.0
0               0             1       0.0
%endblock PDOS.kgrid_Monkhorst_Pack

#-----------------------------------------------------------
#  Projected Density of states
#-----------------------------------------------------------
%block ProjectedDensityOfStates
-10.0   10.000   0.05    1000 eV
%endblock ProjectedDensityOfStates
