generated by phonopy
   1.0
    69.0624953221745983    0.0000000000000000    0.0000000000000000
    34.5319506323593970  108.3099892139256042    0.0000000000000000
     0.0000000000000000    0.0000000000000000   30.0000000000000000
Ga O
1600 2400
Direct
  0.0278644208023580  0.0395916372750065  0.4034273452249333
  0.0778644208023580  0.0395916372750065  0.4040940118915999
  0.1278644208023580  0.0395916372750065  0.4040940118915999
  0.1778644208023580  0.0395916372750065  0.4040940118915999
  0.2278644208023580  0.0395916372750065  0.4040940118915999
  0.2778644208023581  0.0395916372750065  0.4040940118915999
  0.3278644208023581  0.0395916372750065  0.4040940118915999
  0.3778644208023581  0.0395916372750065  0.4040940118915999
  0.4278644208023580  0.0395916372750065  0.4040940118915999
  0.4778644208023579  0.0395916372750065  0.4040940118915999
  0.5278644208023578  0.0395916372750065  0.4040940118915999
  0.5778644208023580  0.0395916372750065  0.4040940118915999
  0.6278644208023579  0.0395916372750065  0.4040940118915999
  0.6778644208023580  0.0395916372750065  0.4040940118915999
  0.7278644208023579  0.0395916372750065  0.4040940118915999
  0.7778644208023580  0.0395916372750065  0.4040940118915999
  0.8278644208023580  0.0395916372750065  0.4040940118915999
  0.8778644208023580  0.0395916372750065  0.4040940118915999
  0.9278644208023581  0.0395916372750065  0.4040940118915999
  0.9778644208023581  0.0395916372750065  0.4040940118915999
  0.0278644208023580  0.0895916372750065  0.4040940118915999
  0.0778644208023580  0.0895916372750065  0.4040940118915999
  0.1278644208023580  0.0895916372750065  0.4040940118915999
  0.1778644208023580  0.0895916372750065  0.4040940118915999
  0.2278644208023580  0.0895916372750065  0.4040940118915999
  0.2778644208023580  0.0895916372750065  0.4040940118915999
  0.3278644208023580  0.0895916372750065  0.4040940118915999
  0.3778644208023580  0.0895916372750065  0.4040940118915999
  0.4278644208023580  0.0895916372750065  0.4040940118915999
  0.4778644208023579  0.0895916372750065  0.4040940118915999
  0.5278644208023578  0.0895916372750065  0.4040940118915999
  0.5778644208023580  0.0895916372750065  0.4040940118915999
  0.6278644208023579  0.0895916372750065  0.4040940118915999
  0.6778644208023580  0.0895916372750065  0.4040940118915999
  0.7278644208023579  0.0895916372750065  0.4040940118915999
  0.7778644208023580  0.0895916372750065  0.4040940118915999
  0.8278644208023580  0.0895916372750065  0.4040940118915999
  0.8778644208023580  0.0895916372750065  0.4040940118915999
  0.9278644208023581  0.0895916372750065  0.4040940118915999
  0.9778644208023580  0.0895916372750065  0.4040940118915999
  0.0278644208023580  0.1395916372750065  0.4040940118915999
  0.0778644208023580  0.1395916372750065  0.4040940118915999
  0.1278644208023580  0.1395916372750065  0.4040940118915999
  0.1778644208023581  0.1395916372750065  0.4040940118915999
  0.2278644208023581  0.1395916372750065  0.4040940118915999
  0.2778644208023580  0.1395916372750065  0.4040940118915999
  0.3278644208023580  0.1395916372750065  0.4040940118915999
  0.3778644208023580  0.1395916372750065  0.4040940118915999
  0.4278644208023580  0.1395916372750065  0.4040940118915999
  0.4778644208023579  0.1395916372750065  0.4040940118915999
  0.5278644208023580  0.1395916372750065  0.4040940118915999
  0.5778644208023580  0.1395916372750065  0.4040940118915999
  0.6278644208023580  0.1395916372750065  0.4040940118915999
  0.6778644208023580  0.1395916372750065  0.4040940118915999
  0.7278644208023580  0.1395916372750065  0.4040940118915999
  0.7778644208023580  0.1395916372750065  0.4040940118915999
  0.8278644208023581  0.1395916372750065  0.4040940118915999
  0.8778644208023580  0.1395916372750065  0.4040940118915999
  0.9278644208023581  0.1395916372750065  0.4040940118915999
  0.9778644208023581  0.1395916372750065  0.4040940118915999
  0.0278644208023580  0.1895916372750065  0.4040940118915999
  0.0778644208023580  0.1895916372750065  0.4040940118915999
  0.1278644208023580  0.1895916372750065  0.4040940118915999
  0.1778644208023580  0.1895916372750065  0.4040940118915999
  0.2278644208023580  0.1895916372750065  0.4040940118915999
  0.2778644208023580  0.1895916372750065  0.4040940118915999
  0.3278644208023580  0.1895916372750065  0.4040940118915999
  0.3778644208023581  0.1895916372750065  0.4040940118915999
  0.4278644208023580  0.1895916372750065  0.4040940118915999
  0.4778644208023580  0.1895916372750065  0.4040940118915999
  0.5278644208023580  0.1895916372750065  0.4040940118915999
  0.5778644208023580  0.1895916372750065  0.4040940118915999
  0.6278644208023580  0.1895916372750065  0.4040940118915999
  0.6778644208023580  0.1895916372750065  0.4040940118915999
  0.7278644208023580  0.1895916372750065  0.4040940118915999
  0.7778644208023580  0.1895916372750065  0.4040940118915999
  0.8278644208023581  0.1895916372750065  0.4040940118915999
  0.8778644208023580  0.1895916372750065  0.4040940118915999
  0.9278644208023580  0.1895916372750065  0.4040940118915999
  0.9778644208023580  0.1895916372750065  0.4040940118915999
  0.0278644208023580  0.2395916372750065  0.4040940118915999
  0.0778644208023580  0.2395916372750065  0.4040940118915999
  0.1278644208023580  0.2395916372750065  0.4040940118915999
  0.1778644208023580  0.2395916372750065  0.4040940118915999
  0.2278644208023581  0.2395916372750065  0.4040940118915999
  0.2778644208023581  0.2395916372750065  0.4040940118915999
  0.3278644208023581  0.2395916372750065  0.4040940118915999
  0.3778644208023581  0.2395916372750065  0.4040940118915999
  0.4278644208023579  0.2395916372750065  0.4040940118915999
  0.4778644208023580  0.2395916372750065  0.4040940118915999
  0.5278644208023578  0.2395916372750065  0.4040940118915999
  0.5778644208023580  0.2395916372750065  0.4040940118915999
  0.6278644208023579  0.2395916372750065  0.4040940118915999
  0.6778644208023580  0.2395916372750065  0.4040940118915999
  0.7278644208023579  0.2395916372750065  0.4040940118915999
  0.7778644208023580  0.2395916372750065  0.4040940118915999
  0.8278644208023580  0.2395916372750065  0.4040940118915999
  0.8778644208023580  0.2395916372750065  0.4040940118915999
  0.9278644208023581  0.2395916372750065  0.4040940118915999
  0.9778644208023579  0.2395916372750065  0.4040940118915999
  0.0278644208023580  0.2895916372750065  0.4040940118915999
  0.0778644208023580  0.2895916372750065  0.4040940118915999
  0.1278644208023580  0.2895916372750065  0.4040940118915999
  0.1778644208023580  0.2895916372750065  0.4040940118915999
  0.2278644208023580  0.2895916372750065  0.4040940118915999
  0.2778644208023580  0.2895916372750065  0.4040940118915999
  0.3278644208023580  0.2895916372750065  0.4040940118915999
  0.3778644208023581  0.2895916372750065  0.4040940118915999
  0.4278644208023579  0.2895916372750065  0.4040940118915999
  0.4778644208023580  0.2895916372750065  0.4040940118915999
  0.5278644208023578  0.2895916372750065  0.4040940118915999
  0.5778644208023580  0.2895916372750065  0.4040940118915999
  0.6278644208023579  0.2895916372750065  0.4040940118915999
  0.6778644208023580  0.2895916372750065  0.4040940118915999
  0.7278644208023579  0.2895916372750065  0.4040940118915999
  0.7778644208023580  0.2895916372750065  0.4040940118915999
  0.8278644208023580  0.2895916372750065  0.4040940118915999
  0.8778644208023579  0.2895916372750065  0.4040940118915999
  0.9278644208023580  0.2895916372750065  0.4040940118915999
  0.9778644208023580  0.2895916372750065  0.4040940118915999
  0.0278644208023580  0.3395916372750065  0.4040940118915999
  0.0778644208023580  0.3395916372750065  0.4040940118915999
  0.1278644208023581  0.3395916372750065  0.4040940118915999
  0.1778644208023581  0.3395916372750065  0.4040940118915999
  0.2278644208023581  0.3395916372750065  0.4040940118915999
  0.2778644208023580  0.3395916372750065  0.4040940118915999
  0.3278644208023581  0.3395916372750065  0.4040940118915999
  0.3778644208023580  0.3395916372750065  0.4040940118915999
  0.4278644208023580  0.3395916372750065  0.4040940118915999
  0.4778644208023580  0.3395916372750065  0.4040940118915999
  0.5278644208023580  0.3395916372750065  0.4040940118915999
  0.5778644208023580  0.3395916372750065  0.4040940118915999
  0.6278644208023580  0.3395916372750065  0.4040940118915999
  0.6778644208023580  0.3395916372750065  0.4040940118915999
  0.7278644208023580  0.3395916372750065  0.4040940118915999
  0.7778644208023581  0.3395916372750065  0.4040940118915999
  0.8278644208023581  0.3395916372750065  0.4040940118915999
  0.8778644208023582  0.3395916372750065  0.4040940118915999
  0.9278644208023580  0.3395916372750065  0.4040940118915999
  0.9778644208023580  0.3395916372750065  0.4040940118915999
  0.0278644208023580  0.3895916372750066  0.4040940118915999
  0.0778644208023580  0.3895916372750066  0.4040940118915999
  0.1278644208023581  0.3895916372750066  0.4040940118915999
  0.1778644208023581  0.3895916372750066  0.4040940118915999
  0.2278644208023581  0.3895916372750066  0.4040940118915999
  0.2778644208023581  0.3895916372750066  0.4040940118915999
  0.3278644208023581  0.3895916372750066  0.4040940118915999
  0.3778644208023580  0.3895916372750066  0.4040940118915999
  0.4278644208023581  0.3895916372750066  0.4040940118915999
  0.4778644208023579  0.3895916372750066  0.4040940118915999
  0.5278644208023580  0.3895916372750066  0.4040940118915999
  0.5778644208023580  0.3895916372750066  0.4040940118915999
  0.6278644208023580  0.3895916372750066  0.4040940118915999
  0.6778644208023580  0.3895916372750066  0.4040940118915999
  0.7278644208023580  0.3895916372750066  0.4040940118915999
  0.7778644208023581  0.3895916372750066  0.4040940118915999
  0.8278644208023580  0.3895916372750066  0.4040940118915999
  0.8778644208023580  0.3895916372750066  0.4040940118915999
  0.9278644208023581  0.3895916372750066  0.4040940118915999
  0.9778644208023581  0.3895916372750066  0.4040940118915999
  0.0278644208023580  0.4395916372750066  0.4040940118915999
  0.0778644208023580  0.4395916372750066  0.4040940118915999
  0.1278644208023580  0.4395916372750066  0.4040940118915999
  0.1778644208023580  0.4395916372750066  0.4040940118915999
  0.2278644208023581  0.4395916372750066  0.4040940118915999
  0.2778644208023581  0.4395916372750066  0.4040940118915999
  0.3278644208023581  0.4395916372750066  0.4040940118915999
  0.3778644208023580  0.4395916372750066  0.4040940118915999
  0.4278644208023581  0.4395916372750066  0.4040940118915999
  0.4778644208023579  0.4395916372750066  0.4040940118915999
  0.5278644208023580  0.4395916372750066  0.4040940118915999
  0.5778644208023580  0.4395916372750066  0.4040940118915999
  0.6278644208023579  0.4395916372750066  0.4040940118915999
  0.6778644208023580  0.4395916372750066  0.4040940118915999
  0.7278644208023580  0.4395916372750066  0.4040940118915999
  0.7778644208023581  0.4395916372750066  0.4040940118915999
  0.8278644208023581  0.4395916372750066  0.4040940118915999
  0.8778644208023579  0.4395916372750066  0.4040940118915999
  0.9278644208023580  0.4395916372750066  0.4040940118915999
  0.9778644208023580  0.4395916372750066  0.4040940118915999
  0.0278644208023580  0.4895916372750066  0.4040940118915999
  0.0778644208023581  0.4895916372750066  0.4040940118915999
  0.1278644208023580  0.4895916372750066  0.4040940118915999
  0.1778644208023580  0.4895916372750066  0.4040940118915999
  0.2278644208023581  0.4895916372750066  0.4040940118915999
  0.2778644208023581  0.4895916372750066  0.4040940118915999
  0.3278644208023580  0.4895916372750066  0.4040940118915999
  0.3778644208023580  0.4895916372750066  0.4040940118915999
  0.4278644208023580  0.4895916372750066  0.4040940118915999
  0.4778644208023579  0.4895916372750066  0.4040940118915999
  0.5278644208023578  0.4895916372750066  0.4040940118915999
  0.5778644208023580  0.4895916372750066  0.4040940118915999
  0.6278644208023579  0.4895916372750066  0.4040940118915999
  0.6778644208023580  0.4895916372750066  0.4040940118915999
  0.7278644208023580  0.4895916372750066  0.4040940118915999
  0.7778644208023580  0.4895916372750066  0.4040940118915999
  0.8278644208023580  0.4895916372750066  0.4040940118915999
  0.8778644208023580  0.4895916372750066  0.4040940118915999
  0.9278644208023581  0.4895916372750066  0.4040940118915999
  0.9778644208023579  0.4895916372750066  0.4040940118915999
  0.0278644208023580  0.5395916372750066  0.4040940118915999
  0.0778644208023580  0.5395916372750066  0.4040940118915999
  0.1278644208023580  0.5395916372750066  0.4040940118915999
  0.1778644208023580  0.5395916372750066  0.4040940118915999
  0.2278644208023580  0.5395916372750066  0.4040940118915999
  0.2778644208023581  0.5395916372750066  0.4040940118915999
  0.3278644208023580  0.5395916372750066  0.4040940118915999
  0.3778644208023580  0.5395916372750066  0.4040940118915999
  0.4278644208023580  0.5395916372750066  0.4040940118915999
  0.4778644208023580  0.5395916372750066  0.4040940118915999
  0.5278644208023580  0.5395916372750066  0.4040940118915999
  0.5778644208023580  0.5395916372750066  0.4040940118915999
  0.6278644208023580  0.5395916372750066  0.4040940118915999
  0.6778644208023580  0.5395916372750066  0.4040940118915999
  0.7278644208023580  0.5395916372750066  0.4040940118915999
  0.7778644208023581  0.5395916372750066  0.4040940118915999
  0.8278644208023579  0.5395916372750066  0.4040940118915999
  0.8778644208023579  0.5395916372750066  0.4040940118915999
  0.9278644208023580  0.5395916372750066  0.4040940118915999
  0.9778644208023580  0.5395916372750066  0.4040940118915999
  0.0278644208023581  0.5895916372750065  0.4040940118915999
  0.0778644208023580  0.5895916372750065  0.4040940118915999
  0.1278644208023581  0.5895916372750065  0.4040940118915999
  0.1778644208023581  0.5895916372750065  0.4040940118915999
  0.2278644208023581  0.5895916372750065  0.4040940118915999
  0.2778644208023580  0.5895916372750065  0.4040940118915999
  0.3278644208023581  0.5895916372750065  0.4040940118915999
  0.3778644208023581  0.5895916372750065  0.4040940118915999
  0.4278644208023580  0.5895916372750065  0.4040940118915999
  0.4778644208023580  0.5895916372750065  0.4040940118915999
  0.5278644208023580  0.5895916372750065  0.4040940118915999
  0.5778644208023580  0.5895916372750065  0.4040940118915999
  0.6278644208023580  0.5895916372750065  0.4040940118915999
  0.6778644208023580  0.5895916372750065  0.4040940118915999
  0.7278644208023579  0.5895916372750065  0.4040940118915999
  0.7778644208023580  0.5895916372750065  0.4040940118915999
  0.8278644208023580  0.5895916372750065  0.4040940118915999
  0.8778644208023580  0.5895916372750065  0.4040940118915999
  0.9278644208023579  0.5895916372750065  0.4040940118915999
  0.9778644208023579  0.5895916372750065  0.4040940118915999
  0.0278644208023580  0.6395916372750066  0.4040940118915999
  0.0778644208023580  0.6395916372750066  0.4040940118915999
  0.1278644208023580  0.6395916372750066  0.4040940118915999
  0.1778644208023580  0.6395916372750066  0.4040940118915999
  0.2278644208023581  0.6395916372750066  0.4040940118915999
  0.2778644208023580  0.6395916372750066  0.4040940118915999
  0.3278644208023581  0.6395916372750066  0.4040940118915999
  0.3778644208023581  0.6395916372750066  0.4040940118915999
  0.4278644208023580  0.6395916372750066  0.4040940118915999
  0.4778644208023580  0.6395916372750066  0.4040940118915999
  0.5278644208023581  0.6395916372750066  0.4040940118915999
  0.5778644208023581  0.6395916372750066  0.4040940118915999
  0.6278644208023582  0.6395916372750066  0.4040940118915999
  0.6778644208023581  0.6395916372750066  0.4040940118915999
  0.7278644208023581  0.6395916372750066  0.4040940118915999
  0.7778644208023582  0.6395916372750066  0.4040940118915999
  0.8278644208023580  0.6395916372750066  0.4040940118915999
  0.8778644208023580  0.6395916372750066  0.4040940118915999
  0.9278644208023581  0.6395916372750066  0.4040940118915999
  0.9778644208023581  0.6395916372750066  0.4040940118915999
  0.0278644208023581  0.6895916372750066  0.4040940118915999
  0.0778644208023581  0.6895916372750066  0.4040940118915999
  0.1278644208023580  0.6895916372750066  0.4040940118915999
  0.1778644208023580  0.6895916372750066  0.4040940118915999
  0.2278644208023581  0.6895916372750066  0.4040940118915999
  0.2778644208023581  0.6895916372750066  0.4040940118915999
  0.3278644208023581  0.6895916372750066  0.4040940118915999
  0.3778644208023581  0.6895916372750066  0.4040940118915999
  0.4278644208023580  0.6895916372750066  0.4040940118915999
  0.4778644208023580  0.6895916372750066  0.4040940118915999
  0.5278644208023580  0.6895916372750066  0.4040940118915999
  0.5778644208023581  0.6895916372750066  0.4040940118915999
  0.6278644208023580  0.6895916372750066  0.4040940118915999
  0.6778644208023580  0.6895916372750066  0.4040940118915999
  0.7278644208023580  0.6895916372750066  0.4040940118915999
  0.7778644208023581  0.6895916372750066  0.4040940118915999
  0.8278644208023583  0.6895916372750066  0.4040940118915999
  0.8778644208023582  0.6895916372750066  0.4040940118915999
  0.9278644208023582  0.6895916372750066  0.4040940118915999
  0.9778644208023582  0.6895916372750066  0.4040940118915999
  0.0278644208023580  0.7395916372750067  0.4040940118915999
  0.0778644208023580  0.7395916372750067  0.4040940118915999
  0.1278644208023580  0.7395916372750067  0.4040940118915999
  0.1778644208023581  0.7395916372750067  0.4040940118915999
  0.2278644208023580  0.7395916372750067  0.4040940118915999
  0.2778644208023580  0.7395916372750067  0.4040940118915999
  0.3278644208023579  0.7395916372750067  0.4040940118915999
  0.3778644208023581  0.7395916372750067  0.4040940118915999
  0.4278644208023579  0.7395916372750067  0.4040940118915999
  0.4778644208023580  0.7395916372750067  0.4040940118915999
  0.5278644208023580  0.7395916372750067  0.4040940118915999
  0.5778644208023581  0.7395916372750067  0.4040940118915999
  0.6278644208023580  0.7395916372750067  0.4040940118915999
  0.6778644208023581  0.7395916372750067  0.4040940118915999
  0.7278644208023581  0.7395916372750067  0.4040940118915999
  0.7778644208023580  0.7395916372750067  0.4040940118915999
  0.8278644208023580  0.7395916372750067  0.4040940118915999
  0.8778644208023580  0.7395916372750067  0.4040940118915999
  0.9278644208023581  0.7395916372750067  0.4040940118915999
  0.9778644208023579  0.7395916372750067  0.4040940118915999
  0.0278644208023580  0.7895916372750066  0.4040940118915999
  0.0778644208023580  0.7895916372750066  0.4040940118915999
  0.1278644208023580  0.7895916372750066  0.4040940118915999
  0.1778644208023580  0.7895916372750066  0.4040940118915999
  0.2278644208023581  0.7895916372750066  0.4040940118915999
  0.2778644208023581  0.7895916372750066  0.4040940118915999
  0.3278644208023581  0.7895916372750066  0.4040940118915999
  0.3778644208023580  0.7895916372750066  0.4040940118915999
  0.4278644208023581  0.7895916372750066  0.4040940118915999
  0.4778644208023579  0.7895916372750066  0.4040940118915999
  0.5278644208023580  0.7895916372750066  0.4040940118915999
  0.5778644208023580  0.7895916372750066  0.4040940118915999
  0.6278644208023579  0.7895916372750066  0.4040940118915999
  0.6778644208023580  0.7895916372750066  0.4040940118915999
  0.7278644208023580  0.7895916372750066  0.4040940118915999
  0.7778644208023581  0.7895916372750066  0.4040940118915999
  0.8278644208023581  0.7895916372750066  0.4040940118915999
  0.8778644208023582  0.7895916372750066  0.4040940118915999
  0.9278644208023582  0.7895916372750066  0.4040940118915999
  0.9778644208023582  0.7895916372750066  0.4040940118915999
  0.0278644208023581  0.8395916372750065  0.4040940118915999
  0.0778644208023581  0.8395916372750065  0.4040940118915999
  0.1278644208023581  0.8395916372750065  0.4040940118915999
  0.1778644208023580  0.8395916372750065  0.4040940118915999
  0.2278644208023582  0.8395916372750065  0.4040940118915999
  0.2778644208023581  0.8395916372750065  0.4040940118915999
  0.3278644208023582  0.8395916372750065  0.4040940118915999
  0.3778644208023581  0.8395916372750065  0.4040940118915999
  0.4278644208023581  0.8395916372750065  0.4040940118915999
  0.4778644208023580  0.8395916372750065  0.4040940118915999
  0.5278644208023581  0.8395916372750065  0.4040940118915999
  0.5778644208023580  0.8395916372750065  0.4040940118915999
  0.6278644208023580  0.8395916372750065  0.4040940118915999
  0.6778644208023581  0.8395916372750065  0.4040940118915999
  0.7278644208023579  0.8395916372750065  0.4040940118915999
  0.7778644208023580  0.8395916372750065  0.4040940118915999
  0.8278644208023582  0.8395916372750065  0.4040940118915999
  0.8778644208023580  0.8395916372750065  0.4040940118915999
  0.9278644208023581  0.8395916372750065  0.4040940118915999
  0.9778644208023581  0.8395916372750065  0.4040940118915999
  0.0278644208023580  0.8895916372750067  0.4040940118915999
  0.0778644208023580  0.8895916372750067  0.4040940118915999
  0.1278644208023580  0.8895916372750067  0.4040940118915999
  0.1778644208023581  0.8895916372750067  0.4040940118915999
  0.2278644208023580  0.8895916372750067  0.4040940118915999
  0.2778644208023581  0.8895916372750067  0.4040940118915999
  0.3278644208023580  0.8895916372750067  0.4040940118915999
  0.3778644208023580  0.8895916372750067  0.4040940118915999
  0.4278644208023580  0.8895916372750067  0.4040940118915999
  0.4778644208023579  0.8895916372750067  0.4040940118915999
  0.5278644208023580  0.8895916372750067  0.4040940118915999
  0.5778644208023579  0.8895916372750067  0.4040940118915999
  0.6278644208023579  0.8895916372750067  0.4040940118915999
  0.6778644208023580  0.8895916372750067  0.4040940118915999
  0.7278644208023580  0.8895916372750067  0.4040940118915999
  0.7778644208023578  0.8895916372750067  0.4040940118915999
  0.8278644208023581  0.8895916372750067  0.4040940118915999
  0.8778644208023582  0.8895916372750067  0.4040940118915999
  0.9278644208023582  0.8895916372750067  0.4040940118915999
  0.9778644208023580  0.8895916372750067  0.4040940118915999
  0.0278644208023580  0.9395916372750066  0.4040940118915999
  0.0778644208023581  0.9395916372750066  0.4040940118915999
  0.1278644208023580  0.9395916372750066  0.4040940118915999
  0.1778644208023581  0.9395916372750066  0.4040940118915999
  0.2278644208023580  0.9395916372750066  0.4040940118915999
  0.2778644208023581  0.9395916372750066  0.4040940118915999
  0.3278644208023580  0.9395916372750066  0.4040940118915999
  0.3778644208023582  0.9395916372750066  0.4040940118915999
  0.4278644208023580  0.9395916372750066  0.4040940118915999
  0.4778644208023580  0.9395916372750066  0.4040940118915999
  0.5278644208023580  0.9395916372750066  0.4040940118915999
  0.5778644208023580  0.9395916372750066  0.4040940118915999
  0.6278644208023580  0.9395916372750066  0.4040940118915999
  0.6778644208023579  0.9395916372750066  0.4040940118915999
  0.7278644208023579  0.9395916372750066  0.4040940118915999
  0.7778644208023580  0.9395916372750066  0.4040940118915999
  0.8278644208023582  0.9395916372750066  0.4040940118915999
  0.8778644208023580  0.9395916372750066  0.4040940118915999
  0.9278644208023581  0.9395916372750066  0.4040940118915999
  0.9778644208023581  0.9395916372750066  0.4040940118915999
  0.0278644208023580  0.9895916372750065  0.4040940118915999
  0.0778644208023581  0.9895916372750065  0.4040940118915999
  0.1278644208023581  0.9895916372750065  0.4040940118915999
  0.1778644208023582  0.9895916372750065  0.4040940118915999
  0.2278644208023581  0.9895916372750065  0.4040940118915999
  0.2778644208023581  0.9895916372750065  0.4040940118915999
  0.3278644208023581  0.9895916372750065  0.4040940118915999
  0.3778644208023580  0.9895916372750065  0.4040940118915999
  0.4278644208023580  0.9895916372750065  0.4040940118915999
  0.4778644208023580  0.9895916372750065  0.4040940118915999
  0.5278644208023580  0.9895916372750065  0.4040940118915999
  0.5778644208023580  0.9895916372750065  0.4040940118915999
  0.6278644208023580  0.9895916372750065  0.4040940118915999
  0.6778644208023581  0.9895916372750065  0.4040940118915999
  0.7278644208023579  0.9895916372750065  0.4040940118915999
  0.7778644208023580  0.9895916372750065  0.4040940118915999
  0.8278644208023582  0.9895916372750065  0.4040940118915999
  0.8778644208023583  0.9895916372750065  0.4040940118915999
  0.9278644208023581  0.9895916372750065  0.4040940118915999
  0.9778644208023581  0.9895916372750065  0.4040940118915999
  0.0124529428076545  0.0204148363213815  0.3750824751567000
  0.0624529428076545  0.0204148363213815  0.3750824751567000
  0.1124529428076545  0.0204148363213815  0.3750824751567000
  0.1624529428076545  0.0204148363213815  0.3750824751567000
  0.2124529428076545  0.0204148363213815  0.3750824751567000
  0.2624529428076545  0.0204148363213815  0.3750824751567000
  0.3124529428076546  0.0204148363213815  0.3750824751567000
  0.3624529428076546  0.0204148363213815  0.3750824751567000
  0.4124529428076545  0.0204148363213815  0.3750824751567000
  0.4624529428076545  0.0204148363213815  0.3750824751567000
  0.5124529428076545  0.0204148363213815  0.3750824751567000
  0.5624529428076545  0.0204148363213815  0.3750824751567000
  0.6124529428076545  0.0204148363213815  0.3750824751567000
  0.6624529428076545  0.0204148363213815  0.3750824751567000
  0.7124529428076545  0.0204148363213815  0.3750824751567000
  0.7624529428076545  0.0204148363213815  0.3750824751567000
  0.8124529428076546  0.0204148363213815  0.3750824751567000
  0.8624529428076546  0.0204148363213815  0.3750824751567000
  0.9124529428076547  0.0204148363213815  0.3750824751567000
  0.9624529428076546  0.0204148363213815  0.3750824751567000
  0.0124529428076545  0.0704148363213815  0.3750824751567000
  0.0624529428076545  0.0704148363213815  0.3750824751567000
  0.1124529428076545  0.0704148363213815  0.3750824751567000
  0.1624529428076545  0.0704148363213815  0.3750824751567000
  0.2124529428076545  0.0704148363213815  0.3750824751567000
  0.2624529428076545  0.0704148363213815  0.3750824751567000
  0.3124529428076546  0.0704148363213815  0.3750824751567000
  0.3624529428076546  0.0704148363213815  0.3750824751567000
  0.4124529428076545  0.0704148363213815  0.3750824751567000
  0.4624529428076545  0.0704148363213815  0.3750824751567000
  0.5124529428076545  0.0704148363213815  0.3750824751567000
  0.5624529428076543  0.0704148363213815  0.3750824751567000
  0.6124529428076545  0.0704148363213815  0.3750824751567000
  0.6624529428076545  0.0704148363213815  0.3750824751567000
  0.7124529428076545  0.0704148363213815  0.3750824751567000
  0.7624529428076544  0.0704148363213815  0.3750824751567000
  0.8124529428076546  0.0704148363213815  0.3750824751567000
  0.8624529428076546  0.0704148363213815  0.3750824751567000
  0.9124529428076547  0.0704148363213815  0.3750824751567000
  0.9624529428076546  0.0704148363213815  0.3750824751567000
  0.0124529428076545  0.1204148363213815  0.3750824751567000
  0.0624529428076545  0.1204148363213815  0.3750824751567000
  0.1124529428076545  0.1204148363213815  0.3750824751567000
  0.1624529428076545  0.1204148363213815  0.3750824751567000
  0.2124529428076545  0.1204148363213815  0.3750824751567000
  0.2624529428076545  0.1204148363213815  0.3750824751567000
  0.3124529428076546  0.1204148363213815  0.3750824751567000
  0.3624529428076546  0.1204148363213815  0.3750824751567000
  0.4124529428076545  0.1204148363213815  0.3750824751567000
  0.4624529428076545  0.1204148363213815  0.3750824751567000
  0.5124529428076545  0.1204148363213815  0.3750824751567000
  0.5624529428076543  0.1204148363213815  0.3750824751567000
  0.6124529428076545  0.1204148363213815  0.3750824751567000
  0.6624529428076545  0.1204148363213815  0.3750824751567000
  0.7124529428076545  0.1204148363213815  0.3750824751567000
  0.7624529428076544  0.1204148363213815  0.3750824751567000
  0.8124529428076545  0.1204148363213815  0.3750824751567000
  0.8624529428076546  0.1204148363213815  0.3750824751567000
  0.9124529428076545  0.1204148363213815  0.3750824751567000
  0.9624529428076546  0.1204148363213815  0.3750824751567000
  0.0124529428076545  0.1704148363213815  0.3750824751567000
  0.0624529428076545  0.1704148363213815  0.3750824751567000
  0.1124529428076545  0.1704148363213815  0.3750824751567000
  0.1624529428076546  0.1704148363213815  0.3750824751567000
  0.2124529428076546  0.1704148363213815  0.3750824751567000
  0.2624529428076545  0.1704148363213815  0.3750824751567000
  0.3124529428076546  0.1704148363213815  0.3750824751567000
  0.3624529428076546  0.1704148363213815  0.3750824751567000
  0.4124529428076545  0.1704148363213815  0.3750824751567000
  0.4624529428076545  0.1704148363213815  0.3750824751567000
  0.5124529428076545  0.1704148363213815  0.3750824751567000
  0.5624529428076545  0.1704148363213815  0.3750824751567000
  0.6124529428076545  0.1704148363213815  0.3750824751567000
  0.6624529428076547  0.1704148363213815  0.3750824751567000
  0.7124529428076545  0.1704148363213815  0.3750824751567000
  0.7624529428076545  0.1704148363213815  0.3750824751567000
  0.8124529428076546  0.1704148363213815  0.3750824751567000
  0.8624529428076546  0.1704148363213815  0.3750824751567000
  0.9124529428076545  0.1704148363213815  0.3750824751567000
  0.9624529428076545  0.1704148363213815  0.3750824751567000
  0.0124529428076545  0.2204148363213815  0.3750824751567000
  0.0624529428076545  0.2204148363213815  0.3750824751567000
  0.1124529428076545  0.2204148363213815  0.3750824751567000
  0.1624529428076545  0.2204148363213815  0.3750824751567000
  0.2124529428076545  0.2204148363213815  0.3750824751567000
  0.2624529428076545  0.2204148363213815  0.3750824751567000
  0.3124529428076546  0.2204148363213815  0.3750824751567000
  0.3624529428076546  0.2204148363213815  0.3750824751567000
  0.4124529428076545  0.2204148363213815  0.3750824751567000
  0.4624529428076545  0.2204148363213815  0.3750824751567000
  0.5124529428076545  0.2204148363213815  0.3750824751567000
  0.5624529428076545  0.2204148363213815  0.3750824751567000
  0.6124529428076545  0.2204148363213815  0.3750824751567000
  0.6624529428076545  0.2204148363213815  0.3750824751567000
  0.7124529428076545  0.2204148363213815  0.3750824751567000
  0.7624529428076545  0.2204148363213815  0.3750824751567000
  0.8124529428076546  0.2204148363213815  0.3750824751567000
  0.8624529428076545  0.2204148363213815  0.3750824751567000
  0.9124529428076545  0.2204148363213815  0.3750824751567000
  0.9624529428076546  0.2204148363213815  0.3750824751567000
  0.0124529428076545  0.2704148363213816  0.3750824751567000
  0.0624529428076545  0.2704148363213816  0.3750824751567000
  0.1124529428076545  0.2704148363213816  0.3750824751567000
  0.1624529428076545  0.2704148363213816  0.3750824751567000
  0.2124529428076546  0.2704148363213816  0.3750824751567000
  0.2624529428076546  0.2704148363213816  0.3750824751567000
  0.3124529428076546  0.2704148363213816  0.3750824751567000
  0.3624529428076546  0.2704148363213816  0.3750824751567000
  0.4124529428076545  0.2704148363213816  0.3750824751567000
  0.4624529428076544  0.2704148363213816  0.3750824751567000
  0.5124529428076545  0.2704148363213816  0.3750824751567000
  0.5624529428076543  0.2704148363213816  0.3750824751567000
  0.6124529428076545  0.2704148363213816  0.3750824751567000
  0.6624529428076545  0.2704148363213816  0.3750824751567000
  0.7124529428076545  0.2704148363213816  0.3750824751567000
  0.7624529428076544  0.2704148363213816  0.3750824751567000
  0.8124529428076546  0.2704148363213816  0.3750824751567000
  0.8624529428076545  0.2704148363213816  0.3750824751567000
  0.9124529428076544  0.2704148363213816  0.3750824751567000
  0.9624529428076545  0.2704148363213816  0.3750824751567000
  0.0124529428076545  0.3204148363213815  0.3750824751567000
  0.0624529428076545  0.3204148363213815  0.3750824751567000
  0.1124529428076545  0.3204148363213815  0.3750824751567000
  0.1624529428076545  0.3204148363213815  0.3750824751567000
  0.2124529428076545  0.3204148363213815  0.3750824751567000
  0.2624529428076545  0.3204148363213815  0.3750824751567000
  0.3124529428076546  0.3204148363213815  0.3750824751567000
  0.3624529428076546  0.3204148363213815  0.3750824751567000
  0.4124529428076545  0.3204148363213815  0.3750824751567000
  0.4624529428076544  0.3204148363213815  0.3750824751567000
  0.5124529428076546  0.3204148363213815  0.3750824751567000
  0.5624529428076545  0.3204148363213815  0.3750824751567000
  0.6124529428076546  0.3204148363213815  0.3750824751567000
  0.6624529428076547  0.3204148363213815  0.3750824751567000
  0.7124529428076546  0.3204148363213815  0.3750824751567000
  0.7624529428076545  0.3204148363213815  0.3750824751567000
  0.8124529428076547  0.3204148363213815  0.3750824751567000
  0.8624529428076546  0.3204148363213815  0.3750824751567000
  0.9124529428076547  0.3204148363213815  0.3750824751567000
  0.9624529428076547  0.3204148363213815  0.3750824751567000
  0.0124529428076545  0.3704148363213816  0.3750824751567000
  0.0624529428076545  0.3704148363213816  0.3750824751567000
  0.1124529428076545  0.3704148363213816  0.3750824751567000
  0.1624529428076545  0.3704148363213816  0.3750824751567000
  0.2124529428076546  0.3704148363213816  0.3750824751567000
  0.2624529428076545  0.3704148363213816  0.3750824751567000
  0.3124529428076546  0.3704148363213816  0.3750824751567000
  0.3624529428076546  0.3704148363213816  0.3750824751567000
  0.4124529428076544  0.3704148363213816  0.3750824751567000
  0.4624529428076544  0.3704148363213816  0.3750824751567000
  0.5124529428076545  0.3704148363213816  0.3750824751567000
  0.5624529428076545  0.3704148363213816  0.3750824751567000
  0.6124529428076545  0.3704148363213816  0.3750824751567000
  0.6624529428076547  0.3704148363213816  0.3750824751567000
  0.7124529428076545  0.3704148363213816  0.3750824751567000
  0.7624529428076544  0.3704148363213816  0.3750824751567000
  0.8124529428076546  0.3704148363213816  0.3750824751567000
  0.8624529428076545  0.3704148363213816  0.3750824751567000
  0.9124529428076545  0.3704148363213816  0.3750824751567000
  0.9624529428076546  0.3704148363213816  0.3750824751567000
  0.0124529428076545  0.4204148363213815  0.3750824751567000
  0.0624529428076546  0.4204148363213815  0.3750824751567000
  0.1124529428076546  0.4204148363213815  0.3750824751567000
  0.1624529428076545  0.4204148363213815  0.3750824751567000
  0.2124529428076545  0.4204148363213815  0.3750824751567000
  0.2624529428076545  0.4204148363213815  0.3750824751567000
  0.3124529428076546  0.4204148363213815  0.3750824751567000
  0.3624529428076546  0.4204148363213815  0.3750824751567000
  0.4124529428076544  0.4204148363213815  0.3750824751567000
  0.4624529428076545  0.4204148363213815  0.3750824751567000
  0.5124529428076545  0.4204148363213815  0.3750824751567000
  0.5624529428076545  0.4204148363213815  0.3750824751567000
  0.6124529428076545  0.4204148363213815  0.3750824751567000
  0.6624529428076547  0.4204148363213815  0.3750824751567000
  0.7124529428076545  0.4204148363213815  0.3750824751567000
  0.7624529428076544  0.4204148363213815  0.3750824751567000
  0.8124529428076546  0.4204148363213815  0.3750824751567000
  0.8624529428076546  0.4204148363213815  0.3750824751567000
  0.9124529428076547  0.4204148363213815  0.3750824751567000
  0.9624529428076545  0.4204148363213815  0.3750824751567000
  0.0124529428076545  0.4704148363213815  0.3750824751567000
  0.0624529428076545  0.4704148363213815  0.3750824751567000
  0.1124529428076545  0.4704148363213815  0.3750824751567000
  0.1624529428076545  0.4704148363213815  0.3750824751567000
  0.2124529428076546  0.4704148363213815  0.3750824751567000
  0.2624529428076545  0.4704148363213815  0.3750824751567000
  0.3124529428076546  0.4704148363213815  0.3750824751567000
  0.3624529428076545  0.4704148363213815  0.3750824751567000
  0.4124529428076544  0.4704148363213815  0.3750824751567000
  0.4624529428076545  0.4704148363213815  0.3750824751567000
  0.5124529428076545  0.4704148363213815  0.3750824751567000
  0.5624529428076545  0.4704148363213815  0.3750824751567000
  0.6124529428076545  0.4704148363213815  0.3750824751567000
  0.6624529428076545  0.4704148363213815  0.3750824751567000
  0.7124529428076544  0.4704148363213815  0.3750824751567000
  0.7624529428076544  0.4704148363213815  0.3750824751567000
  0.8124529428076545  0.4704148363213815  0.3750824751567000
  0.8624529428076545  0.4704148363213815  0.3750824751567000
  0.9124529428076545  0.4704148363213815  0.3750824751567000
  0.9624529428076546  0.4704148363213815  0.3750824751567000
  0.0124529428076545  0.5204148363213815  0.3750824751567000
  0.0624529428076545  0.5204148363213815  0.3750824751567000
  0.1124529428076546  0.5204148363213815  0.3750824751567000
  0.1624529428076546  0.5204148363213815  0.3750824751567000
  0.2124529428076546  0.5204148363213815  0.3750824751567000
  0.2624529428076545  0.5204148363213815  0.3750824751567000
  0.3124529428076546  0.5204148363213815  0.3750824751567000
  0.3624529428076545  0.5204148363213815  0.3750824751567000
  0.4124529428076545  0.5204148363213815  0.3750824751567000
  0.4624529428076545  0.5204148363213815  0.3750824751567000
  0.5124529428076545  0.5204148363213815  0.3750824751567000
  0.5624529428076543  0.5204148363213815  0.3750824751567000
  0.6124529428076545  0.5204148363213815  0.3750824751567000
  0.6624529428076545  0.5204148363213815  0.3750824751567000
  0.7124529428076546  0.5204148363213815  0.3750824751567000
  0.7624529428076545  0.5204148363213815  0.3750824751567000
  0.8124529428076546  0.5204148363213815  0.3750824751567000
  0.8624529428076546  0.5204148363213815  0.3750824751567000
  0.9124529428076547  0.5204148363213815  0.3750824751567000
  0.9624529428076545  0.5204148363213815  0.3750824751567000
  0.0124529428076545  0.5704148363213815  0.3750824751567000
  0.0624529428076545  0.5704148363213815  0.3750824751567000
  0.1124529428076545  0.5704148363213815  0.3750824751567000
  0.1624529428076545  0.5704148363213815  0.3750824751567000
  0.2124529428076546  0.5704148363213815  0.3750824751567000
  0.2624529428076546  0.5704148363213815  0.3750824751567000
  0.3124529428076546  0.5704148363213815  0.3750824751567000
  0.3624529428076546  0.5704148363213815  0.3750824751567000
  0.4124529428076546  0.5704148363213815  0.3750824751567000
  0.4624529428076545  0.5704148363213815  0.3750824751567000
  0.5124529428076546  0.5704148363213815  0.3750824751567000
  0.5624529428076545  0.5704148363213815  0.3750824751567000
  0.6124529428076545  0.5704148363213815  0.3750824751567000
  0.6624529428076547  0.5704148363213815  0.3750824751567000
  0.7124529428076546  0.5704148363213815  0.3750824751567000
  0.7624529428076545  0.5704148363213815  0.3750824751567000
  0.8124529428076546  0.5704148363213815  0.3750824751567000
  0.8624529428076548  0.5704148363213815  0.3750824751567000
  0.9124529428076549  0.5704148363213815  0.3750824751567000
  0.9624529428076545  0.5704148363213815  0.3750824751567000
  0.0124529428076545  0.6204148363213816  0.3750824751567000
  0.0624529428076545  0.6204148363213816  0.3750824751567000
  0.1124529428076545  0.6204148363213816  0.3750824751567000
  0.1624529428076546  0.6204148363213816  0.3750824751567000
  0.2124529428076545  0.6204148363213816  0.3750824751567000
  0.2624529428076546  0.6204148363213816  0.3750824751567000
  0.3124529428076545  0.6204148363213816  0.3750824751567000
  0.3624529428076546  0.6204148363213816  0.3750824751567000
  0.4124529428076545  0.6204148363213816  0.3750824751567000
  0.4624529428076545  0.6204148363213816  0.3750824751567000
  0.5124529428076544  0.6204148363213816  0.3750824751567000
  0.5624529428076543  0.6204148363213816  0.3750824751567000
  0.6124529428076544  0.6204148363213816  0.3750824751567000
  0.6624529428076545  0.6204148363213816  0.3750824751567000
  0.7124529428076545  0.6204148363213816  0.3750824751567000
  0.7624529428076545  0.6204148363213816  0.3750824751567000
  0.8124529428076546  0.6204148363213816  0.3750824751567000
  0.8624529428076546  0.6204148363213816  0.3750824751567000
  0.9124529428076547  0.6204148363213816  0.3750824751567000
  0.9624529428076545  0.6204148363213816  0.3750824751567000
  0.0124529428076545  0.6704148363213815  0.3750824751567000
  0.0624529428076545  0.6704148363213815  0.3750824751567000
  0.1124529428076545  0.6704148363213815  0.3750824751567000
  0.1624529428076545  0.6704148363213815  0.3750824751567000
  0.2124529428076545  0.6704148363213815  0.3750824751567000
  0.2624529428076546  0.6704148363213815  0.3750824751567000
  0.3124529428076546  0.6704148363213815  0.3750824751567000
  0.3624529428076546  0.6704148363213815  0.3750824751567000
  0.4124529428076545  0.6704148363213815  0.3750824751567000
  0.4624529428076545  0.6704148363213815  0.3750824751567000
  0.5124529428076546  0.6704148363213815  0.3750824751567000
  0.5624529428076546  0.6704148363213815  0.3750824751567000
  0.6124529428076546  0.6704148363213815  0.3750824751567000
  0.6624529428076545  0.6704148363213815  0.3750824751567000
  0.7124529428076545  0.6704148363213815  0.3750824751567000
  0.7624529428076545  0.6704148363213815  0.3750824751567000
  0.8124529428076546  0.6704148363213815  0.3750824751567000
  0.8624529428076548  0.6704148363213815  0.3750824751567000
  0.9124529428076547  0.6704148363213815  0.3750824751567000
  0.9624529428076545  0.6704148363213815  0.3750824751567000
  0.0124529428076545  0.7204148363213815  0.3750824751567000
  0.0624529428076546  0.7204148363213815  0.3750824751567000
  0.1124529428076545  0.7204148363213815  0.3750824751567000
  0.1624529428076546  0.7204148363213815  0.3750824751567000
  0.2124529428076546  0.7204148363213815  0.3750824751567000
  0.2624529428076545  0.7204148363213815  0.3750824751567000
  0.3124529428076546  0.7204148363213815  0.3750824751567000
  0.3624529428076545  0.7204148363213815  0.3750824751567000
  0.4124529428076545  0.7204148363213815  0.3750824751567000
  0.4624529428076545  0.7204148363213815  0.3750824751567000
  0.5124529428076545  0.7204148363213815  0.3750824751567000
  0.5624529428076543  0.7204148363213815  0.3750824751567000
  0.6124529428076546  0.7204148363213815  0.3750824751567000
  0.6624529428076545  0.7204148363213815  0.3750824751567000
  0.7124529428076546  0.7204148363213815  0.3750824751567000
  0.7624529428076546  0.7204148363213815  0.3750824751567000
  0.8124529428076545  0.7204148363213815  0.3750824751567000
  0.8624529428076547  0.7204148363213815  0.3750824751567000
  0.9124529428076548  0.7204148363213815  0.3750824751567000
  0.9624529428076546  0.7204148363213815  0.3750824751567000
  0.0124529428076545  0.7704148363213816  0.3750824751567000
  0.0624529428076545  0.7704148363213816  0.3750824751567000
  0.1124529428076545  0.7704148363213816  0.3750824751567000
  0.1624529428076545  0.7704148363213816  0.3750824751567000
  0.2124529428076546  0.7704148363213816  0.3750824751567000
  0.2624529428076545  0.7704148363213816  0.3750824751567000
  0.3124529428076546  0.7704148363213816  0.3750824751567000
  0.3624529428076546  0.7704148363213816  0.3750824751567000
  0.4124529428076545  0.7704148363213816  0.3750824751567000
  0.4624529428076544  0.7704148363213816  0.3750824751567000
  0.5124529428076546  0.7704148363213816  0.3750824751567000
  0.5624529428076543  0.7704148363213816  0.3750824751567000
  0.6124529428076546  0.7704148363213816  0.3750824751567000
  0.6624529428076547  0.7704148363213816  0.3750824751567000
  0.7124529428076545  0.7704148363213816  0.3750824751567000
  0.7624529428076545  0.7704148363213816  0.3750824751567000
  0.8124529428076546  0.7704148363213816  0.3750824751567000
  0.8624529428076546  0.7704148363213816  0.3750824751567000
  0.9124529428076547  0.7704148363213816  0.3750824751567000
  0.9624529428076545  0.7704148363213816  0.3750824751567000
  0.0124529428076546  0.8204148363213815  0.3750824751567000
  0.0624529428076545  0.8204148363213815  0.3750824751567000
  0.1124529428076545  0.8204148363213815  0.3750824751567000
  0.1624529428076546  0.8204148363213815  0.3750824751567000
  0.2124529428076545  0.8204148363213815  0.3750824751567000
  0.2624529428076546  0.8204148363213815  0.3750824751567000
  0.3124529428076546  0.8204148363213815  0.3750824751567000
  0.3624529428076547  0.8204148363213815  0.3750824751567000
  0.4124529428076545  0.8204148363213815  0.3750824751567000
  0.4624529428076545  0.8204148363213815  0.3750824751567000
  0.5124529428076545  0.8204148363213815  0.3750824751567000
  0.5624529428076543  0.8204148363213815  0.3750824751567000
  0.6124529428076545  0.8204148363213815  0.3750824751567000
  0.6624529428076545  0.8204148363213815  0.3750824751567000
  0.7124529428076546  0.8204148363213815  0.3750824751567000
  0.7624529428076544  0.8204148363213815  0.3750824751567000
  0.8124529428076545  0.8204148363213815  0.3750824751567000
  0.8624529428076547  0.8204148363213815  0.3750824751567000
  0.9124529428076548  0.8204148363213815  0.3750824751567000
  0.9624529428076544  0.8204148363213815  0.3750824751567000
  0.0124529428076545  0.8704148363213815  0.3750824751567000
  0.0624529428076546  0.8704148363213815  0.3750824751567000
  0.1124529428076546  0.8704148363213815  0.3750824751567000
  0.1624529428076546  0.8704148363213815  0.3750824751567000
  0.2124529428076545  0.8704148363213815  0.3750824751567000
  0.2624529428076546  0.8704148363213815  0.3750824751567000
  0.3124529428076546  0.8704148363213815  0.3750824751567000
  0.3624529428076547  0.8704148363213815  0.3750824751567000
  0.4124529428076545  0.8704148363213815  0.3750824751567000
  0.4624529428076545  0.8704148363213815  0.3750824751567000
  0.5124529428076545  0.8704148363213815  0.3750824751567000
  0.5624529428076543  0.8704148363213815  0.3750824751567000
  0.6124529428076546  0.8704148363213815  0.3750824751567000
  0.6624529428076544  0.8704148363213815  0.3750824751567000
  0.7124529428076545  0.8704148363213815  0.3750824751567000
  0.7624529428076545  0.8704148363213815  0.3750824751567000
  0.8124529428076546  0.8704148363213815  0.3750824751567000
  0.8624529428076546  0.8704148363213815  0.3750824751567000
  0.9124529428076547  0.8704148363213815  0.3750824751567000
  0.9624529428076545  0.8704148363213815  0.3750824751567000
  0.0124529428076545  0.9204148363213817  0.3750824751567000
  0.0624529428076544  0.9204148363213817  0.3750824751567000
  0.1124529428076545  0.9204148363213817  0.3750824751567000
  0.1624529428076544  0.9204148363213817  0.3750824751567000
  0.2124529428076546  0.9204148363213817  0.3750824751567000
  0.2624529428076545  0.9204148363213817  0.3750824751567000
  0.3124529428076546  0.9204148363213817  0.3750824751567000
  0.3624529428076545  0.9204148363213817  0.3750824751567000
  0.4124529428076545  0.9204148363213817  0.3750824751567000
  0.4624529428076545  0.9204148363213817  0.3750824751567000
  0.5124529428076545  0.9204148363213817  0.3750824751567000
  0.5624529428076545  0.9204148363213817  0.3750824751567000
  0.6124529428076545  0.9204148363213817  0.3750824751567000
  0.6624529428076548  0.9204148363213817  0.3750824751567000
  0.7124529428076544  0.9204148363213817  0.3750824751567000
  0.7624529428076544  0.9204148363213817  0.3750824751567000
  0.8124529428076547  0.9204148363213817  0.3750824751567000
  0.8624529428076547  0.9204148363213817  0.3750824751567000
  0.9124529428076545  0.9204148363213817  0.3750824751567000
  0.9624529428076546  0.9204148363213817  0.3750824751567000
  0.0124529428076546  0.9704148363213816  0.3750824751567000
  0.0624529428076545  0.9704148363213816  0.3750824751567000
  0.1124529428076546  0.9704148363213816  0.3750824751567000
  0.1624529428076545  0.9704148363213816  0.3750824751567000
  0.2124529428076546  0.9704148363213816  0.3750824751567000
  0.2624529428076545  0.9704148363213816  0.3750824751567000
  0.3124529428076546  0.9704148363213816  0.3750824751567000
  0.3624529428076546  0.9704148363213816  0.3750824751567000
  0.4124529428076545  0.9704148363213816  0.3750824751567000
  0.4624529428076545  0.9704148363213816  0.3750824751567000
  0.5124529428076546  0.9704148363213816  0.3750824751567000
  0.5624529428076545  0.9704148363213816  0.3750824751567000
  0.6124529428076545  0.9704148363213816  0.3750824751567000
  0.6624529428076545  0.9704148363213816  0.3750824751567000
  0.7124529428076546  0.9704148363213816  0.3750824751567000
  0.7624529428076546  0.9704148363213816  0.3750824751567000
  0.8124529428076545  0.9704148363213816  0.3750824751567000
  0.8624529428076547  0.9704148363213816  0.3750824751567000
  0.9124529428076548  0.9704148363213816  0.3750824751567000
  0.9624529428076546  0.9704148363213816  0.3750824751567000
  0.0272220300702545  0.0399635360394175  0.6249391735401600
  0.0772220300702545  0.0399635360394175  0.6249391735401600
  0.1272220300702545  0.0399635360394175  0.6249391735401600
  0.1772220300702545  0.0399635360394175  0.6249391735401600
  0.2272220300702545  0.0399635360394175  0.6249391735401600
  0.2772220300702545  0.0399635360394175  0.6249391735401600
  0.3272220300702545  0.0399635360394175  0.6249391735401600
  0.3772220300702545  0.0399635360394175  0.6249391735401600
  0.4272220300702544  0.0399635360394175  0.6249391735401600
  0.4772220300702544  0.0399635360394175  0.6249391735401600
  0.5272220300702545  0.0399635360394175  0.6249391735401600
  0.5772220300702545  0.0399635360394175  0.6249391735401600
  0.6272220300702545  0.0399635360394175  0.6249391735401600
  0.6772220300702545  0.0399635360394175  0.6249391735401600
  0.7272220300702545  0.0399635360394175  0.6249391735401600
  0.7772220300702545  0.0399635360394175  0.6249391735401600
  0.8272220300702545  0.0399635360394175  0.6249391735401600
  0.8772220300702545  0.0399635360394175  0.6249391735401600
  0.9272220300702545  0.0399635360394175  0.6249391735401600
  0.9772220300702544  0.0399635360394175  0.6249391735401600
  0.0272220300702545  0.0899635360394175  0.6249391735401600
  0.0772220300702545  0.0899635360394175  0.6249391735401600
  0.1272220300702545  0.0899635360394175  0.6249391735401600
  0.1772220300702545  0.0899635360394175  0.6249391735401600
  0.2272220300702545  0.0899635360394175  0.6249391735401600
  0.2772220300702545  0.0899635360394175  0.6249391735401600
  0.3272220300702545  0.0899635360394175  0.6249391735401600
  0.3772220300702545  0.0899635360394175  0.6249391735401600
  0.4272220300702545  0.0899635360394175  0.6249391735401600
  0.4772220300702544  0.0899635360394175  0.6249391735401600
  0.5272220300702545  0.0899635360394175  0.6249391735401600
  0.5772220300702545  0.0899635360394175  0.6249391735401600
  0.6272220300702545  0.0899635360394175  0.6249391735401600
  0.6772220300702545  0.0899635360394175  0.6249391735401600
  0.7272220300702545  0.0899635360394175  0.6249391735401600
  0.7772220300702545  0.0899635360394175  0.6249391735401600
  0.8272220300702545  0.0899635360394175  0.6249391735401600
  0.8772220300702545  0.0899635360394175  0.6249391735401600
  0.9272220300702545  0.0899635360394175  0.6249391735401600
  0.9772220300702544  0.0899635360394175  0.6249391735401600
  0.0272220300702545  0.1399635360394175  0.6249391735401600
  0.0772220300702545  0.1399635360394175  0.6249391735401600
  0.1272220300702545  0.1399635360394175  0.6249391735401600
  0.1772220300702545  0.1399635360394175  0.6249391735401600
  0.2272220300702545  0.1399635360394175  0.6249391735401600
  0.2772220300702545  0.1399635360394175  0.6249391735401600
  0.3272220300702545  0.1399635360394175  0.6249391735401600
  0.3772220300702545  0.1399635360394175  0.6249391735401600
  0.4272220300702544  0.1399635360394175  0.6249391735401600
  0.4772220300702544  0.1399635360394175  0.6249391735401600
  0.5272220300702545  0.1399635360394175  0.6249391735401600
  0.5772220300702545  0.1399635360394175  0.6249391735401600
  0.6272220300702545  0.1399635360394175  0.6249391735401600
  0.6772220300702545  0.1399635360394175  0.6249391735401600
  0.7272220300702544  0.1399635360394175  0.6249391735401600
  0.7772220300702545  0.1399635360394175  0.6249391735401600
  0.8272220300702544  0.1399635360394175  0.6249391735401600
  0.8772220300702545  0.1399635360394175  0.6249391735401600
  0.9272220300702544  0.1399635360394175  0.6249391735401600
  0.9772220300702543  0.1399635360394175  0.6249391735401600
  0.0272220300702545  0.1899635360394175  0.6249391735401600
  0.0772220300702545  0.1899635360394175  0.6249391735401600
  0.1272220300702545  0.1899635360394175  0.6249391735401600
  0.1772220300702545  0.1899635360394175  0.6249391735401600
  0.2272220300702545  0.1899635360394175  0.6249391735401600
  0.2772220300702545  0.1899635360394175  0.6249391735401600
  0.3272220300702545  0.1899635360394175  0.6249391735401600
  0.3772220300702545  0.1899635360394175  0.6249391735401600
  0.4272220300702544  0.1899635360394175  0.6249391735401600
  0.4772220300702544  0.1899635360394175  0.6249391735401600
  0.5272220300702544  0.1899635360394175  0.6249391735401600
  0.5772220300702545  0.1899635360394175  0.6249391735401600
  0.6272220300702543  0.1899635360394175  0.6249391735401600
  0.6772220300702545  0.1899635360394175  0.6249391735401600
  0.7272220300702544  0.1899635360394175  0.6249391735401600
  0.7772220300702545  0.1899635360394175  0.6249391735401600
  0.8272220300702544  0.1899635360394175  0.6249391735401600
  0.8772220300702545  0.1899635360394175  0.6249391735401600
  0.9272220300702544  0.1899635360394175  0.6249391735401600
  0.9772220300702544  0.1899635360394175  0.6249391735401600
  0.0272220300702545  0.2399635360394175  0.6249391735401600
  0.0772220300702545  0.2399635360394175  0.6249391735401600
  0.1272220300702545  0.2399635360394175  0.6249391735401600
  0.1772220300702545  0.2399635360394175  0.6249391735401600
  0.2272220300702545  0.2399635360394175  0.6249391735401600
  0.2772220300702546  0.2399635360394175  0.6249391735401600
  0.3272220300702546  0.2399635360394175  0.6249391735401600
  0.3772220300702545  0.2399635360394175  0.6249391735401600
  0.4272220300702544  0.2399635360394175  0.6249391735401600
  0.4772220300702545  0.2399635360394175  0.6249391735401600
  0.5272220300702544  0.2399635360394175  0.6249391735401600
  0.5772220300702545  0.2399635360394175  0.6249391735401600
  0.6272220300702543  0.2399635360394175  0.6249391735401600
  0.6772220300702544  0.2399635360394175  0.6249391735401600
  0.7272220300702544  0.2399635360394175  0.6249391735401600
  0.7772220300702544  0.2399635360394175  0.6249391735401600
  0.8272220300702544  0.2399635360394175  0.6249391735401600
  0.8772220300702543  0.2399635360394175  0.6249391735401600
  0.9272220300702543  0.2399635360394175  0.6249391735401600
  0.9772220300702543  0.2399635360394175  0.6249391735401600
  0.0272220300702545  0.2899635360394175  0.6249391735401600
  0.0772220300702545  0.2899635360394175  0.6249391735401600
  0.1272220300702546  0.2899635360394175  0.6249391735401600
  0.1772220300702546  0.2899635360394175  0.6249391735401600
  0.2272220300702545  0.2899635360394175  0.6249391735401600
  0.2772220300702546  0.2899635360394175  0.6249391735401600
  0.3272220300702546  0.2899635360394175  0.6249391735401600
  0.3772220300702545  0.2899635360394175  0.6249391735401600
  0.4272220300702546  0.2899635360394175  0.6249391735401600
  0.4772220300702545  0.2899635360394175  0.6249391735401600
  0.5272220300702546  0.2899635360394175  0.6249391735401600
  0.5772220300702546  0.2899635360394175  0.6249391735401600
  0.6272220300702546  0.2899635360394175  0.6249391735401600
  0.6772220300702546  0.2899635360394175  0.6249391735401600
  0.7272220300702547  0.2899635360394175  0.6249391735401600
  0.7772220300702546  0.2899635360394175  0.6249391735401600
  0.8272220300702545  0.2899635360394175  0.6249391735401600
  0.8772220300702545  0.2899635360394175  0.6249391735401600
  0.9272220300702545  0.2899635360394175  0.6249391735401600
  0.9772220300702545  0.2899635360394175  0.6249391735401600
  0.0272220300702545  0.3399635360394176  0.6249391735401600
  0.0772220300702545  0.3399635360394176  0.6249391735401600
  0.1272220300702545  0.3399635360394176  0.6249391735401600
  0.1772220300702545  0.3399635360394176  0.6249391735401600
  0.2272220300702545  0.3399635360394176  0.6249391735401600
  0.2772220300702546  0.3399635360394176  0.6249391735401600
  0.3272220300702545  0.3399635360394176  0.6249391735401600
  0.3772220300702545  0.3399635360394176  0.6249391735401600
  0.4272220300702546  0.3399635360394176  0.6249391735401600
  0.4772220300702545  0.3399635360394176  0.6249391735401600
  0.5272220300702545  0.3399635360394176  0.6249391735401600
  0.5772220300702545  0.3399635360394176  0.6249391735401600
  0.6272220300702545  0.3399635360394176  0.6249391735401600
  0.6772220300702545  0.3399635360394176  0.6249391735401600
  0.7272220300702544  0.3399635360394176  0.6249391735401600
  0.7772220300702544  0.3399635360394176  0.6249391735401600
  0.8272220300702544  0.3399635360394176  0.6249391735401600
  0.8772220300702545  0.3399635360394176  0.6249391735401600
  0.9272220300702543  0.3399635360394176  0.6249391735401600
  0.9772220300702543  0.3399635360394176  0.6249391735401600
  0.0272220300702545  0.3899635360394175  0.6249391735401600
  0.0772220300702545  0.3899635360394175  0.6249391735401600
  0.1272220300702545  0.3899635360394175  0.6249391735401600
  0.1772220300702545  0.3899635360394175  0.6249391735401600
  0.2272220300702546  0.3899635360394175  0.6249391735401600
  0.2772220300702545  0.3899635360394175  0.6249391735401600
  0.3272220300702545  0.3899635360394175  0.6249391735401600
  0.3772220300702545  0.3899635360394175  0.6249391735401600
  0.4272220300702544  0.3899635360394175  0.6249391735401600
  0.4772220300702545  0.3899635360394175  0.6249391735401600
  0.5272220300702545  0.3899635360394175  0.6249391735401600
  0.5772220300702546  0.3899635360394175  0.6249391735401600
  0.6272220300702545  0.3899635360394175  0.6249391735401600
  0.6772220300702546  0.3899635360394175  0.6249391735401600
  0.7272220300702545  0.3899635360394175  0.6249391735401600
  0.7772220300702545  0.3899635360394175  0.6249391735401600
  0.8272220300702544  0.3899635360394175  0.6249391735401600
  0.8772220300702545  0.3899635360394175  0.6249391735401600
  0.9272220300702545  0.3899635360394175  0.6249391735401600
  0.9772220300702543  0.3899635360394175  0.6249391735401600
  0.0272220300702545  0.4399635360394176  0.6249391735401600
  0.0772220300702545  0.4399635360394176  0.6249391735401600
  0.1272220300702545  0.4399635360394176  0.6249391735401600
  0.1772220300702545  0.4399635360394176  0.6249391735401600
  0.2272220300702545  0.4399635360394176  0.6249391735401600
  0.2772220300702545  0.4399635360394176  0.6249391735401600
  0.3272220300702545  0.4399635360394176  0.6249391735401600
  0.3772220300702546  0.4399635360394176  0.6249391735401600
  0.4272220300702545  0.4399635360394176  0.6249391735401600
  0.4772220300702545  0.4399635360394176  0.6249391735401600
  0.5272220300702545  0.4399635360394176  0.6249391735401600
  0.5772220300702546  0.4399635360394176  0.6249391735401600
  0.6272220300702545  0.4399635360394176  0.6249391735401600
  0.6772220300702546  0.4399635360394176  0.6249391735401600
  0.7272220300702544  0.4399635360394176  0.6249391735401600
  0.7772220300702545  0.4399635360394176  0.6249391735401600
  0.8272220300702545  0.4399635360394176  0.6249391735401600
  0.8772220300702543  0.4399635360394176  0.6249391735401600
  0.9272220300702544  0.4399635360394176  0.6249391735401600
  0.9772220300702544  0.4399635360394176  0.6249391735401600
  0.0272220300702545  0.4899635360394175  0.6249391735401600
  0.0772220300702545  0.4899635360394175  0.6249391735401600
  0.1272220300702545  0.4899635360394175  0.6249391735401600
  0.1772220300702545  0.4899635360394175  0.6249391735401600
  0.2272220300702546  0.4899635360394175  0.6249391735401600
  0.2772220300702545  0.4899635360394175  0.6249391735401600
  0.3272220300702545  0.4899635360394175  0.6249391735401600
  0.3772220300702545  0.4899635360394175  0.6249391735401600
  0.4272220300702545  0.4899635360394175  0.6249391735401600
  0.4772220300702544  0.4899635360394175  0.6249391735401600
  0.5272220300702545  0.4899635360394175  0.6249391735401600
  0.5772220300702545  0.4899635360394175  0.6249391735401600
  0.6272220300702545  0.4899635360394175  0.6249391735401600
  0.6772220300702545  0.4899635360394175  0.6249391735401600
  0.7272220300702544  0.4899635360394175  0.6249391735401600
  0.7772220300702544  0.4899635360394175  0.6249391735401600
  0.8272220300702544  0.4899635360394175  0.6249391735401600
  0.8772220300702545  0.4899635360394175  0.6249391735401600
  0.9272220300702543  0.4899635360394175  0.6249391735401600
  0.9772220300702543  0.4899635360394175  0.6249391735401600
  0.0272220300702545  0.5399635360394175  0.6249391735401600
  0.0772220300702545  0.5399635360394175  0.6249391735401600
  0.1272220300702545  0.5399635360394175  0.6249391735401600
  0.1772220300702545  0.5399635360394175  0.6249391735401600
  0.2272220300702545  0.5399635360394175  0.6249391735401600
  0.2772220300702546  0.5399635360394175  0.6249391735401600
  0.3272220300702547  0.5399635360394175  0.6249391735401600
  0.3772220300702545  0.5399635360394175  0.6249391735401600
  0.4272220300702546  0.5399635360394175  0.6249391735401600
  0.4772220300702545  0.5399635360394175  0.6249391735401600
  0.5272220300702545  0.5399635360394175  0.6249391735401600
  0.5772220300702545  0.5399635360394175  0.6249391735401600
  0.6272220300702545  0.5399635360394175  0.6249391735401600
  0.6772220300702546  0.5399635360394175  0.6249391735401600
  0.7272220300702547  0.5399635360394175  0.6249391735401600
  0.7772220300702547  0.5399635360394175  0.6249391735401600
  0.8272220300702545  0.5399635360394175  0.6249391735401600
  0.8772220300702546  0.5399635360394175  0.6249391735401600
  0.9272220300702546  0.5399635360394175  0.6249391735401600
  0.9772220300702547  0.5399635360394175  0.6249391735401600
  0.0272220300702545  0.5899635360394176  0.6249391735401600
  0.0772220300702545  0.5899635360394176  0.6249391735401600
  0.1272220300702545  0.5899635360394176  0.6249391735401600
  0.1772220300702545  0.5899635360394176  0.6249391735401600
  0.2272220300702544  0.5899635360394176  0.6249391735401600
  0.2772220300702546  0.5899635360394176  0.6249391735401600
  0.3272220300702545  0.5899635360394176  0.6249391735401600
  0.3772220300702545  0.5899635360394176  0.6249391735401600
  0.4272220300702544  0.5899635360394176  0.6249391735401600
  0.4772220300702544  0.5899635360394176  0.6249391735401600
  0.5272220300702544  0.5899635360394176  0.6249391735401600
  0.5772220300702545  0.5899635360394176  0.6249391735401600
  0.6272220300702543  0.5899635360394176  0.6249391735401600
  0.6772220300702546  0.5899635360394176  0.6249391735401600
  0.7272220300702545  0.5899635360394176  0.6249391735401600
  0.7772220300702546  0.5899635360394176  0.6249391735401600
  0.8272220300702546  0.5899635360394176  0.6249391735401600
  0.8772220300702545  0.5899635360394176  0.6249391735401600
  0.9272220300702545  0.5899635360394176  0.6249391735401600
  0.9772220300702545  0.5899635360394176  0.6249391735401600
  0.0272220300702545  0.6399635360394177  0.6249391735401600
  0.0772220300702545  0.6399635360394177  0.6249391735401600
  0.1272220300702545  0.6399635360394177  0.6249391735401600
  0.1772220300702545  0.6399635360394177  0.6249391735401600
  0.2272220300702545  0.6399635360394177  0.6249391735401600
  0.2772220300702546  0.6399635360394177  0.6249391735401600
  0.3272220300702545  0.6399635360394177  0.6249391735401600
  0.3772220300702546  0.6399635360394177  0.6249391735401600
  0.4272220300702545  0.6399635360394177  0.6249391735401600
  0.4772220300702545  0.6399635360394177  0.6249391735401600
  0.5272220300702545  0.6399635360394177  0.6249391735401600
  0.5772220300702546  0.6399635360394177  0.6249391735401600
  0.6272220300702543  0.6399635360394177  0.6249391735401600
  0.6772220300702546  0.6399635360394177  0.6249391735401600
  0.7272220300702547  0.6399635360394177  0.6249391735401600
  0.7772220300702545  0.6399635360394177  0.6249391735401600
  0.8272220300702545  0.6399635360394177  0.6249391735401600
  0.8772220300702546  0.6399635360394177  0.6249391735401600
  0.9272220300702546  0.6399635360394177  0.6249391735401600
  0.9772220300702544  0.6399635360394177  0.6249391735401600
  0.0272220300702545  0.6899635360394175  0.6249391735401600
  0.0772220300702545  0.6899635360394175  0.6249391735401600
  0.1272220300702545  0.6899635360394175  0.6249391735401600
  0.1772220300702546  0.6899635360394175  0.6249391735401600
  0.2272220300702545  0.6899635360394175  0.6249391735401600
  0.2772220300702545  0.6899635360394175  0.6249391735401600
  0.3272220300702546  0.6899635360394175  0.6249391735401600
  0.3772220300702545  0.6899635360394175  0.6249391735401600
  0.4272220300702544  0.6899635360394175  0.6249391735401600
  0.4772220300702545  0.6899635360394175  0.6249391735401600
  0.5272220300702545  0.6899635360394175  0.6249391735401600
  0.5772220300702545  0.6899635360394175  0.6249391735401600
  0.6272220300702545  0.6899635360394175  0.6249391735401600
  0.6772220300702546  0.6899635360394175  0.6249391735401600
  0.7272220300702547  0.6899635360394175  0.6249391735401600
  0.7772220300702547  0.6899635360394175  0.6249391735401600
  0.8272220300702545  0.6899635360394175  0.6249391735401600
  0.8772220300702546  0.6899635360394175  0.6249391735401600
  0.9272220300702546  0.6899635360394175  0.6249391735401600
  0.9772220300702547  0.6899635360394175  0.6249391735401600
  0.0272220300702545  0.7399635360394176  0.6249391735401600
  0.0772220300702546  0.7399635360394176  0.6249391735401600
  0.1272220300702545  0.7399635360394176  0.6249391735401600
  0.1772220300702545  0.7399635360394176  0.6249391735401600
  0.2272220300702546  0.7399635360394176  0.6249391735401600
  0.2772220300702545  0.7399635360394176  0.6249391735401600
  0.3272220300702546  0.7399635360394176  0.6249391735401600
  0.3772220300702545  0.7399635360394176  0.6249391735401600
  0.4272220300702546  0.7399635360394176  0.6249391735401600
  0.4772220300702545  0.7399635360394176  0.6249391735401600
  0.5272220300702546  0.7399635360394176  0.6249391735401600
  0.5772220300702546  0.7399635360394176  0.6249391735401600
  0.6272220300702545  0.7399635360394176  0.6249391735401600
  0.6772220300702547  0.7399635360394176  0.6249391735401600
  0.7272220300702545  0.7399635360394176  0.6249391735401600
  0.7772220300702546  0.7399635360394176  0.6249391735401600
  0.8272220300702546  0.7399635360394176  0.6249391735401600
  0.8772220300702547  0.7399635360394176  0.6249391735401600
  0.9272220300702545  0.7399635360394176  0.6249391735401600
  0.9772220300702545  0.7399635360394176  0.6249391735401600
  0.0272220300702545  0.7899635360394176  0.6249391735401600
  0.0772220300702545  0.7899635360394176  0.6249391735401600
  0.1272220300702545  0.7899635360394176  0.6249391735401600
  0.1772220300702545  0.7899635360394176  0.6249391735401600
  0.2272220300702546  0.7899635360394176  0.6249391735401600
  0.2772220300702545  0.7899635360394176  0.6249391735401600
  0.3272220300702546  0.7899635360394176  0.6249391735401600
  0.3772220300702545  0.7899635360394176  0.6249391735401600
  0.4272220300702546  0.7899635360394176  0.6249391735401600
  0.4772220300702545  0.7899635360394176  0.6249391735401600
  0.5272220300702545  0.7899635360394176  0.6249391735401600
  0.5772220300702546  0.7899635360394176  0.6249391735401600
  0.6272220300702543  0.7899635360394176  0.6249391735401600
  0.6772220300702546  0.7899635360394176  0.6249391735401600
  0.7272220300702547  0.7899635360394176  0.6249391735401600
  0.7772220300702545  0.7899635360394176  0.6249391735401600
  0.8272220300702545  0.7899635360394176  0.6249391735401600
  0.8772220300702546  0.7899635360394176  0.6249391735401600
  0.9272220300702546  0.7899635360394176  0.6249391735401600
  0.9772220300702544  0.7899635360394176  0.6249391735401600
  0.0272220300702546  0.8399635360394176  0.6249391735401600
  0.0772220300702545  0.8399635360394176  0.6249391735401600
  0.1272220300702545  0.8399635360394176  0.6249391735401600
  0.1772220300702546  0.8399635360394176  0.6249391735401600
  0.2272220300702545  0.8399635360394176  0.6249391735401600
  0.2772220300702546  0.8399635360394176  0.6249391735401600
  0.3272220300702545  0.8399635360394176  0.6249391735401600
  0.3772220300702546  0.8399635360394176  0.6249391735401600
  0.4272220300702545  0.8399635360394176  0.6249391735401600
  0.4772220300702545  0.8399635360394176  0.6249391735401600
  0.5272220300702544  0.8399635360394176  0.6249391735401600
  0.5772220300702546  0.8399635360394176  0.6249391735401600
  0.6272220300702545  0.8399635360394176  0.6249391735401600
  0.6772220300702545  0.8399635360394176  0.6249391735401600
  0.7272220300702545  0.8399635360394176  0.6249391735401600
  0.7772220300702546  0.8399635360394176  0.6249391735401600
  0.8272220300702546  0.8399635360394176  0.6249391735401600
  0.8772220300702545  0.8399635360394176  0.6249391735401600
  0.9272220300702545  0.8399635360394176  0.6249391735401600
  0.9772220300702545  0.8399635360394176  0.6249391735401600
  0.0272220300702546  0.8899635360394176  0.6249391735401600
  0.0772220300702546  0.8899635360394176  0.6249391735401600
  0.1272220300702546  0.8899635360394176  0.6249391735401600
  0.1772220300702546  0.8899635360394176  0.6249391735401600
  0.2272220300702545  0.8899635360394176  0.6249391735401600
  0.2772220300702546  0.8899635360394176  0.6249391735401600
  0.3272220300702546  0.8899635360394176  0.6249391735401600
  0.3772220300702546  0.8899635360394176  0.6249391735401600
  0.4272220300702545  0.8899635360394176  0.6249391735401600
  0.4772220300702545  0.8899635360394176  0.6249391735401600
  0.5272220300702546  0.8899635360394176  0.6249391735401600
  0.5772220300702545  0.8899635360394176  0.6249391735401600
  0.6272220300702546  0.8899635360394176  0.6249391735401600
  0.6772220300702546  0.8899635360394176  0.6249391735401600
  0.7272220300702544  0.8899635360394176  0.6249391735401600
  0.7772220300702545  0.8899635360394176  0.6249391735401600
  0.8272220300702545  0.8899635360394176  0.6249391735401600
  0.8772220300702546  0.8899635360394176  0.6249391735401600
  0.9272220300702544  0.8899635360394176  0.6249391735401600
  0.9772220300702544  0.8899635360394176  0.6249391735401600
  0.0272220300702545  0.9399635360394175  0.6249391735401600
  0.0772220300702546  0.9399635360394175  0.6249391735401600
  0.1272220300702546  0.9399635360394175  0.6249391735401600
  0.1772220300702546  0.9399635360394175  0.6249391735401600
  0.2272220300702546  0.9399635360394175  0.6249391735401600
  0.2772220300702545  0.9399635360394175  0.6249391735401600
  0.3272220300702546  0.9399635360394175  0.6249391735401600
  0.3772220300702545  0.9399635360394175  0.6249391735401600
  0.4272220300702546  0.9399635360394175  0.6249391735401600
  0.4772220300702544  0.9399635360394175  0.6249391735401600
  0.5272220300702545  0.9399635360394175  0.6249391735401600
  0.5772220300702547  0.9399635360394175  0.6249391735401600
  0.6272220300702543  0.9399635360394175  0.6249391735401600
  0.6772220300702546  0.9399635360394175  0.6249391735401600
  0.7272220300702547  0.9399635360394175  0.6249391735401600
  0.7772220300702547  0.9399635360394175  0.6249391735401600
  0.8272220300702545  0.9399635360394175  0.6249391735401600
  0.8772220300702546  0.9399635360394175  0.6249391735401600
  0.9272220300702546  0.9399635360394175  0.6249391735401600
  0.9772220300702547  0.9399635360394175  0.6249391735401600
  0.0272220300702546  0.9899635360394177  0.6249391735401600
  0.0772220300702545  0.9899635360394177  0.6249391735401600
  0.1272220300702546  0.9899635360394177  0.6249391735401600
  0.1772220300702545  0.9899635360394177  0.6249391735401600
  0.2272220300702545  0.9899635360394177  0.6249391735401600
  0.2772220300702546  0.9899635360394177  0.6249391735401600
  0.3272220300702546  0.9899635360394177  0.6249391735401600
  0.3772220300702545  0.9899635360394177  0.6249391735401600
  0.4272220300702545  0.9899635360394177  0.6249391735401600
  0.4772220300702545  0.9899635360394177  0.6249391735401600
  0.5272220300702545  0.9899635360394177  0.6249391735401600
  0.5772220300702545  0.9899635360394177  0.6249391735401600
  0.6272220300702546  0.9899635360394177  0.6249391735401600
  0.6772220300702546  0.9899635360394177  0.6249391735401600
  0.7272220300702544  0.9899635360394177  0.6249391735401600
  0.7772220300702545  0.9899635360394177  0.6249391735401600
  0.8272220300702545  0.9899635360394177  0.6249391735401600
  0.8772220300702546  0.9899635360394177  0.6249391735401600
  0.9272220300702544  0.9899635360394177  0.6249391735401600
  0.9772220300702544  0.9899635360394177  0.6249391735401600
  0.0118105520727085  0.0207867350931930  0.5959276367889000
  0.0618105520727085  0.0207867350931930  0.5959276367889000
  0.1118105520727085  0.0207867350931930  0.5959276367889000
  0.1618105520727085  0.0207867350931930  0.5959276367889000
  0.2118105520727085  0.0207867350931930  0.5959276367889000
  0.2618105520727085  0.0207867350931930  0.5959276367889000
  0.3118105520727085  0.0207867350931930  0.5959276367889000
  0.3618105520727085  0.0207867350931930  0.5959276367889000
  0.4118105520727086  0.0207867350931930  0.5959276367889000
  0.4618105520727085  0.0207867350931930  0.5959276367889000
  0.5118105520727085  0.0207867350931930  0.5959276367889000
  0.5618105520727086  0.0207867350931930  0.5959276367889000
  0.6118105520727086  0.0207867350931930  0.5959276367889000
  0.6618105520727086  0.0207867350931930  0.5959276367889000
  0.7118105520727086  0.0207867350931930  0.5959276367889000
  0.7618105520727085  0.0207867350931930  0.5959276367889000
  0.8118105520727085  0.0207867350931930  0.5959276367889000
  0.8618105520727085  0.0207867350931930  0.5959276367889000
  0.9118105520727084  0.0207867350931930  0.5959276367889000
  0.9618105520727085  0.0207867350931930  0.5959276367889000
  0.0118105520727085  0.0707867350931930  0.5959276367889000
  0.0618105520727085  0.0707867350931930  0.5959276367889000
  0.1118105520727085  0.0707867350931930  0.5959276367889000
  0.1618105520727085  0.0707867350931930  0.5959276367889000
  0.2118105520727085  0.0707867350931930  0.5959276367889000
  0.2618105520727085  0.0707867350931930  0.5959276367889000
  0.3118105520727085  0.0707867350931930  0.5959276367889000
  0.3618105520727085  0.0707867350931930  0.5959276367889000
  0.4118105520727085  0.0707867350931930  0.5959276367889000
  0.4618105520727084  0.0707867350931930  0.5959276367889000
  0.5118105520727085  0.0707867350931930  0.5959276367889000
  0.5618105520727086  0.0707867350931930  0.5959276367889000
  0.6118105520727086  0.0707867350931930  0.5959276367889000
  0.6618105520727086  0.0707867350931930  0.5959276367889000
  0.7118105520727086  0.0707867350931930  0.5959276367889000
  0.7618105520727085  0.0707867350931930  0.5959276367889000
  0.8118105520727085  0.0707867350931930  0.5959276367889000
  0.8618105520727085  0.0707867350931930  0.5959276367889000
  0.9118105520727084  0.0707867350931930  0.5959276367889000
  0.9618105520727085  0.0707867350931930  0.5959276367889000
  0.0118105520727085  0.1207867350931930  0.5959276367889000
  0.0618105520727085  0.1207867350931930  0.5959276367889000
  0.1118105520727085  0.1207867350931930  0.5959276367889000
  0.1618105520727085  0.1207867350931930  0.5959276367889000
  0.2118105520727085  0.1207867350931930  0.5959276367889000
  0.2618105520727085  0.1207867350931930  0.5959276367889000
  0.3118105520727085  0.1207867350931930  0.5959276367889000
  0.3618105520727085  0.1207867350931930  0.5959276367889000
  0.4118105520727086  0.1207867350931930  0.5959276367889000
  0.4618105520727085  0.1207867350931930  0.5959276367889000
  0.5118105520727085  0.1207867350931930  0.5959276367889000
  0.5618105520727085  0.1207867350931930  0.5959276367889000
  0.6118105520727086  0.1207867350931930  0.5959276367889000
  0.6618105520727084  0.1207867350931930  0.5959276367889000
  0.7118105520727086  0.1207867350931930  0.5959276367889000
  0.7618105520727084  0.1207867350931930  0.5959276367889000
  0.8118105520727085  0.1207867350931930  0.5959276367889000
  0.8618105520727084  0.1207867350931930  0.5959276367889000
  0.9118105520727084  0.1207867350931930  0.5959276367889000
  0.9618105520727084  0.1207867350931930  0.5959276367889000
  0.0118105520727085  0.1707867350931930  0.5959276367889000
  0.0618105520727085  0.1707867350931930  0.5959276367889000
  0.1118105520727085  0.1707867350931930  0.5959276367889000
  0.1618105520727085  0.1707867350931930  0.5959276367889000
  0.2118105520727085  0.1707867350931930  0.5959276367889000
  0.2618105520727085  0.1707867350931930  0.5959276367889000
  0.3118105520727085  0.1707867350931930  0.5959276367889000
  0.3618105520727085  0.1707867350931930  0.5959276367889000
  0.4118105520727086  0.1707867350931930  0.5959276367889000
  0.4618105520727085  0.1707867350931930  0.5959276367889000
  0.5118105520727085  0.1707867350931930  0.5959276367889000
  0.5618105520727085  0.1707867350931930  0.5959276367889000
  0.6118105520727086  0.1707867350931930  0.5959276367889000
  0.6618105520727084  0.1707867350931930  0.5959276367889000
  0.7118105520727086  0.1707867350931930  0.5959276367889000
  0.7618105520727084  0.1707867350931930  0.5959276367889000
  0.8118105520727085  0.1707867350931930  0.5959276367889000
  0.8618105520727084  0.1707867350931930  0.5959276367889000
  0.9118105520727084  0.1707867350931930  0.5959276367889000
  0.9618105520727085  0.1707867350931930  0.5959276367889000
  0.0118105520727085  0.2207867350931930  0.5959276367889000
  0.0618105520727085  0.2207867350931930  0.5959276367889000
  0.1118105520727085  0.2207867350931930  0.5959276367889000
  0.1618105520727085  0.2207867350931930  0.5959276367889000
  0.2118105520727085  0.2207867350931930  0.5959276367889000
  0.2618105520727085  0.2207867350931930  0.5959276367889000
  0.3118105520727085  0.2207867350931930  0.5959276367889000
  0.3618105520727085  0.2207867350931930  0.5959276367889000
  0.4118105520727085  0.2207867350931930  0.5959276367889000
  0.4618105520727085  0.2207867350931930  0.5959276367889000
  0.5118105520727085  0.2207867350931930  0.5959276367889000
  0.5618105520727086  0.2207867350931930  0.5959276367889000
  0.6118105520727086  0.2207867350931930  0.5959276367889000
  0.6618105520727086  0.2207867350931930  0.5959276367889000
  0.7118105520727086  0.2207867350931930  0.5959276367889000
  0.7618105520727085  0.2207867350931930  0.5959276367889000
  0.8118105520727085  0.2207867350931930  0.5959276367889000
  0.8618105520727085  0.2207867350931930  0.5959276367889000
  0.9118105520727084  0.2207867350931930  0.5959276367889000
  0.9618105520727085  0.2207867350931930  0.5959276367889000
  0.0118105520727085  0.2707867350931930  0.5959276367889000
  0.0618105520727085  0.2707867350931930  0.5959276367889000
  0.1118105520727085  0.2707867350931930  0.5959276367889000
  0.1618105520727085  0.2707867350931930  0.5959276367889000
  0.2118105520727085  0.2707867350931930  0.5959276367889000
  0.2618105520727085  0.2707867350931930  0.5959276367889000
  0.3118105520727085  0.2707867350931930  0.5959276367889000
  0.3618105520727085  0.2707867350931930  0.5959276367889000
  0.4118105520727085  0.2707867350931930  0.5959276367889000
  0.4618105520727085  0.2707867350931930  0.5959276367889000
  0.5118105520727085  0.2707867350931930  0.5959276367889000
  0.5618105520727086  0.2707867350931930  0.5959276367889000
  0.6118105520727086  0.2707867350931930  0.5959276367889000
  0.6618105520727086  0.2707867350931930  0.5959276367889000
  0.7118105520727086  0.2707867350931930  0.5959276367889000
  0.7618105520727085  0.2707867350931930  0.5959276367889000
  0.8118105520727085  0.2707867350931930  0.5959276367889000
  0.8618105520727085  0.2707867350931930  0.5959276367889000
  0.9118105520727086  0.2707867350931930  0.5959276367889000
  0.9618105520727084  0.2707867350931930  0.5959276367889000
  0.0118105520727085  0.3207867350931930  0.5959276367889000
  0.0618105520727085  0.3207867350931930  0.5959276367889000
  0.1118105520727085  0.3207867350931930  0.5959276367889000
  0.1618105520727085  0.3207867350931930  0.5959276367889000
  0.2118105520727085  0.3207867350931930  0.5959276367889000
  0.2618105520727085  0.3207867350931930  0.5959276367889000
  0.3118105520727085  0.3207867350931930  0.5959276367889000
  0.3618105520727085  0.3207867350931930  0.5959276367889000
  0.4118105520727086  0.3207867350931930  0.5959276367889000
  0.4618105520727086  0.3207867350931930  0.5959276367889000
  0.5118105520727085  0.3207867350931930  0.5959276367889000
  0.5618105520727086  0.3207867350931930  0.5959276367889000
  0.6118105520727086  0.3207867350931930  0.5959276367889000
  0.6618105520727086  0.3207867350931930  0.5959276367889000
  0.7118105520727086  0.3207867350931930  0.5959276367889000
  0.7618105520727085  0.3207867350931930  0.5959276367889000
  0.8118105520727085  0.3207867350931930  0.5959276367889000
  0.8618105520727084  0.3207867350931930  0.5959276367889000
  0.9118105520727084  0.3207867350931930  0.5959276367889000
  0.9618105520727085  0.3207867350931930  0.5959276367889000
  0.0118105520727085  0.3707867350931930  0.5959276367889000
  0.0618105520727085  0.3707867350931930  0.5959276367889000
  0.1118105520727086  0.3707867350931930  0.5959276367889000
  0.1618105520727086  0.3707867350931930  0.5959276367889000
  0.2118105520727085  0.3707867350931930  0.5959276367889000
  0.2618105520727085  0.3707867350931930  0.5959276367889000
  0.3118105520727086  0.3707867350931930  0.5959276367889000
  0.3618105520727085  0.3707867350931930  0.5959276367889000
  0.4118105520727086  0.3707867350931930  0.5959276367889000
  0.4618105520727085  0.3707867350931930  0.5959276367889000
  0.5118105520727086  0.3707867350931930  0.5959276367889000
  0.5618105520727086  0.3707867350931930  0.5959276367889000
  0.6118105520727087  0.3707867350931930  0.5959276367889000
  0.6618105520727086  0.3707867350931930  0.5959276367889000
  0.7118105520727087  0.3707867350931930  0.5959276367889000
  0.7618105520727084  0.3707867350931930  0.5959276367889000
  0.8118105520727085  0.3707867350931930  0.5959276367889000
  0.8618105520727085  0.3707867350931930  0.5959276367889000
  0.9118105520727083  0.3707867350931930  0.5959276367889000
  0.9618105520727084  0.3707867350931930  0.5959276367889000
  0.0118105520727085  0.4207867350931930  0.5959276367889000
  0.0618105520727085  0.4207867350931930  0.5959276367889000
  0.1118105520727085  0.4207867350931930  0.5959276367889000
  0.1618105520727085  0.4207867350931930  0.5959276367889000
  0.2118105520727085  0.4207867350931930  0.5959276367889000
  0.2618105520727084  0.4207867350931930  0.5959276367889000
  0.3118105520727086  0.4207867350931930  0.5959276367889000
  0.3618105520727085  0.4207867350931930  0.5959276367889000
  0.4118105520727086  0.4207867350931930  0.5959276367889000
  0.4618105520727085  0.4207867350931930  0.5959276367889000
  0.5118105520727086  0.4207867350931930  0.5959276367889000
  0.5618105520727086  0.4207867350931930  0.5959276367889000
  0.6118105520727086  0.4207867350931930  0.5959276367889000
  0.6618105520727086  0.4207867350931930  0.5959276367889000
  0.7118105520727086  0.4207867350931930  0.5959276367889000
  0.7618105520727084  0.4207867350931930  0.5959276367889000
  0.8118105520727084  0.4207867350931930  0.5959276367889000
  0.8618105520727084  0.4207867350931930  0.5959276367889000
  0.9118105520727084  0.4207867350931930  0.5959276367889000
  0.9618105520727085  0.4207867350931930  0.5959276367889000
  0.0118105520727085  0.4707867350931931  0.5959276367889000
  0.0618105520727085  0.4707867350931931  0.5959276367889000
  0.1118105520727085  0.4707867350931931  0.5959276367889000
  0.1618105520727085  0.4707867350931931  0.5959276367889000
  0.2118105520727085  0.4707867350931931  0.5959276367889000
  0.2618105520727084  0.4707867350931931  0.5959276367889000
  0.3118105520727085  0.4707867350931931  0.5959276367889000
  0.3618105520727085  0.4707867350931931  0.5959276367889000
  0.4118105520727084  0.4707867350931931  0.5959276367889000
  0.4618105520727085  0.4707867350931931  0.5959276367889000
  0.5118105520727085  0.4707867350931931  0.5959276367889000
  0.5618105520727086  0.4707867350931931  0.5959276367889000
  0.6118105520727086  0.4707867350931931  0.5959276367889000
  0.6618105520727086  0.4707867350931931  0.5959276367889000
  0.7118105520727086  0.4707867350931931  0.5959276367889000
  0.7618105520727084  0.4707867350931931  0.5959276367889000
  0.8118105520727085  0.4707867350931931  0.5959276367889000
  0.8618105520727083  0.4707867350931931  0.5959276367889000
  0.9118105520727083  0.4707867350931931  0.5959276367889000
  0.9618105520727084  0.4707867350931931  0.5959276367889000
  0.0118105520727085  0.5207867350931931  0.5959276367889000
  0.0618105520727085  0.5207867350931931  0.5959276367889000
  0.1118105520727085  0.5207867350931931  0.5959276367889000
  0.1618105520727085  0.5207867350931931  0.5959276367889000
  0.2118105520727085  0.5207867350931931  0.5959276367889000
  0.2618105520727086  0.5207867350931931  0.5959276367889000
  0.3118105520727085  0.5207867350931931  0.5959276367889000
  0.3618105520727086  0.5207867350931931  0.5959276367889000
  0.4118105520727086  0.5207867350931931  0.5959276367889000
  0.4618105520727087  0.5207867350931931  0.5959276367889000
  0.5118105520727085  0.5207867350931931  0.5959276367889000
  0.5618105520727086  0.5207867350931931  0.5959276367889000
  0.6118105520727086  0.5207867350931931  0.5959276367889000
  0.6618105520727086  0.5207867350931931  0.5959276367889000
  0.7118105520727086  0.5207867350931931  0.5959276367889000
  0.7618105520727085  0.5207867350931931  0.5959276367889000
  0.8118105520727086  0.5207867350931931  0.5959276367889000
  0.8618105520727086  0.5207867350931931  0.5959276367889000
  0.9118105520727084  0.5207867350931931  0.5959276367889000
  0.9618105520727085  0.5207867350931931  0.5959276367889000
  0.0118105520727086  0.5707867350931930  0.5959276367889000
  0.0618105520727085  0.5707867350931930  0.5959276367889000
  0.1118105520727085  0.5707867350931930  0.5959276367889000
  0.1618105520727085  0.5707867350931930  0.5959276367889000
  0.2118105520727085  0.5707867350931930  0.5959276367889000
  0.2618105520727085  0.5707867350931930  0.5959276367889000
  0.3118105520727085  0.5707867350931930  0.5959276367889000
  0.3618105520727085  0.5707867350931930  0.5959276367889000
  0.4118105520727085  0.5707867350931930  0.5959276367889000
  0.4618105520727084  0.5707867350931930  0.5959276367889000
  0.5118105520727086  0.5707867350931930  0.5959276367889000
  0.5618105520727086  0.5707867350931930  0.5959276367889000
  0.6118105520727087  0.5707867350931930  0.5959276367889000
  0.6618105520727084  0.5707867350931930  0.5959276367889000
  0.7118105520727087  0.5707867350931930  0.5959276367889000
  0.7618105520727085  0.5707867350931930  0.5959276367889000
  0.8118105520727084  0.5707867350931930  0.5959276367889000
  0.8618105520727084  0.5707867350931930  0.5959276367889000
  0.9118105520727084  0.5707867350931930  0.5959276367889000
  0.9618105520727085  0.5707867350931930  0.5959276367889000
  0.0118105520727086  0.6207867350931930  0.5959276367889000
  0.0618105520727086  0.6207867350931930  0.5959276367889000
  0.1118105520727085  0.6207867350931930  0.5959276367889000
  0.1618105520727085  0.6207867350931930  0.5959276367889000
  0.2118105520727086  0.6207867350931930  0.5959276367889000
  0.2618105520727085  0.6207867350931930  0.5959276367889000
  0.3118105520727085  0.6207867350931930  0.5959276367889000
  0.3618105520727085  0.6207867350931930  0.5959276367889000
  0.4118105520727086  0.6207867350931930  0.5959276367889000
  0.4618105520727085  0.6207867350931930  0.5959276367889000
  0.5118105520727086  0.6207867350931930  0.5959276367889000
  0.5618105520727086  0.6207867350931930  0.5959276367889000
  0.6118105520727087  0.6207867350931930  0.5959276367889000
  0.6618105520727087  0.6207867350931930  0.5959276367889000
  0.7118105520727086  0.6207867350931930  0.5959276367889000
  0.7618105520727086  0.6207867350931930  0.5959276367889000
  0.8118105520727087  0.6207867350931930  0.5959276367889000
  0.8618105520727087  0.6207867350931930  0.5959276367889000
  0.9118105520727086  0.6207867350931930  0.5959276367889000
  0.9618105520727086  0.6207867350931930  0.5959276367889000
  0.0118105520727086  0.6707867350931931  0.5959276367889000
  0.0618105520727086  0.6707867350931931  0.5959276367889000
  0.1118105520727086  0.6707867350931931  0.5959276367889000
  0.1618105520727085  0.6707867350931931  0.5959276367889000
  0.2118105520727086  0.6707867350931931  0.5959276367889000
  0.2618105520727085  0.6707867350931931  0.5959276367889000
  0.3118105520727086  0.6707867350931931  0.5959276367889000
  0.3618105520727086  0.6707867350931931  0.5959276367889000
  0.4118105520727086  0.6707867350931931  0.5959276367889000
  0.4618105520727086  0.6707867350931931  0.5959276367889000
  0.5118105520727086  0.6707867350931931  0.5959276367889000
  0.5618105520727087  0.6707867350931931  0.5959276367889000
  0.6118105520727086  0.6707867350931931  0.5959276367889000
  0.6618105520727087  0.6707867350931931  0.5959276367889000
  0.7118105520727087  0.6707867350931931  0.5959276367889000
  0.7618105520727085  0.6707867350931931  0.5959276367889000
  0.8118105520727086  0.6707867350931931  0.5959276367889000
  0.8618105520727086  0.6707867350931931  0.5959276367889000
  0.9118105520727087  0.6707867350931931  0.5959276367889000
  0.9618105520727085  0.6707867350931931  0.5959276367889000
  0.0118105520727085  0.7207867350931931  0.5959276367889000
  0.0618105520727085  0.7207867350931931  0.5959276367889000
  0.1118105520727086  0.7207867350931931  0.5959276367889000
  0.1618105520727086  0.7207867350931931  0.5959276367889000
  0.2118105520727085  0.7207867350931931  0.5959276367889000
  0.2618105520727085  0.7207867350931931  0.5959276367889000
  0.3118105520727085  0.7207867350931931  0.5959276367889000
  0.3618105520727085  0.7207867350931931  0.5959276367889000
  0.4118105520727086  0.7207867350931931  0.5959276367889000
  0.4618105520727086  0.7207867350931931  0.5959276367889000
  0.5118105520727085  0.7207867350931931  0.5959276367889000
  0.5618105520727086  0.7207867350931931  0.5959276367889000
  0.6118105520727086  0.7207867350931931  0.5959276367889000
  0.6618105520727086  0.7207867350931931  0.5959276367889000
  0.7118105520727086  0.7207867350931931  0.5959276367889000
  0.7618105520727086  0.7207867350931931  0.5959276367889000
  0.8118105520727087  0.7207867350931931  0.5959276367889000
  0.8618105520727085  0.7207867350931931  0.5959276367889000
  0.9118105520727086  0.7207867350931931  0.5959276367889000
  0.9618105520727086  0.7207867350931931  0.5959276367889000
  0.0118105520727085  0.7707867350931931  0.5959276367889000
  0.0618105520727085  0.7707867350931931  0.5959276367889000
  0.1118105520727085  0.7707867350931931  0.5959276367889000
  0.1618105520727086  0.7707867350931931  0.5959276367889000
  0.2118105520727085  0.7707867350931931  0.5959276367889000
  0.2618105520727085  0.7707867350931931  0.5959276367889000
  0.3118105520727086  0.7707867350931931  0.5959276367889000
  0.3618105520727085  0.7707867350931931  0.5959276367889000
  0.4118105520727086  0.7707867350931931  0.5959276367889000
  0.4618105520727085  0.7707867350931931  0.5959276367889000
  0.5118105520727086  0.7707867350931931  0.5959276367889000
  0.5618105520727086  0.7707867350931931  0.5959276367889000
  0.6118105520727086  0.7707867350931931  0.5959276367889000
  0.6618105520727087  0.7707867350931931  0.5959276367889000
  0.7118105520727085  0.7707867350931931  0.5959276367889000
  0.7618105520727085  0.7707867350931931  0.5959276367889000
  0.8118105520727086  0.7707867350931931  0.5959276367889000
  0.8618105520727086  0.7707867350931931  0.5959276367889000
  0.9118105520727084  0.7707867350931931  0.5959276367889000
  0.9618105520727085  0.7707867350931931  0.5959276367889000
  0.0118105520727086  0.8207867350931931  0.5959276367889000
  0.0618105520727085  0.8207867350931931  0.5959276367889000
  0.1118105520727086  0.8207867350931931  0.5959276367889000
  0.1618105520727086  0.8207867350931931  0.5959276367889000
  0.2118105520727086  0.8207867350931931  0.5959276367889000
  0.2618105520727085  0.8207867350931931  0.5959276367889000
  0.3118105520727086  0.8207867350931931  0.5959276367889000
  0.3618105520727085  0.8207867350931931  0.5959276367889000
  0.4118105520727087  0.8207867350931931  0.5959276367889000
  0.4618105520727086  0.8207867350931931  0.5959276367889000
  0.5118105520727086  0.8207867350931931  0.5959276367889000
  0.5618105520727086  0.8207867350931931  0.5959276367889000
  0.6118105520727087  0.8207867350931931  0.5959276367889000
  0.6618105520727086  0.8207867350931931  0.5959276367889000
  0.7118105520727088  0.8207867350931931  0.5959276367889000
  0.7618105520727086  0.8207867350931931  0.5959276367889000
  0.8118105520727085  0.8207867350931931  0.5959276367889000
  0.8618105520727085  0.8207867350931931  0.5959276367889000
  0.9118105520727086  0.8207867350931931  0.5959276367889000
  0.9618105520727086  0.8207867350931931  0.5959276367889000
  0.0118105520727085  0.8707867350931933  0.5959276367889000
  0.0618105520727085  0.8707867350931933  0.5959276367889000
  0.1118105520727086  0.8707867350931933  0.5959276367889000
  0.1618105520727085  0.8707867350931933  0.5959276367889000
  0.2118105520727085  0.8707867350931933  0.5959276367889000
  0.2618105520727085  0.8707867350931933  0.5959276367889000
  0.3118105520727085  0.8707867350931933  0.5959276367889000
  0.3618105520727085  0.8707867350931933  0.5959276367889000
  0.4118105520727085  0.8707867350931933  0.5959276367889000
  0.4618105520727085  0.8707867350931933  0.5959276367889000
  0.5118105520727085  0.8707867350931933  0.5959276367889000
  0.5618105520727086  0.8707867350931933  0.5959276367889000
  0.6118105520727088  0.8707867350931933  0.5959276367889000
  0.6618105520727084  0.8707867350931933  0.5959276367889000
  0.7118105520727087  0.8707867350931933  0.5959276367889000
  0.7618105520727085  0.8707867350931933  0.5959276367889000
  0.8118105520727086  0.8707867350931933  0.5959276367889000
  0.8618105520727084  0.8707867350931933  0.5959276367889000
  0.9118105520727084  0.8707867350931933  0.5959276367889000
  0.9618105520727085  0.8707867350931933  0.5959276367889000
  0.0118105520727085  0.9207867350931931  0.5959276367889000
  0.0618105520727085  0.9207867350931931  0.5959276367889000
  0.1118105520727085  0.9207867350931931  0.5959276367889000
  0.1618105520727086  0.9207867350931931  0.5959276367889000
  0.2118105520727085  0.9207867350931931  0.5959276367889000
  0.2618105520727086  0.9207867350931931  0.5959276367889000
  0.3118105520727085  0.9207867350931931  0.5959276367889000
  0.3618105520727086  0.9207867350931931  0.5959276367889000
  0.4118105520727086  0.9207867350931931  0.5959276367889000
  0.4618105520727087  0.9207867350931931  0.5959276367889000
  0.5118105520727085  0.9207867350931931  0.5959276367889000
  0.5618105520727085  0.9207867350931931  0.5959276367889000
  0.6118105520727087  0.9207867350931931  0.5959276367889000
  0.6618105520727086  0.9207867350931931  0.5959276367889000
  0.7118105520727088  0.9207867350931931  0.5959276367889000
  0.7618105520727084  0.9207867350931931  0.5959276367889000
  0.8118105520727085  0.9207867350931931  0.5959276367889000
  0.8618105520727085  0.9207867350931931  0.5959276367889000
  0.9118105520727086  0.9207867350931931  0.5959276367889000
  0.9618105520727084  0.9207867350931931  0.5959276367889000
  0.0118105520727086  0.9707867350931931  0.5959276367889000
  0.0618105520727086  0.9707867350931931  0.5959276367889000
  0.1118105520727086  0.9707867350931931  0.5959276367889000
  0.1618105520727086  0.9707867350931931  0.5959276367889000
  0.2118105520727085  0.9707867350931931  0.5959276367889000
  0.2618105520727086  0.9707867350931931  0.5959276367889000
  0.3118105520727085  0.9707867350931931  0.5959276367889000
  0.3618105520727086  0.9707867350931931  0.5959276367889000
  0.4118105520727086  0.9707867350931931  0.5959276367889000
  0.4618105520727087  0.9707867350931931  0.5959276367889000
  0.5118105520727085  0.9707867350931931  0.5959276367889000
  0.5618105520727086  0.9707867350931931  0.5959276367889000
  0.6118105520727086  0.9707867350931931  0.5959276367889000
  0.6618105520727084  0.9707867350931931  0.5959276367889000
  0.7118105520727087  0.9707867350931931  0.5959276367889000
  0.7618105520727085  0.9707867350931931  0.5959276367889000
  0.8118105520727084  0.9707867350931931  0.5959276367889000
  0.8618105520727084  0.9707867350931931  0.5959276367889000
  0.9118105520727084  0.9707867350931931  0.5959276367889000
  0.9618105520727085  0.9707867350931931  0.5959276367889000
  0.0058362314506880  0.0336481495500265  0.4222107301842400
  0.0558362314506880  0.0336481495500265  0.4222107301842400
  0.1058362314506880  0.0336481495500265  0.4222107301842400
  0.1558362314506880  0.0336481495500265  0.4222107301842400
  0.2058362314506880  0.0336481495500265  0.4222107301842400
  0.2558362314506881  0.0336481495500265  0.4222107301842400
  0.3058362314506881  0.0336481495500265  0.4222107301842400
  0.3558362314506880  0.0336481495500265  0.4222107301842400
  0.4058362314506881  0.0336481495500265  0.4222107301842400
  0.4558362314506880  0.0336481495500265  0.4222107301842400
  0.5058362314506880  0.0336481495500265  0.4222107301842400
  0.5558362314506881  0.0336481495500265  0.4222107301842400
  0.6058362314506880  0.0336481495500265  0.4222107301842400
  0.6558362314506880  0.0336481495500265  0.4222107301842400
  0.7058362314506881  0.0336481495500265  0.4222107301842400
  0.7558362314506880  0.0336481495500265  0.4222107301842400
  0.8058362314506881  0.0336481495500265  0.4222107301842400
  0.8558362314506880  0.0336481495500265  0.4222107301842400
  0.9058362314506880  0.0336481495500265  0.4222107301842400
  0.9558362314506881  0.0336481495500265  0.4222107301842400
  0.0058362314506880  0.0836481495500265  0.4222107301842400
  0.0558362314506880  0.0836481495500265  0.4222107301842400
  0.1058362314506880  0.0836481495500265  0.4222107301842400
  0.1558362314506880  0.0836481495500265  0.4222107301842400
  0.2058362314506880  0.0836481495500265  0.4222107301842400
  0.2558362314506880  0.0836481495500265  0.4222107301842400
  0.3058362314506880  0.0836481495500265  0.4222107301842400
  0.3558362314506880  0.0836481495500265  0.4222107301842400
  0.4058362314506880  0.0836481495500265  0.4222107301842400
  0.4558362314506881  0.0836481495500265  0.4222107301842400
  0.5058362314506880  0.0836481495500265  0.4222107301842400
  0.5558362314506881  0.0836481495500265  0.4222107301842400
  0.6058362314506880  0.0836481495500265  0.4222107301842400
  0.6558362314506880  0.0836481495500265  0.4222107301842400
  0.7058362314506881  0.0836481495500265  0.4222107301842400
  0.7558362314506880  0.0836481495500265  0.4222107301842400
  0.8058362314506881  0.0836481495500265  0.4222107301842400
  0.8558362314506880  0.0836481495500265  0.4222107301842400
  0.9058362314506881  0.0836481495500265  0.4222107301842400
  0.9558362314506881  0.0836481495500265  0.4222107301842400
  0.0058362314506880  0.1336481495500265  0.4222107301842400
  0.0558362314506880  0.1336481495500265  0.4222107301842400
  0.1058362314506880  0.1336481495500265  0.4222107301842400
  0.1558362314506880  0.1336481495500265  0.4222107301842400
  0.2058362314506880  0.1336481495500265  0.4222107301842400
  0.2558362314506880  0.1336481495500265  0.4222107301842400
  0.3058362314506880  0.1336481495500265  0.4222107301842400
  0.3558362314506880  0.1336481495500265  0.4222107301842400
  0.4058362314506881  0.1336481495500265  0.4222107301842400
  0.4558362314506881  0.1336481495500265  0.4222107301842400
  0.5058362314506879  0.1336481495500265  0.4222107301842400
  0.5558362314506881  0.1336481495500265  0.4222107301842400
  0.6058362314506879  0.1336481495500265  0.4222107301842400
  0.6558362314506880  0.1336481495500265  0.4222107301842400
  0.7058362314506880  0.1336481495500265  0.4222107301842400
  0.7558362314506880  0.1336481495500265  0.4222107301842400
  0.8058362314506879  0.1336481495500265  0.4222107301842400
  0.8558362314506880  0.1336481495500265  0.4222107301842400
  0.9058362314506880  0.1336481495500265  0.4222107301842400
  0.9558362314506880  0.1336481495500265  0.4222107301842400
  0.0058362314506880  0.1836481495500265  0.4222107301842400
  0.0558362314506880  0.1836481495500265  0.4222107301842400
  0.1058362314506880  0.1836481495500265  0.4222107301842400
  0.1558362314506880  0.1836481495500265  0.4222107301842400
  0.2058362314506880  0.1836481495500265  0.4222107301842400
  0.2558362314506881  0.1836481495500265  0.4222107301842400
  0.3058362314506881  0.1836481495500265  0.4222107301842400
  0.3558362314506880  0.1836481495500265  0.4222107301842400
  0.4058362314506881  0.1836481495500265  0.4222107301842400
  0.4558362314506881  0.1836481495500265  0.4222107301842400
  0.5058362314506879  0.1836481495500265  0.4222107301842400
  0.5558362314506881  0.1836481495500265  0.4222107301842400
  0.6058362314506879  0.1836481495500265  0.4222107301842400
  0.6558362314506880  0.1836481495500265  0.4222107301842400
  0.7058362314506880  0.1836481495500265  0.4222107301842400
  0.7558362314506880  0.1836481495500265  0.4222107301842400
  0.8058362314506879  0.1836481495500265  0.4222107301842400
  0.8558362314506881  0.1836481495500265  0.4222107301842400
  0.9058362314506880  0.1836481495500265  0.4222107301842400
  0.9558362314506881  0.1836481495500265  0.4222107301842400
  0.0058362314506880  0.2336481495500265  0.4222107301842400
  0.0558362314506880  0.2336481495500265  0.4222107301842400
  0.1058362314506880  0.2336481495500265  0.4222107301842400
  0.1558362314506880  0.2336481495500265  0.4222107301842400
  0.2058362314506880  0.2336481495500265  0.4222107301842400
  0.2558362314506880  0.2336481495500265  0.4222107301842400
  0.3058362314506880  0.2336481495500265  0.4222107301842400
  0.3558362314506880  0.2336481495500265  0.4222107301842400
  0.4058362314506881  0.2336481495500265  0.4222107301842400
  0.4558362314506880  0.2336481495500265  0.4222107301842400
  0.5058362314506879  0.2336481495500265  0.4222107301842400
  0.5558362314506879  0.2336481495500265  0.4222107301842400
  0.6058362314506879  0.2336481495500265  0.4222107301842400
  0.6558362314506879  0.2336481495500265  0.4222107301842400
  0.7058362314506880  0.2336481495500265  0.4222107301842400
  0.7558362314506879  0.2336481495500265  0.4222107301842400
  0.8058362314506879  0.2336481495500265  0.4222107301842400
  0.8558362314506880  0.2336481495500265  0.4222107301842400
  0.9058362314506879  0.2336481495500265  0.4222107301842400
  0.9558362314506880  0.2336481495500265  0.4222107301842400
  0.0058362314506880  0.2836481495500265  0.4222107301842400
  0.0558362314506880  0.2836481495500265  0.4222107301842400
  0.1058362314506880  0.2836481495500265  0.4222107301842400
  0.1558362314506881  0.2836481495500265  0.4222107301842400
  0.2058362314506881  0.2836481495500265  0.4222107301842400
  0.2558362314506881  0.2836481495500265  0.4222107301842400
  0.3058362314506881  0.2836481495500265  0.4222107301842400
  0.3558362314506880  0.2836481495500265  0.4222107301842400
  0.4058362314506881  0.2836481495500265  0.4222107301842400
  0.4558362314506880  0.2836481495500265  0.4222107301842400
  0.5058362314506880  0.2836481495500265  0.4222107301842400
  0.5558362314506881  0.2836481495500265  0.4222107301842400
  0.6058362314506880  0.2836481495500265  0.4222107301842400
  0.6558362314506880  0.2836481495500265  0.4222107301842400
  0.7058362314506881  0.2836481495500265  0.4222107301842400
  0.7558362314506880  0.2836481495500265  0.4222107301842400
  0.8058362314506882  0.2836481495500265  0.4222107301842400
  0.8558362314506881  0.2836481495500265  0.4222107301842400
  0.9058362314506881  0.2836481495500265  0.4222107301842400
  0.9558362314506882  0.2836481495500265  0.4222107301842400
  0.0058362314506880  0.3336481495500265  0.4222107301842400
  0.0558362314506880  0.3336481495500265  0.4222107301842400
  0.1058362314506880  0.3336481495500265  0.4222107301842400
  0.1558362314506880  0.3336481495500265  0.4222107301842400
  0.2058362314506880  0.3336481495500265  0.4222107301842400
  0.2558362314506880  0.3336481495500265  0.4222107301842400
  0.3058362314506881  0.3336481495500265  0.4222107301842400
  0.3558362314506880  0.3336481495500265  0.4222107301842400
  0.4058362314506881  0.3336481495500265  0.4222107301842400
  0.4558362314506880  0.3336481495500265  0.4222107301842400
  0.5058362314506881  0.3336481495500265  0.4222107301842400
  0.5558362314506882  0.3336481495500265  0.4222107301842400
  0.6058362314506881  0.3336481495500265  0.4222107301842400
  0.6558362314506881  0.3336481495500265  0.4222107301842400
  0.7058362314506881  0.3336481495500265  0.4222107301842400
  0.7558362314506881  0.3336481495500265  0.4222107301842400
  0.8058362314506881  0.3336481495500265  0.4222107301842400
  0.8558362314506880  0.3336481495500265  0.4222107301842400
  0.9058362314506880  0.3336481495500265  0.4222107301842400
  0.9558362314506881  0.3336481495500265  0.4222107301842400
  0.0058362314506880  0.3836481495500266  0.4222107301842400
  0.0558362314506880  0.3836481495500266  0.4222107301842400
  0.1058362314506880  0.3836481495500266  0.4222107301842400
  0.1558362314506880  0.3836481495500266  0.4222107301842400
  0.2058362314506880  0.3836481495500266  0.4222107301842400
  0.2558362314506881  0.3836481495500266  0.4222107301842400
  0.3058362314506881  0.3836481495500266  0.4222107301842400
  0.3558362314506881  0.3836481495500266  0.4222107301842400
  0.4058362314506880  0.3836481495500266  0.4222107301842400
  0.4558362314506881  0.3836481495500266  0.4222107301842400
  0.5058362314506880  0.3836481495500266  0.4222107301842400
  0.5558362314506882  0.3836481495500266  0.4222107301842400
  0.6058362314506880  0.3836481495500266  0.4222107301842400
  0.6558362314506881  0.3836481495500266  0.4222107301842400
  0.7058362314506881  0.3836481495500266  0.4222107301842400
  0.7558362314506881  0.3836481495500266  0.4222107301842400
  0.8058362314506881  0.3836481495500266  0.4222107301842400
  0.8558362314506881  0.3836481495500266  0.4222107301842400
  0.9058362314506881  0.3836481495500266  0.4222107301842400
  0.9558362314506880  0.3836481495500266  0.4222107301842400
  0.0058362314506880  0.4336481495500265  0.4222107301842400
  0.0558362314506880  0.4336481495500265  0.4222107301842400
  0.1058362314506880  0.4336481495500265  0.4222107301842400
  0.1558362314506880  0.4336481495500265  0.4222107301842400
  0.2058362314506880  0.4336481495500265  0.4222107301842400
  0.2558362314506881  0.4336481495500265  0.4222107301842400
  0.3058362314506881  0.4336481495500265  0.4222107301842400
  0.3558362314506881  0.4336481495500265  0.4222107301842400
  0.4058362314506880  0.4336481495500265  0.4222107301842400
  0.4558362314506881  0.4336481495500265  0.4222107301842400
  0.5058362314506880  0.4336481495500265  0.4222107301842400
  0.5558362314506881  0.4336481495500265  0.4222107301842400
  0.6058362314506880  0.4336481495500265  0.4222107301842400
  0.6558362314506880  0.4336481495500265  0.4222107301842400
  0.7058362314506881  0.4336481495500265  0.4222107301842400
  0.7558362314506880  0.4336481495500265  0.4222107301842400
  0.8058362314506879  0.4336481495500265  0.4222107301842400
  0.8558362314506880  0.4336481495500265  0.4222107301842400
  0.9058362314506880  0.4336481495500265  0.4222107301842400
  0.9558362314506881  0.4336481495500265  0.4222107301842400
  0.0058362314506880  0.4836481495500265  0.4222107301842400
  0.0558362314506880  0.4836481495500265  0.4222107301842400
  0.1058362314506880  0.4836481495500265  0.4222107301842400
  0.1558362314506880  0.4836481495500265  0.4222107301842400
  0.2058362314506880  0.4836481495500265  0.4222107301842400
  0.2558362314506881  0.4836481495500265  0.4222107301842400
  0.3058362314506881  0.4836481495500265  0.4222107301842400
  0.3558362314506880  0.4836481495500265  0.4222107301842400
  0.4058362314506880  0.4836481495500265  0.4222107301842400
  0.4558362314506880  0.4836481495500265  0.4222107301842400
  0.5058362314506880  0.4836481495500265  0.4222107301842400
  0.5558362314506881  0.4836481495500265  0.4222107301842400
  0.6058362314506880  0.4836481495500265  0.4222107301842400
  0.6558362314506880  0.4836481495500265  0.4222107301842400
  0.7058362314506881  0.4836481495500265  0.4222107301842400
  0.7558362314506880  0.4836481495500265  0.4222107301842400
  0.8058362314506881  0.4836481495500265  0.4222107301842400
  0.8558362314506881  0.4836481495500265  0.4222107301842400
  0.9058362314506879  0.4836481495500265  0.4222107301842400
  0.9558362314506880  0.4836481495500265  0.4222107301842400
  0.0058362314506880  0.5336481495500265  0.4222107301842400
  0.0558362314506880  0.5336481495500265  0.4222107301842400
  0.1058362314506880  0.5336481495500265  0.4222107301842400
  0.1558362314506880  0.5336481495500265  0.4222107301842400
  0.2058362314506879  0.5336481495500265  0.4222107301842400
  0.2558362314506881  0.5336481495500265  0.4222107301842400
  0.3058362314506881  0.5336481495500265  0.4222107301842400
  0.3558362314506880  0.5336481495500265  0.4222107301842400
  0.4058362314506881  0.5336481495500265  0.4222107301842400
  0.4558362314506880  0.5336481495500265  0.4222107301842400
  0.5058362314506880  0.5336481495500265  0.4222107301842400
  0.5558362314506881  0.5336481495500265  0.4222107301842400
  0.6058362314506880  0.5336481495500265  0.4222107301842400
  0.6558362314506880  0.5336481495500265  0.4222107301842400
  0.7058362314506881  0.5336481495500265  0.4222107301842400
  0.7558362314506881  0.5336481495500265  0.4222107301842400
  0.8058362314506879  0.5336481495500265  0.4222107301842400
  0.8558362314506880  0.5336481495500265  0.4222107301842400
  0.9058362314506880  0.5336481495500265  0.4222107301842400
  0.9558362314506881  0.5336481495500265  0.4222107301842400
  0.0058362314506881  0.5836481495500265  0.4222107301842400
  0.0558362314506880  0.5836481495500265  0.4222107301842400
  0.1058362314506880  0.5836481495500265  0.4222107301842400
  0.1558362314506880  0.5836481495500265  0.4222107301842400
  0.2058362314506881  0.5836481495500265  0.4222107301842400
  0.2558362314506881  0.5836481495500265  0.4222107301842400
  0.3058362314506880  0.5836481495500265  0.4222107301842400
  0.3558362314506880  0.5836481495500265  0.4222107301842400
  0.4058362314506881  0.5836481495500265  0.4222107301842400
  0.4558362314506881  0.5836481495500265  0.4222107301842400
  0.5058362314506879  0.5836481495500265  0.4222107301842400
  0.5558362314506881  0.5836481495500265  0.4222107301842400
  0.6058362314506879  0.5836481495500265  0.4222107301842400
  0.6558362314506880  0.5836481495500265  0.4222107301842400
  0.7058362314506880  0.5836481495500265  0.4222107301842400
  0.7558362314506880  0.5836481495500265  0.4222107301842400
  0.8058362314506881  0.5836481495500265  0.4222107301842400
  0.8558362314506879  0.5836481495500265  0.4222107301842400
  0.9058362314506879  0.5836481495500265  0.4222107301842400
  0.9558362314506882  0.5836481495500265  0.4222107301842400
  0.0058362314506880  0.6336481495500266  0.4222107301842400
  0.0558362314506880  0.6336481495500266  0.4222107301842400
  0.1058362314506880  0.6336481495500266  0.4222107301842400
  0.1558362314506880  0.6336481495500266  0.4222107301842400
  0.2058362314506880  0.6336481495500266  0.4222107301842400
  0.2558362314506881  0.6336481495500266  0.4222107301842400
  0.3058362314506880  0.6336481495500266  0.4222107301842400
  0.3558362314506880  0.6336481495500266  0.4222107301842400
  0.4058362314506881  0.6336481495500266  0.4222107301842400
  0.4558362314506881  0.6336481495500266  0.4222107301842400
  0.5058362314506880  0.6336481495500266  0.4222107301842400
  0.5558362314506882  0.6336481495500266  0.4222107301842400
  0.6058362314506880  0.6336481495500266  0.4222107301842400
  0.6558362314506881  0.6336481495500266  0.4222107301842400
  0.7058362314506882  0.6336481495500266  0.4222107301842400
  0.7558362314506880  0.6336481495500266  0.4222107301842400
  0.8058362314506881  0.6336481495500266  0.4222107301842400
  0.8558362314506881  0.6336481495500266  0.4222107301842400
  0.9058362314506881  0.6336481495500266  0.4222107301842400
  0.9558362314506882  0.6336481495500266  0.4222107301842400
  0.0058362314506880  0.6836481495500266  0.4222107301842400
  0.0558362314506880  0.6836481495500266  0.4222107301842400
  0.1058362314506880  0.6836481495500266  0.4222107301842400
  0.1558362314506880  0.6836481495500266  0.4222107301842400
  0.2058362314506880  0.6836481495500266  0.4222107301842400
  0.2558362314506880  0.6836481495500266  0.4222107301842400
  0.3058362314506880  0.6836481495500266  0.4222107301842400
  0.3558362314506879  0.6836481495500266  0.4222107301842400
  0.4058362314506881  0.6836481495500266  0.4222107301842400
  0.4558362314506880  0.6836481495500266  0.4222107301842400
  0.5058362314506880  0.6836481495500266  0.4222107301842400
  0.5558362314506881  0.6836481495500266  0.4222107301842400
  0.6058362314506881  0.6836481495500266  0.4222107301842400
  0.6558362314506880  0.6836481495500266  0.4222107301842400
  0.7058362314506881  0.6836481495500266  0.4222107301842400
  0.7558362314506881  0.6836481495500266  0.4222107301842400
  0.8058362314506879  0.6836481495500266  0.4222107301842400
  0.8558362314506880  0.6836481495500266  0.4222107301842400
  0.9058362314506880  0.6836481495500266  0.4222107301842400
  0.9558362314506883  0.6836481495500266  0.4222107301842400
  0.0058362314506880  0.7336481495500266  0.4222107301842400
  0.0558362314506880  0.7336481495500266  0.4222107301842400
  0.1058362314506881  0.7336481495500266  0.4222107301842400
  0.1558362314506880  0.7336481495500266  0.4222107301842400
  0.2058362314506881  0.7336481495500266  0.4222107301842400
  0.2558362314506880  0.7336481495500266  0.4222107301842400
  0.3058362314506880  0.7336481495500266  0.4222107301842400
  0.3558362314506879  0.7336481495500266  0.4222107301842400
  0.4058362314506881  0.7336481495500266  0.4222107301842400
  0.4558362314506880  0.7336481495500266  0.4222107301842400
  0.5058362314506880  0.7336481495500266  0.4222107301842400
  0.5558362314506881  0.7336481495500266  0.4222107301842400
  0.6058362314506881  0.7336481495500266  0.4222107301842400
  0.6558362314506881  0.7336481495500266  0.4222107301842400
  0.7058362314506880  0.7336481495500266  0.4222107301842400
  0.7558362314506880  0.7336481495500266  0.4222107301842400
  0.8058362314506881  0.7336481495500266  0.4222107301842400
  0.8558362314506881  0.7336481495500266  0.4222107301842400
  0.9058362314506879  0.7336481495500266  0.4222107301842400
  0.9558362314506882  0.7336481495500266  0.4222107301842400
  0.0058362314506881  0.7836481495500265  0.4222107301842400
  0.0558362314506880  0.7836481495500265  0.4222107301842400
  0.1058362314506881  0.7836481495500265  0.4222107301842400
  0.1558362314506881  0.7836481495500265  0.4222107301842400
  0.2058362314506881  0.7836481495500265  0.4222107301842400
  0.2558362314506881  0.7836481495500265  0.4222107301842400
  0.3058362314506881  0.7836481495500265  0.4222107301842400
  0.3558362314506880  0.7836481495500265  0.4222107301842400
  0.4058362314506881  0.7836481495500265  0.4222107301842400
  0.4558362314506881  0.7836481495500265  0.4222107301842400
  0.5058362314506880  0.7836481495500265  0.4222107301842400
  0.5558362314506881  0.7836481495500265  0.4222107301842400
  0.6058362314506880  0.7836481495500265  0.4222107301842400
  0.6558362314506880  0.7836481495500265  0.4222107301842400
  0.7058362314506881  0.7836481495500265  0.4222107301842400
  0.7558362314506879  0.7836481495500265  0.4222107301842400
  0.8058362314506879  0.7836481495500265  0.4222107301842400
  0.8558362314506880  0.7836481495500265  0.4222107301842400
  0.9058362314506880  0.7836481495500265  0.4222107301842400
  0.9558362314506881  0.7836481495500265  0.4222107301842400
  0.0058362314506881  0.8336481495500266  0.4222107301842400
  0.0558362314506880  0.8336481495500266  0.4222107301842400
  0.1058362314506880  0.8336481495500266  0.4222107301842400
  0.1558362314506881  0.8336481495500266  0.4222107301842400
  0.2058362314506881  0.8336481495500266  0.4222107301842400
  0.2558362314506881  0.8336481495500266  0.4222107301842400
  0.3058362314506881  0.8336481495500266  0.4222107301842400
  0.3558362314506881  0.8336481495500266  0.4222107301842400
  0.4058362314506881  0.8336481495500266  0.4222107301842400
  0.4558362314506882  0.8336481495500266  0.4222107301842400
  0.5058362314506880  0.8336481495500266  0.4222107301842400
  0.5558362314506883  0.8336481495500266  0.4222107301842400
  0.6058362314506881  0.8336481495500266  0.4222107301842400
  0.6558362314506881  0.8336481495500266  0.4222107301842400
  0.7058362314506882  0.8336481495500266  0.4222107301842400
  0.7558362314506882  0.8336481495500266  0.4222107301842400
  0.8058362314506883  0.8336481495500266  0.4222107301842400
  0.8558362314506881  0.8336481495500266  0.4222107301842400
  0.9058362314506881  0.8336481495500266  0.4222107301842400
  0.9558362314506882  0.8336481495500266  0.4222107301842400
  0.0058362314506880  0.8836481495500267  0.4222107301842400
  0.0558362314506880  0.8836481495500267  0.4222107301842400
  0.1058362314506880  0.8836481495500267  0.4222107301842400
  0.1558362314506880  0.8836481495500267  0.4222107301842400
  0.2058362314506880  0.8836481495500267  0.4222107301842400
  0.2558362314506881  0.8836481495500267  0.4222107301842400
  0.3058362314506881  0.8836481495500267  0.4222107301842400
  0.3558362314506881  0.8836481495500267  0.4222107301842400
  0.4058362314506880  0.8836481495500267  0.4222107301842400
  0.4558362314506880  0.8836481495500267  0.4222107301842400
  0.5058362314506880  0.8836481495500267  0.4222107301842400
  0.5558362314506879  0.8836481495500267  0.4222107301842400
  0.6058362314506880  0.8836481495500267  0.4222107301842400
  0.6558362314506880  0.8836481495500267  0.4222107301842400
  0.7058362314506879  0.8836481495500267  0.4222107301842400
  0.7558362314506879  0.8836481495500267  0.4222107301842400
  0.8058362314506879  0.8836481495500267  0.4222107301842400
  0.8558362314506880  0.8836481495500267  0.4222107301842400
  0.9058362314506878  0.8836481495500267  0.4222107301842400
  0.9558362314506881  0.8836481495500267  0.4222107301842400
  0.0058362314506880  0.9336481495500266  0.4222107301842400
  0.0558362314506880  0.9336481495500266  0.4222107301842400
  0.1058362314506880  0.9336481495500266  0.4222107301842400
  0.1558362314506880  0.9336481495500266  0.4222107301842400
  0.2058362314506881  0.9336481495500266  0.4222107301842400
  0.2558362314506880  0.9336481495500266  0.4222107301842400
  0.3058362314506881  0.9336481495500266  0.4222107301842400
  0.3558362314506880  0.9336481495500266  0.4222107301842400
  0.4058362314506881  0.9336481495500266  0.4222107301842400
  0.4558362314506881  0.9336481495500266  0.4222107301842400
  0.5058362314506880  0.9336481495500266  0.4222107301842400
  0.5558362314506883  0.9336481495500266  0.4222107301842400
  0.6058362314506879  0.9336481495500266  0.4222107301842400
  0.6558362314506881  0.9336481495500266  0.4222107301842400
  0.7058362314506882  0.9336481495500266  0.4222107301842400
  0.7558362314506882  0.9336481495500266  0.4222107301842400
  0.8058362314506881  0.9336481495500266  0.4222107301842400
  0.8558362314506881  0.9336481495500266  0.4222107301842400
  0.9058362314506881  0.9336481495500266  0.4222107301842400
  0.9558362314506882  0.9336481495500266  0.4222107301842400
  0.0058362314506881  0.9836481495500267  0.4222107301842400
  0.0558362314506881  0.9836481495500267  0.4222107301842400
  0.1058362314506881  0.9836481495500267  0.4222107301842400
  0.1558362314506881  0.9836481495500267  0.4222107301842400
  0.2058362314506881  0.9836481495500267  0.4222107301842400
  0.2558362314506881  0.9836481495500267  0.4222107301842400
  0.3058362314506881  0.9836481495500267  0.4222107301842400
  0.3558362314506881  0.9836481495500267  0.4222107301842400
  0.4058362314506880  0.9836481495500267  0.4222107301842400
  0.4558362314506882  0.9836481495500267  0.4222107301842400
  0.5058362314506880  0.9836481495500267  0.4222107301842400
  0.5558362314506882  0.9836481495500267  0.4222107301842400
  0.6058362314506880  0.9836481495500267  0.4222107301842400
  0.6558362314506880  0.9836481495500267  0.4222107301842400
  0.7058362314506881  0.9836481495500267  0.4222107301842400
  0.7558362314506881  0.9836481495500267  0.4222107301842400
  0.8058362314506882  0.9836481495500267  0.4222107301842400
  0.8558362314506880  0.9836481495500267  0.4222107301842400
  0.9058362314506880  0.9836481495500267  0.4222107301842400
  0.9558362314506881  0.9836481495500267  0.4222107301842400
  0.0195273619749375  0.0062658091214735  0.4075733843043099
  0.0695273619749375  0.0062658091214735  0.4075733843043099
  0.1195273619749375  0.0062658091214735  0.4075733843043099
  0.1695273619749375  0.0062658091214735  0.4075733843043099
  0.2195273619749375  0.0062658091214735  0.4075733843043099
  0.2695273619749375  0.0062658091214735  0.4075733843043099
  0.3195273619749375  0.0062658091214735  0.4075733843043099
  0.3695273619749375  0.0062658091214735  0.4075733843043099
  0.4195273619749375  0.0062658091214735  0.4075733843043099
  0.4695273619749376  0.0062658091214735  0.4075733843043099
  0.5195273619749375  0.0062658091214735  0.4075733843043099
  0.5695273619749376  0.0062658091214735  0.4075733843043099
  0.6195273619749375  0.0062658091214735  0.4075733843043099
  0.6695273619749376  0.0062658091214735  0.4075733843043099
  0.7195273619749375  0.0062658091214735  0.4075733843043099
  0.7695273619749375  0.0062658091214735  0.4075733843043099
  0.8195273619749376  0.0062658091214735  0.4075733843043099
  0.8695273619749376  0.0062658091214735  0.4075733843043099
  0.9195273619749376  0.0062658091214735  0.4075733843043099
  0.9695273619749375  0.0062658091214735  0.4075733843043099
  0.0195273619749375  0.0562658091214735  0.4075733843043099
  0.0695273619749375  0.0562658091214735  0.4075733843043099
  0.1195273619749375  0.0562658091214735  0.4075733843043099
  0.1695273619749375  0.0562658091214735  0.4075733843043099
  0.2195273619749376  0.0562658091214735  0.4075733843043099
  0.2695273619749375  0.0562658091214735  0.4075733843043099
  0.3195273619749375  0.0562658091214735  0.4075733843043099
  0.3695273619749375  0.0562658091214735  0.4075733843043099
  0.4195273619749375  0.0562658091214735  0.4075733843043099
  0.4695273619749376  0.0562658091214735  0.4075733843043099
  0.5195273619749375  0.0562658091214735  0.4075733843043099
  0.5695273619749375  0.0562658091214735  0.4075733843043099
  0.6195273619749375  0.0562658091214735  0.4075733843043099
  0.6695273619749376  0.0562658091214735  0.4075733843043099
  0.7195273619749375  0.0562658091214735  0.4075733843043099
  0.7695273619749375  0.0562658091214735  0.4075733843043099
  0.8195273619749376  0.0562658091214735  0.4075733843043099
  0.8695273619749376  0.0562658091214735  0.4075733843043099
  0.9195273619749375  0.0562658091214735  0.4075733843043099
  0.9695273619749374  0.0562658091214735  0.4075733843043099
  0.0195273619749375  0.1062658091214735  0.4075733843043099
  0.0695273619749375  0.1062658091214735  0.4075733843043099
  0.1195273619749375  0.1062658091214735  0.4075733843043099
  0.1695273619749375  0.1062658091214735  0.4075733843043099
  0.2195273619749375  0.1062658091214735  0.4075733843043099
  0.2695273619749375  0.1062658091214735  0.4075733843043099
  0.3195273619749375  0.1062658091214735  0.4075733843043099
  0.3695273619749375  0.1062658091214735  0.4075733843043099
  0.4195273619749375  0.1062658091214735  0.4075733843043099
  0.4695273619749375  0.1062658091214735  0.4075733843043099
  0.5195273619749375  0.1062658091214735  0.4075733843043099
  0.5695273619749375  0.1062658091214735  0.4075733843043099
  0.6195273619749375  0.1062658091214735  0.4075733843043099
  0.6695273619749376  0.1062658091214735  0.4075733843043099
  0.7195273619749375  0.1062658091214735  0.4075733843043099
  0.7695273619749375  0.1062658091214735  0.4075733843043099
  0.8195273619749376  0.1062658091214735  0.4075733843043099
  0.8695273619749376  0.1062658091214735  0.4075733843043099
  0.9195273619749376  0.1062658091214735  0.4075733843043099
  0.9695273619749375  0.1062658091214735  0.4075733843043099
  0.0195273619749375  0.1562658091214735  0.4075733843043099
  0.0695273619749375  0.1562658091214735  0.4075733843043099
  0.1195273619749375  0.1562658091214735  0.4075733843043099
  0.1695273619749375  0.1562658091214735  0.4075733843043099
  0.2195273619749375  0.1562658091214735  0.4075733843043099
  0.2695273619749375  0.1562658091214735  0.4075733843043099
  0.3195273619749375  0.1562658091214735  0.4075733843043099
  0.3695273619749375  0.1562658091214735  0.4075733843043099
  0.4195273619749376  0.1562658091214735  0.4075733843043099
  0.4695273619749376  0.1562658091214735  0.4075733843043099
  0.5195273619749374  0.1562658091214735  0.4075733843043099
  0.5695273619749375  0.1562658091214735  0.4075733843043099
  0.6195273619749374  0.1562658091214735  0.4075733843043099
  0.6695273619749376  0.1562658091214735  0.4075733843043099
  0.7195273619749374  0.1562658091214735  0.4075733843043099
  0.7695273619749375  0.1562658091214735  0.4075733843043099
  0.8195273619749375  0.1562658091214735  0.4075733843043099
  0.8695273619749376  0.1562658091214735  0.4075733843043099
  0.9195273619749376  0.1562658091214735  0.4075733843043099
  0.9695273619749376  0.1562658091214735  0.4075733843043099
  0.0195273619749375  0.2062658091214735  0.4075733843043099
  0.0695273619749375  0.2062658091214735  0.4075733843043099
  0.1195273619749375  0.2062658091214735  0.4075733843043099
  0.1695273619749375  0.2062658091214735  0.4075733843043099
  0.2195273619749376  0.2062658091214735  0.4075733843043099
  0.2695273619749375  0.2062658091214735  0.4075733843043099
  0.3195273619749375  0.2062658091214735  0.4075733843043099
  0.3695273619749375  0.2062658091214735  0.4075733843043099
  0.4195273619749375  0.2062658091214735  0.4075733843043099
  0.4695273619749376  0.2062658091214735  0.4075733843043099
  0.5195273619749374  0.2062658091214735  0.4075733843043099
  0.5695273619749375  0.2062658091214735  0.4075733843043099
  0.6195273619749374  0.2062658091214735  0.4075733843043099
  0.6695273619749376  0.2062658091214735  0.4075733843043099
  0.7195273619749374  0.2062658091214735  0.4075733843043099
  0.7695273619749375  0.2062658091214735  0.4075733843043099
  0.8195273619749375  0.2062658091214735  0.4075733843043099
  0.8695273619749375  0.2062658091214735  0.4075733843043099
  0.9195273619749375  0.2062658091214735  0.4075733843043099
  0.9695273619749375  0.2062658091214735  0.4075733843043099
  0.0195273619749375  0.2562658091214735  0.4075733843043099
  0.0695273619749375  0.2562658091214735  0.4075733843043099
  0.1195273619749375  0.2562658091214735  0.4075733843043099
  0.1695273619749375  0.2562658091214735  0.4075733843043099
  0.2195273619749376  0.2562658091214735  0.4075733843043099
  0.2695273619749375  0.2562658091214735  0.4075733843043099
  0.3195273619749375  0.2562658091214735  0.4075733843043099
  0.3695273619749375  0.2562658091214735  0.4075733843043099
  0.4195273619749375  0.2562658091214735  0.4075733843043099
  0.4695273619749374  0.2562658091214735  0.4075733843043099
  0.5195273619749374  0.2562658091214735  0.4075733843043099
  0.5695273619749374  0.2562658091214735  0.4075733843043099
  0.6195273619749374  0.2562658091214735  0.4075733843043099
  0.6695273619749375  0.2562658091214735  0.4075733843043099
  0.7195273619749374  0.2562658091214735  0.4075733843043099
  0.7695273619749374  0.2562658091214735  0.4075733843043099
  0.8195273619749376  0.2562658091214735  0.4075733843043099
  0.8695273619749375  0.2562658091214735  0.4075733843043099
  0.9195273619749376  0.2562658091214735  0.4075733843043099
  0.9695273619749376  0.2562658091214735  0.4075733843043099
  0.0195273619749375  0.3062658091214736  0.4075733843043099
  0.0695273619749375  0.3062658091214736  0.4075733843043099
  0.1195273619749375  0.3062658091214736  0.4075733843043099
  0.1695273619749375  0.3062658091214736  0.4075733843043099
  0.2195273619749375  0.3062658091214736  0.4075733843043099
  0.2695273619749375  0.3062658091214736  0.4075733843043099
  0.3195273619749375  0.3062658091214736  0.4075733843043099
  0.3695273619749375  0.3062658091214736  0.4075733843043099
  0.4195273619749375  0.3062658091214736  0.4075733843043099
  0.4695273619749376  0.3062658091214736  0.4075733843043099
  0.5195273619749375  0.3062658091214736  0.4075733843043099
  0.5695273619749375  0.3062658091214736  0.4075733843043099
  0.6195273619749375  0.3062658091214736  0.4075733843043099
  0.6695273619749376  0.3062658091214736  0.4075733843043099
  0.7195273619749375  0.3062658091214736  0.4075733843043099
  0.7695273619749375  0.3062658091214736  0.4075733843043099
  0.8195273619749376  0.3062658091214736  0.4075733843043099
  0.8695273619749376  0.3062658091214736  0.4075733843043099
  0.9195273619749375  0.3062658091214736  0.4075733843043099
  0.9695273619749375  0.3062658091214736  0.4075733843043099
  0.0195273619749375  0.3562658091214735  0.4075733843043099
  0.0695273619749375  0.3562658091214735  0.4075733843043099
  0.1195273619749375  0.3562658091214735  0.4075733843043099
  0.1695273619749375  0.3562658091214735  0.4075733843043099
  0.2195273619749375  0.3562658091214735  0.4075733843043099
  0.2695273619749375  0.3562658091214735  0.4075733843043099
  0.3195273619749375  0.3562658091214735  0.4075733843043099
  0.3695273619749375  0.3562658091214735  0.4075733843043099
  0.4195273619749375  0.3562658091214735  0.4075733843043099
  0.4695273619749376  0.3562658091214735  0.4075733843043099
  0.5195273619749375  0.3562658091214735  0.4075733843043099
  0.5695273619749376  0.3562658091214735  0.4075733843043099
  0.6195273619749375  0.3562658091214735  0.4075733843043099
  0.6695273619749377  0.3562658091214735  0.4075733843043099
  0.7195273619749375  0.3562658091214735  0.4075733843043099
  0.7695273619749377  0.3562658091214735  0.4075733843043099
  0.8195273619749376  0.3562658091214735  0.4075733843043099
  0.8695273619749376  0.3562658091214735  0.4075733843043099
  0.9195273619749377  0.3562658091214735  0.4075733843043099
  0.9695273619749375  0.3562658091214735  0.4075733843043099
  0.0195273619749375  0.4062658091214735  0.4075733843043099
  0.0695273619749376  0.4062658091214735  0.4075733843043099
  0.1195273619749376  0.4062658091214735  0.4075733843043099
  0.1695273619749376  0.4062658091214735  0.4075733843043099
  0.2195273619749376  0.4062658091214735  0.4075733843043099
  0.2695273619749375  0.4062658091214735  0.4075733843043099
  0.3195273619749375  0.4062658091214735  0.4075733843043099
  0.3695273619749375  0.4062658091214735  0.4075733843043099
  0.4195273619749375  0.4062658091214735  0.4075733843043099
  0.4695273619749376  0.4062658091214735  0.4075733843043099
  0.5195273619749375  0.4062658091214735  0.4075733843043099
  0.5695273619749376  0.4062658091214735  0.4075733843043099
  0.6195273619749375  0.4062658091214735  0.4075733843043099
  0.6695273619749377  0.4062658091214735  0.4075733843043099
  0.7195273619749375  0.4062658091214735  0.4075733843043099
  0.7695273619749377  0.4062658091214735  0.4075733843043099
  0.8195273619749377  0.4062658091214735  0.4075733843043099
  0.8695273619749375  0.4062658091214735  0.4075733843043099
  0.9195273619749376  0.4062658091214735  0.4075733843043099
  0.9695273619749376  0.4062658091214735  0.4075733843043099
  0.0195273619749375  0.4562658091214736  0.4075733843043099
  0.0695273619749375  0.4562658091214736  0.4075733843043099
  0.1195273619749375  0.4562658091214736  0.4075733843043099
  0.1695273619749375  0.4562658091214736  0.4075733843043099
  0.2195273619749376  0.4562658091214736  0.4075733843043099
  0.2695273619749375  0.4562658091214736  0.4075733843043099
  0.3195273619749375  0.4562658091214736  0.4075733843043099
  0.3695273619749375  0.4562658091214736  0.4075733843043099
  0.4195273619749375  0.4562658091214736  0.4075733843043099
  0.4695273619749375  0.4562658091214736  0.4075733843043099
  0.5195273619749375  0.4562658091214736  0.4075733843043099
  0.5695273619749375  0.4562658091214736  0.4075733843043099
  0.6195273619749375  0.4562658091214736  0.4075733843043099
  0.6695273619749376  0.4562658091214736  0.4075733843043099
  0.7195273619749374  0.4562658091214736  0.4075733843043099
  0.7695273619749375  0.4562658091214736  0.4075733843043099
  0.8195273619749376  0.4562658091214736  0.4075733843043099
  0.8695273619749376  0.4562658091214736  0.4075733843043099
  0.9195273619749375  0.4562658091214736  0.4075733843043099
  0.9695273619749375  0.4562658091214736  0.4075733843043099
  0.0195273619749376  0.5062658091214736  0.4075733843043099
  0.0695273619749375  0.5062658091214736  0.4075733843043099
  0.1195273619749375  0.5062658091214736  0.4075733843043099
  0.1695273619749376  0.5062658091214736  0.4075733843043099
  0.2195273619749376  0.5062658091214736  0.4075733843043099
  0.2695273619749375  0.5062658091214736  0.4075733843043099
  0.3195273619749376  0.5062658091214736  0.4075733843043099
  0.3695273619749375  0.5062658091214736  0.4075733843043099
  0.4195273619749376  0.5062658091214736  0.4075733843043099
  0.4695273619749375  0.5062658091214736  0.4075733843043099
  0.5195273619749375  0.5062658091214736  0.4075733843043099
  0.5695273619749375  0.5062658091214736  0.4075733843043099
  0.6195273619749375  0.5062658091214736  0.4075733843043099
  0.6695273619749376  0.5062658091214736  0.4075733843043099
  0.7195273619749376  0.5062658091214736  0.4075733843043099
  0.7695273619749377  0.5062658091214736  0.4075733843043099
  0.8195273619749375  0.5062658091214736  0.4075733843043099
  0.8695273619749377  0.5062658091214736  0.4075733843043099
  0.9195273619749376  0.5062658091214736  0.4075733843043099
  0.9695273619749376  0.5062658091214736  0.4075733843043099
  0.0195273619749375  0.5562658091214735  0.4075733843043099
  0.0695273619749375  0.5562658091214735  0.4075733843043099
  0.1195273619749375  0.5562658091214735  0.4075733843043099
  0.1695273619749375  0.5562658091214735  0.4075733843043099
  0.2195273619749375  0.5562658091214735  0.4075733843043099
  0.2695273619749375  0.5562658091214735  0.4075733843043099
  0.3195273619749375  0.5562658091214735  0.4075733843043099
  0.3695273619749375  0.5562658091214735  0.4075733843043099
  0.4195273619749375  0.5562658091214735  0.4075733843043099
  0.4695273619749376  0.5562658091214735  0.4075733843043099
  0.5195273619749375  0.5562658091214735  0.4075733843043099
  0.5695273619749375  0.5562658091214735  0.4075733843043099
  0.6195273619749375  0.5562658091214735  0.4075733843043099
  0.6695273619749376  0.5562658091214735  0.4075733843043099
  0.7195273619749374  0.5562658091214735  0.4075733843043099
  0.7695273619749375  0.5562658091214735  0.4075733843043099
  0.8195273619749376  0.5562658091214735  0.4075733843043099
  0.8695273619749374  0.5562658091214735  0.4075733843043099
  0.9195273619749375  0.5562658091214735  0.4075733843043099
  0.9695273619749375  0.5562658091214735  0.4075733843043099
  0.0195273619749375  0.6062658091214737  0.4075733843043099
  0.0695273619749375  0.6062658091214737  0.4075733843043099
  0.1195273619749375  0.6062658091214737  0.4075733843043099
  0.1695273619749375  0.6062658091214737  0.4075733843043099
  0.2195273619749375  0.6062658091214737  0.4075733843043099
  0.2695273619749376  0.6062658091214737  0.4075733843043099
  0.3195273619749375  0.6062658091214737  0.4075733843043099
  0.3695273619749376  0.6062658091214737  0.4075733843043099
  0.4195273619749375  0.6062658091214737  0.4075733843043099
  0.4695273619749376  0.6062658091214737  0.4075733843043099
  0.5195273619749374  0.6062658091214737  0.4075733843043099
  0.5695273619749375  0.6062658091214737  0.4075733843043099
  0.6195273619749374  0.6062658091214737  0.4075733843043099
  0.6695273619749376  0.6062658091214737  0.4075733843043099
  0.7195273619749376  0.6062658091214737  0.4075733843043099
  0.7695273619749374  0.6062658091214737  0.4075733843043099
  0.8195273619749375  0.6062658091214737  0.4075733843043099
  0.8695273619749377  0.6062658091214737  0.4075733843043099
  0.9195273619749376  0.6062658091214737  0.4075733843043099
  0.9695273619749374  0.6062658091214737  0.4075733843043099
  0.0195273619749375  0.6562658091214736  0.4075733843043099
  0.0695273619749375  0.6562658091214736  0.4075733843043099
  0.1195273619749375  0.6562658091214736  0.4075733843043099
  0.1695273619749375  0.6562658091214736  0.4075733843043099
  0.2195273619749375  0.6562658091214736  0.4075733843043099
  0.2695273619749376  0.6562658091214736  0.4075733843043099
  0.3195273619749375  0.6562658091214736  0.4075733843043099
  0.3695273619749376  0.6562658091214736  0.4075733843043099
  0.4195273619749375  0.6562658091214736  0.4075733843043099
  0.4695273619749377  0.6562658091214736  0.4075733843043099
  0.5195273619749375  0.6562658091214736  0.4075733843043099
  0.5695273619749376  0.6562658091214736  0.4075733843043099
  0.6195273619749375  0.6562658091214736  0.4075733843043099
  0.6695273619749375  0.6562658091214736  0.4075733843043099
  0.7195273619749375  0.6562658091214736  0.4075733843043099
  0.7695273619749375  0.6562658091214736  0.4075733843043099
  0.8195273619749374  0.6562658091214736  0.4075733843043099
  0.8695273619749376  0.6562658091214736  0.4075733843043099
  0.9195273619749375  0.6562658091214736  0.4075733843043099
  0.9695273619749375  0.6562658091214736  0.4075733843043099
  0.0195273619749375  0.7062658091214735  0.4075733843043099
  0.0695273619749376  0.7062658091214735  0.4075733843043099
  0.1195273619749375  0.7062658091214735  0.4075733843043099
  0.1695273619749376  0.7062658091214735  0.4075733843043099
  0.2195273619749376  0.7062658091214735  0.4075733843043099
  0.2695273619749375  0.7062658091214735  0.4075733843043099
  0.3195273619749376  0.7062658091214735  0.4075733843043099
  0.3695273619749375  0.7062658091214735  0.4075733843043099
  0.4195273619749376  0.7062658091214735  0.4075733843043099
  0.4695273619749375  0.7062658091214735  0.4075733843043099
  0.5195273619749375  0.7062658091214735  0.4075733843043099
  0.5695273619749375  0.7062658091214735  0.4075733843043099
  0.6195273619749376  0.7062658091214735  0.4075733843043099
  0.6695273619749377  0.7062658091214735  0.4075733843043099
  0.7195273619749375  0.7062658091214735  0.4075733843043099
  0.7695273619749375  0.7062658091214735  0.4075733843043099
  0.8195273619749376  0.7062658091214735  0.4075733843043099
  0.8695273619749379  0.7062658091214735  0.4075733843043099
  0.9195273619749375  0.7062658091214735  0.4075733843043099
  0.9695273619749375  0.7062658091214735  0.4075733843043099
  0.0195273619749375  0.7562658091214737  0.4075733843043099
  0.0695273619749375  0.7562658091214737  0.4075733843043099
  0.1195273619749375  0.7562658091214737  0.4075733843043099
  0.1695273619749375  0.7562658091214737  0.4075733843043099
  0.2195273619749376  0.7562658091214737  0.4075733843043099
  0.2695273619749375  0.7562658091214737  0.4075733843043099
  0.3195273619749375  0.7562658091214737  0.4075733843043099
  0.3695273619749375  0.7562658091214737  0.4075733843043099
  0.4195273619749375  0.7562658091214737  0.4075733843043099
  0.4695273619749376  0.7562658091214737  0.4075733843043099
  0.5195273619749377  0.7562658091214737  0.4075733843043099
  0.5695273619749376  0.7562658091214737  0.4075733843043099
  0.6195273619749376  0.7562658091214737  0.4075733843043099
  0.6695273619749376  0.7562658091214737  0.4075733843043099
  0.7195273619749376  0.7562658091214737  0.4075733843043099
  0.7695273619749377  0.7562658091214737  0.4075733843043099
  0.8195273619749375  0.7562658091214737  0.4075733843043099
  0.8695273619749377  0.7562658091214737  0.4075733843043099
  0.9195273619749376  0.7562658091214737  0.4075733843043099
  0.9695273619749376  0.7562658091214737  0.4075733843043099
  0.0195273619749375  0.8062658091214735  0.4075733843043099
  0.0695273619749375  0.8062658091214735  0.4075733843043099
  0.1195273619749375  0.8062658091214735  0.4075733843043099
  0.1695273619749376  0.8062658091214735  0.4075733843043099
  0.2195273619749375  0.8062658091214735  0.4075733843043099
  0.2695273619749375  0.8062658091214735  0.4075733843043099
  0.3195273619749375  0.8062658091214735  0.4075733843043099
  0.3695273619749375  0.8062658091214735  0.4075733843043099
  0.4195273619749375  0.8062658091214735  0.4075733843043099
  0.4695273619749375  0.8062658091214735  0.4075733843043099
  0.5195273619749374  0.8062658091214735  0.4075733843043099
  0.5695273619749376  0.8062658091214735  0.4075733843043099
  0.6195273619749376  0.8062658091214735  0.4075733843043099
  0.6695273619749375  0.8062658091214735  0.4075733843043099
  0.7195273619749375  0.8062658091214735  0.4075733843043099
  0.7695273619749375  0.8062658091214735  0.4075733843043099
  0.8195273619749376  0.8062658091214735  0.4075733843043099
  0.8695273619749376  0.8062658091214735  0.4075733843043099
  0.9195273619749375  0.8062658091214735  0.4075733843043099
  0.9695273619749375  0.8062658091214735  0.4075733843043099
  0.0195273619749376  0.8562658091214734  0.4075733843043099
  0.0695273619749376  0.8562658091214734  0.4075733843043099
  0.1195273619749375  0.8562658091214734  0.4075733843043099
  0.1695273619749376  0.8562658091214734  0.4075733843043099
  0.2195273619749376  0.8562658091214734  0.4075733843043099
  0.2695273619749377  0.8562658091214734  0.4075733843043099
  0.3195273619749376  0.8562658091214734  0.4075733843043099
  0.3695273619749376  0.8562658091214734  0.4075733843043099
  0.4195273619749376  0.8562658091214734  0.4075733843043099
  0.4695273619749376  0.8562658091214734  0.4075733843043099
  0.5195273619749377  0.8562658091214734  0.4075733843043099
  0.5695273619749377  0.8562658091214734  0.4075733843043099
  0.6195273619749376  0.8562658091214734  0.4075733843043099
  0.6695273619749377  0.8562658091214734  0.4075733843043099
  0.7195273619749377  0.8562658091214734  0.4075733843043099
  0.7695273619749375  0.8562658091214734  0.4075733843043099
  0.8195273619749376  0.8562658091214734  0.4075733843043099
  0.8695273619749379  0.8562658091214734  0.4075733843043099
  0.9195273619749377  0.8562658091214734  0.4075733843043099
  0.9695273619749375  0.8562658091214734  0.4075733843043099
  0.0195273619749375  0.9062658091214736  0.4075733843043099
  0.0695273619749375  0.9062658091214736  0.4075733843043099
  0.1195273619749374  0.9062658091214736  0.4075733843043099
  0.1695273619749375  0.9062658091214736  0.4075733843043099
  0.2195273619749376  0.9062658091214736  0.4075733843043099
  0.2695273619749375  0.9062658091214736  0.4075733843043099
  0.3195273619749375  0.9062658091214736  0.4075733843043099
  0.3695273619749375  0.9062658091214736  0.4075733843043099
  0.4195273619749375  0.9062658091214736  0.4075733843043099
  0.4695273619749374  0.9062658091214736  0.4075733843043099
  0.5195273619749375  0.9062658091214736  0.4075733843043099
  0.5695273619749376  0.9062658091214736  0.4075733843043099
  0.6195273619749374  0.9062658091214736  0.4075733843043099
  0.6695273619749375  0.9062658091214736  0.4075733843043099
  0.7195273619749375  0.9062658091214736  0.4075733843043099
  0.7695273619749375  0.9062658091214736  0.4075733843043099
  0.8195273619749374  0.9062658091214736  0.4075733843043099
  0.8695273619749376  0.9062658091214736  0.4075733843043099
  0.9195273619749375  0.9062658091214736  0.4075733843043099
  0.9695273619749375  0.9062658091214736  0.4075733843043099
  0.0195273619749376  0.9562658091214736  0.4075733843043099
  0.0695273619749375  0.9562658091214736  0.4075733843043099
  0.1195273619749376  0.9562658091214736  0.4075733843043099
  0.1695273619749375  0.9562658091214736  0.4075733843043099
  0.2195273619749376  0.9562658091214736  0.4075733843043099
  0.2695273619749375  0.9562658091214736  0.4075733843043099
  0.3195273619749375  0.9562658091214736  0.4075733843043099
  0.3695273619749375  0.9562658091214736  0.4075733843043099
  0.4195273619749375  0.9562658091214736  0.4075733843043099
  0.4695273619749376  0.9562658091214736  0.4075733843043099
  0.5195273619749375  0.9562658091214736  0.4075733843043099
  0.5695273619749375  0.9562658091214736  0.4075733843043099
  0.6195273619749375  0.9562658091214736  0.4075733843043099
  0.6695273619749376  0.9562658091214736  0.4075733843043099
  0.7195273619749374  0.9562658091214736  0.4075733843043099
  0.7695273619749374  0.9562658091214736  0.4075733843043099
  0.8195273619749375  0.9562658091214736  0.4075733843043099
  0.8695273619749377  0.9562658091214736  0.4075733843043099
  0.9195273619749373  0.9562658091214736  0.4075733843043099
  0.9695273619749374  0.9562658091214736  0.4075733843043099
  0.0342045864911375  0.0269114477619460  0.3563998703220700
  0.0842045864911375  0.0269114477619460  0.3563998703220700
  0.1342045864911375  0.0269114477619460  0.3563998703220700
  0.1842045864911375  0.0269114477619460  0.3563998703220700
  0.2342045864911375  0.0269114477619460  0.3563998703220700
  0.2842045864911375  0.0269114477619460  0.3563998703220700
  0.3342045864911375  0.0269114477619460  0.3563998703220700
  0.3842045864911375  0.0269114477619460  0.3563998703220700
  0.4342045864911375  0.0269114477619460  0.3563998703220700
  0.4842045864911375  0.0269114477619460  0.3563998703220700
  0.5342045864911376  0.0269114477619460  0.3563998703220700
  0.5842045864911375  0.0269114477619460  0.3563998703220700
  0.6342045864911374  0.0269114477619460  0.3563998703220700
  0.6842045864911376  0.0269114477619460  0.3563998703220700
  0.7342045864911374  0.0269114477619460  0.3563998703220700
  0.7842045864911376  0.0269114477619460  0.3563998703220700
  0.8342045864911376  0.0269114477619460  0.3563998703220700
  0.8842045864911375  0.0269114477619460  0.3563998703220700
  0.9342045864911376  0.0269114477619460  0.3563998703220700
  0.9842045864911376  0.0269114477619460  0.3563998703220700
  0.0342045864911375  0.0769114477619460  0.3563998703220700
  0.0842045864911375  0.0769114477619460  0.3563998703220700
  0.1342045864911375  0.0769114477619460  0.3563998703220700
  0.1842045864911375  0.0769114477619460  0.3563998703220700
  0.2342045864911375  0.0769114477619460  0.3563998703220700
  0.2842045864911374  0.0769114477619460  0.3563998703220700
  0.3342045864911375  0.0769114477619460  0.3563998703220700
  0.3842045864911375  0.0769114477619460  0.3563998703220700
  0.4342045864911375  0.0769114477619460  0.3563998703220700
  0.4842045864911375  0.0769114477619460  0.3563998703220700
  0.5342045864911376  0.0769114477619460  0.3563998703220700
  0.5842045864911375  0.0769114477619460  0.3563998703220700
  0.6342045864911374  0.0769114477619460  0.3563998703220700
  0.6842045864911376  0.0769114477619460  0.3563998703220700
  0.7342045864911374  0.0769114477619460  0.3563998703220700
  0.7842045864911376  0.0769114477619460  0.3563998703220700
  0.8342045864911376  0.0769114477619460  0.3563998703220700
  0.8842045864911375  0.0769114477619460  0.3563998703220700
  0.9342045864911376  0.0769114477619460  0.3563998703220700
  0.9842045864911376  0.0769114477619460  0.3563998703220700
  0.0342045864911375  0.1269114477619460  0.3563998703220700
  0.0842045864911375  0.1269114477619460  0.3563998703220700
  0.1342045864911375  0.1269114477619460  0.3563998703220700
  0.1842045864911376  0.1269114477619460  0.3563998703220700
  0.2342045864911375  0.1269114477619460  0.3563998703220700
  0.2842045864911375  0.1269114477619460  0.3563998703220700
  0.3342045864911375  0.1269114477619460  0.3563998703220700
  0.3842045864911375  0.1269114477619460  0.3563998703220700
  0.4342045864911375  0.1269114477619460  0.3563998703220700
  0.4842045864911374  0.1269114477619460  0.3563998703220700
  0.5342045864911376  0.1269114477619460  0.3563998703220700
  0.5842045864911374  0.1269114477619460  0.3563998703220700
  0.6342045864911374  0.1269114477619460  0.3563998703220700
  0.6842045864911375  0.1269114477619460  0.3563998703220700
  0.7342045864911374  0.1269114477619460  0.3563998703220700
  0.7842045864911374  0.1269114477619460  0.3563998703220700
  0.8342045864911376  0.1269114477619460  0.3563998703220700
  0.8842045864911375  0.1269114477619460  0.3563998703220700
  0.9342045864911376  0.1269114477619460  0.3563998703220700
  0.9842045864911375  0.1269114477619460  0.3563998703220700
  0.0342045864911375  0.1769114477619460  0.3563998703220700
  0.0842045864911375  0.1769114477619460  0.3563998703220700
  0.1342045864911375  0.1769114477619460  0.3563998703220700
  0.1842045864911376  0.1769114477619460  0.3563998703220700
  0.2342045864911376  0.1769114477619460  0.3563998703220700
  0.2842045864911376  0.1769114477619460  0.3563998703220700
  0.3342045864911375  0.1769114477619460  0.3563998703220700
  0.3842045864911375  0.1769114477619460  0.3563998703220700
  0.4342045864911375  0.1769114477619460  0.3563998703220700
  0.4842045864911375  0.1769114477619460  0.3563998703220700
  0.5342045864911376  0.1769114477619460  0.3563998703220700
  0.5842045864911374  0.1769114477619460  0.3563998703220700
  0.6342045864911374  0.1769114477619460  0.3563998703220700
  0.6842045864911375  0.1769114477619460  0.3563998703220700
  0.7342045864911374  0.1769114477619460  0.3563998703220700
  0.7842045864911374  0.1769114477619460  0.3563998703220700
  0.8342045864911376  0.1769114477619460  0.3563998703220700
  0.8842045864911375  0.1769114477619460  0.3563998703220700
  0.9342045864911376  0.1769114477619460  0.3563998703220700
  0.9842045864911376  0.1769114477619460  0.3563998703220700
  0.0342045864911375  0.2269114477619460  0.3563998703220700
  0.0842045864911375  0.2269114477619460  0.3563998703220700
  0.1342045864911375  0.2269114477619460  0.3563998703220700
  0.1842045864911375  0.2269114477619460  0.3563998703220700
  0.2342045864911375  0.2269114477619460  0.3563998703220700
  0.2842045864911375  0.2269114477619460  0.3563998703220700
  0.3342045864911375  0.2269114477619460  0.3563998703220700
  0.3842045864911376  0.2269114477619460  0.3563998703220700
  0.4342045864911375  0.2269114477619460  0.3563998703220700
  0.4842045864911376  0.2269114477619460  0.3563998703220700
  0.5342045864911376  0.2269114477619460  0.3563998703220700
  0.5842045864911375  0.2269114477619460  0.3563998703220700
  0.6342045864911374  0.2269114477619460  0.3563998703220700
  0.6842045864911376  0.2269114477619460  0.3563998703220700
  0.7342045864911374  0.2269114477619460  0.3563998703220700
  0.7842045864911376  0.2269114477619460  0.3563998703220700
  0.8342045864911375  0.2269114477619460  0.3563998703220700
  0.8842045864911375  0.2269114477619460  0.3563998703220700
  0.9342045864911375  0.2269114477619460  0.3563998703220700
  0.9842045864911375  0.2269114477619460  0.3563998703220700
  0.0342045864911375  0.2769114477619460  0.3563998703220700
  0.0842045864911375  0.2769114477619460  0.3563998703220700
  0.1342045864911375  0.2769114477619460  0.3563998703220700
  0.1842045864911375  0.2769114477619460  0.3563998703220700
  0.2342045864911375  0.2769114477619460  0.3563998703220700
  0.2842045864911375  0.2769114477619460  0.3563998703220700
  0.3342045864911375  0.2769114477619460  0.3563998703220700
  0.3842045864911376  0.2769114477619460  0.3563998703220700
  0.4342045864911375  0.2769114477619460  0.3563998703220700
  0.4842045864911376  0.2769114477619460  0.3563998703220700
  0.5342045864911377  0.2769114477619460  0.3563998703220700
  0.5842045864911376  0.2769114477619460  0.3563998703220700
  0.6342045864911375  0.2769114477619460  0.3563998703220700
  0.6842045864911377  0.2769114477619460  0.3563998703220700
  0.7342045864911375  0.2769114477619460  0.3563998703220700
  0.7842045864911377  0.2769114477619460  0.3563998703220700
  0.8342045864911376  0.2769114477619460  0.3563998703220700
  0.8842045864911376  0.2769114477619460  0.3563998703220700
  0.9342045864911377  0.2769114477619460  0.3563998703220700
  0.9842045864911375  0.2769114477619460  0.3563998703220700
  0.0342045864911375  0.3269114477619461  0.3563998703220700
  0.0842045864911375  0.3269114477619461  0.3563998703220700
  0.1342045864911375  0.3269114477619461  0.3563998703220700
  0.1842045864911376  0.3269114477619461  0.3563998703220700
  0.2342045864911375  0.3269114477619461  0.3563998703220700
  0.2842045864911375  0.3269114477619461  0.3563998703220700
  0.3342045864911375  0.3269114477619461  0.3563998703220700
  0.3842045864911376  0.3269114477619461  0.3563998703220700
  0.4342045864911375  0.3269114477619461  0.3563998703220700
  0.4842045864911376  0.3269114477619461  0.3563998703220700
  0.5342045864911377  0.3269114477619461  0.3563998703220700
  0.5842045864911375  0.3269114477619461  0.3563998703220700
  0.6342045864911375  0.3269114477619461  0.3563998703220700
  0.6842045864911376  0.3269114477619461  0.3563998703220700
  0.7342045864911375  0.3269114477619461  0.3563998703220700
  0.7842045864911376  0.3269114477619461  0.3563998703220700
  0.8342045864911376  0.3269114477619461  0.3563998703220700
  0.8842045864911375  0.3269114477619461  0.3563998703220700
  0.9342045864911376  0.3269114477619461  0.3563998703220700
  0.9842045864911376  0.3269114477619461  0.3563998703220700
  0.0342045864911375  0.3769114477619460  0.3563998703220700
  0.0842045864911376  0.3769114477619460  0.3563998703220700
  0.1342045864911375  0.3769114477619460  0.3563998703220700
  0.1842045864911376  0.3769114477619460  0.3563998703220700
  0.2342045864911376  0.3769114477619460  0.3563998703220700
  0.2842045864911375  0.3769114477619460  0.3563998703220700
  0.3342045864911376  0.3769114477619460  0.3563998703220700
  0.3842045864911375  0.3769114477619460  0.3563998703220700
  0.4342045864911376  0.3769114477619460  0.3563998703220700
  0.4842045864911375  0.3769114477619460  0.3563998703220700
  0.5342045864911377  0.3769114477619460  0.3563998703220700
  0.5842045864911375  0.3769114477619460  0.3563998703220700
  0.6342045864911375  0.3769114477619460  0.3563998703220700
  0.6842045864911376  0.3769114477619460  0.3563998703220700
  0.7342045864911375  0.3769114477619460  0.3563998703220700
  0.7842045864911376  0.3769114477619460  0.3563998703220700
  0.8342045864911376  0.3769114477619460  0.3563998703220700
  0.8842045864911376  0.3769114477619460  0.3563998703220700
  0.9342045864911375  0.3769114477619460  0.3563998703220700
  0.9842045864911375  0.3769114477619460  0.3563998703220700
  0.0342045864911375  0.4269114477619460  0.3563998703220700
  0.0842045864911375  0.4269114477619460  0.3563998703220700
  0.1342045864911375  0.4269114477619460  0.3563998703220700
  0.1842045864911376  0.4269114477619460  0.3563998703220700
  0.2342045864911375  0.4269114477619460  0.3563998703220700
  0.2842045864911374  0.4269114477619460  0.3563998703220700
  0.3342045864911376  0.4269114477619460  0.3563998703220700
  0.3842045864911375  0.4269114477619460  0.3563998703220700
  0.4342045864911376  0.4269114477619460  0.3563998703220700
  0.4842045864911375  0.4269114477619460  0.3563998703220700
  0.5342045864911376  0.4269114477619460  0.3563998703220700
  0.5842045864911375  0.4269114477619460  0.3563998703220700
  0.6342045864911375  0.4269114477619460  0.3563998703220700
  0.6842045864911376  0.4269114477619460  0.3563998703220700
  0.7342045864911374  0.4269114477619460  0.3563998703220700
  0.7842045864911376  0.4269114477619460  0.3563998703220700
  0.8342045864911375  0.4269114477619460  0.3563998703220700
  0.8842045864911375  0.4269114477619460  0.3563998703220700
  0.9342045864911376  0.4269114477619460  0.3563998703220700
  0.9842045864911374  0.4269114477619460  0.3563998703220700
  0.0342045864911375  0.4769114477619461  0.3563998703220700
  0.0842045864911375  0.4769114477619461  0.3563998703220700
  0.1342045864911375  0.4769114477619461  0.3563998703220700
  0.1842045864911376  0.4769114477619461  0.3563998703220700
  0.2342045864911375  0.4769114477619461  0.3563998703220700
  0.2842045864911374  0.4769114477619461  0.3563998703220700
  0.3342045864911375  0.4769114477619461  0.3563998703220700
  0.3842045864911375  0.4769114477619461  0.3563998703220700
  0.4342045864911375  0.4769114477619461  0.3563998703220700
  0.4842045864911375  0.4769114477619461  0.3563998703220700
  0.5342045864911376  0.4769114477619461  0.3563998703220700
  0.5842045864911375  0.4769114477619461  0.3563998703220700
  0.6342045864911374  0.4769114477619461  0.3563998703220700
  0.6842045864911376  0.4769114477619461  0.3563998703220700
  0.7342045864911373  0.4769114477619461  0.3563998703220700
  0.7842045864911376  0.4769114477619461  0.3563998703220700
  0.8342045864911376  0.4769114477619461  0.3563998703220700
  0.8842045864911374  0.4769114477619461  0.3563998703220700
  0.9342045864911375  0.4769114477619461  0.3563998703220700
  0.9842045864911375  0.4769114477619461  0.3563998703220700
  0.0342045864911375  0.5269114477619460  0.3563998703220700
  0.0842045864911375  0.5269114477619460  0.3563998703220700
  0.1342045864911375  0.5269114477619460  0.3563998703220700
  0.1842045864911376  0.5269114477619460  0.3563998703220700
  0.2342045864911375  0.5269114477619460  0.3563998703220700
  0.2842045864911375  0.5269114477619460  0.3563998703220700
  0.3342045864911375  0.5269114477619460  0.3563998703220700
  0.3842045864911376  0.5269114477619460  0.3563998703220700
  0.4342045864911375  0.5269114477619460  0.3563998703220700
  0.4842045864911376  0.5269114477619460  0.3563998703220700
  0.5342045864911377  0.5269114477619460  0.3563998703220700
  0.5842045864911376  0.5269114477619460  0.3563998703220700
  0.6342045864911375  0.5269114477619460  0.3563998703220700
  0.6842045864911377  0.5269114477619460  0.3563998703220700
  0.7342045864911374  0.5269114477619460  0.3563998703220700
  0.7842045864911376  0.5269114477619460  0.3563998703220700
  0.8342045864911376  0.5269114477619460  0.3563998703220700
  0.8842045864911376  0.5269114477619460  0.3563998703220700
  0.9342045864911377  0.5269114477619460  0.3563998703220700
  0.9842045864911375  0.5269114477619460  0.3563998703220700
  0.0342045864911375  0.5769114477619460  0.3563998703220700
  0.0842045864911375  0.5769114477619460  0.3563998703220700
  0.1342045864911375  0.5769114477619460  0.3563998703220700
  0.1842045864911376  0.5769114477619460  0.3563998703220700
  0.2342045864911376  0.5769114477619460  0.3563998703220700
  0.2842045864911375  0.5769114477619460  0.3563998703220700
  0.3342045864911375  0.5769114477619460  0.3563998703220700
  0.3842045864911375  0.5769114477619460  0.3563998703220700
  0.4342045864911375  0.5769114477619460  0.3563998703220700
  0.4842045864911375  0.5769114477619460  0.3563998703220700
  0.5342045864911376  0.5769114477619460  0.3563998703220700
  0.5842045864911374  0.5769114477619460  0.3563998703220700
  0.6342045864911374  0.5769114477619460  0.3563998703220700
  0.6842045864911375  0.5769114477619460  0.3563998703220700
  0.7342045864911375  0.5769114477619460  0.3563998703220700
  0.7842045864911376  0.5769114477619460  0.3563998703220700
  0.8342045864911376  0.5769114477619460  0.3563998703220700
  0.8842045864911374  0.5769114477619460  0.3563998703220700
  0.9342045864911375  0.5769114477619460  0.3563998703220700
  0.9842045864911375  0.5769114477619460  0.3563998703220700
  0.0342045864911375  0.6269114477619461  0.3563998703220700
  0.0842045864911375  0.6269114477619461  0.3563998703220700
  0.1342045864911375  0.6269114477619461  0.3563998703220700
  0.1842045864911376  0.6269114477619461  0.3563998703220700
  0.2342045864911376  0.6269114477619461  0.3563998703220700
  0.2842045864911376  0.6269114477619461  0.3563998703220700
  0.3342045864911376  0.6269114477619461  0.3563998703220700
  0.3842045864911375  0.6269114477619461  0.3563998703220700
  0.4342045864911376  0.6269114477619461  0.3563998703220700
  0.4842045864911375  0.6269114477619461  0.3563998703220700
  0.5342045864911377  0.6269114477619461  0.3563998703220700
  0.5842045864911375  0.6269114477619461  0.3563998703220700
  0.6342045864911376  0.6269114477619461  0.3563998703220700
  0.6842045864911376  0.6269114477619461  0.3563998703220700
  0.7342045864911375  0.6269114477619461  0.3563998703220700
  0.7842045864911376  0.6269114477619461  0.3563998703220700
  0.8342045864911378  0.6269114477619461  0.3563998703220700
  0.8842045864911376  0.6269114477619461  0.3563998703220700
  0.9342045864911375  0.6269114477619461  0.3563998703220700
  0.9842045864911375  0.6269114477619461  0.3563998703220700
  0.0342045864911375  0.6769114477619460  0.3563998703220700
  0.0842045864911375  0.6769114477619460  0.3563998703220700
  0.1342045864911376  0.6769114477619460  0.3563998703220700
  0.1842045864911376  0.6769114477619460  0.3563998703220700
  0.2342045864911375  0.6769114477619460  0.3563998703220700
  0.2842045864911376  0.6769114477619460  0.3563998703220700
  0.3342045864911375  0.6769114477619460  0.3563998703220700
  0.3842045864911375  0.6769114477619460  0.3563998703220700
  0.4342045864911375  0.6769114477619460  0.3563998703220700
  0.4842045864911375  0.6769114477619460  0.3563998703220700
  0.5342045864911376  0.6769114477619460  0.3563998703220700
  0.5842045864911375  0.6769114477619460  0.3563998703220700
  0.6342045864911375  0.6769114477619460  0.3563998703220700
  0.6842045864911376  0.6769114477619460  0.3563998703220700
  0.7342045864911376  0.6769114477619460  0.3563998703220700
  0.7842045864911374  0.6769114477619460  0.3563998703220700
  0.8342045864911377  0.6769114477619460  0.3563998703220700
  0.8842045864911375  0.6769114477619460  0.3563998703220700
  0.9342045864911376  0.6769114477619460  0.3563998703220700
  0.9842045864911374  0.6769114477619460  0.3563998703220700
  0.0342045864911376  0.7269114477619461  0.3563998703220700
  0.0842045864911376  0.7269114477619461  0.3563998703220700
  0.1342045864911375  0.7269114477619461  0.3563998703220700
  0.1842045864911376  0.7269114477619461  0.3563998703220700
  0.2342045864911375  0.7269114477619461  0.3563998703220700
  0.2842045864911376  0.7269114477619461  0.3563998703220700
  0.3342045864911376  0.7269114477619461  0.3563998703220700
  0.3842045864911376  0.7269114477619461  0.3563998703220700
  0.4342045864911376  0.7269114477619461  0.3563998703220700
  0.4842045864911376  0.7269114477619461  0.3563998703220700
  0.5342045864911377  0.7269114477619461  0.3563998703220700
  0.5842045864911376  0.7269114477619461  0.3563998703220700
  0.6342045864911375  0.7269114477619461  0.3563998703220700
  0.6842045864911375  0.7269114477619461  0.3563998703220700
  0.7342045864911375  0.7269114477619461  0.3563998703220700
  0.7842045864911376  0.7269114477619461  0.3563998703220700
  0.8342045864911376  0.7269114477619461  0.3563998703220700
  0.8842045864911374  0.7269114477619461  0.3563998703220700
  0.9342045864911375  0.7269114477619461  0.3563998703220700
  0.9842045864911375  0.7269114477619461  0.3563998703220700
  0.0342045864911375  0.7769114477619461  0.3563998703220700
  0.0842045864911376  0.7769114477619461  0.3563998703220700
  0.1342045864911375  0.7769114477619461  0.3563998703220700
  0.1842045864911376  0.7769114477619461  0.3563998703220700
  0.2342045864911375  0.7769114477619461  0.3563998703220700
  0.2842045864911376  0.7769114477619461  0.3563998703220700
  0.3342045864911375  0.7769114477619461  0.3563998703220700
  0.3842045864911375  0.7769114477619461  0.3563998703220700
  0.4342045864911375  0.7769114477619461  0.3563998703220700
  0.4842045864911375  0.7769114477619461  0.3563998703220700
  0.5342045864911376  0.7769114477619461  0.3563998703220700
  0.5842045864911375  0.7769114477619461  0.3563998703220700
  0.6342045864911375  0.7769114477619461  0.3563998703220700
  0.6842045864911376  0.7769114477619461  0.3563998703220700
  0.7342045864911374  0.7769114477619461  0.3563998703220700
  0.7842045864911374  0.7769114477619461  0.3563998703220700
  0.8342045864911377  0.7769114477619461  0.3563998703220700
  0.8842045864911375  0.7769114477619461  0.3563998703220700
  0.9342045864911374  0.7769114477619461  0.3563998703220700
  0.9842045864911374  0.7769114477619461  0.3563998703220700
  0.0342045864911375  0.8269114477619462  0.3563998703220700
  0.0842045864911375  0.8269114477619462  0.3563998703220700
  0.1342045864911376  0.8269114477619462  0.3563998703220700
  0.1842045864911375  0.8269114477619462  0.3563998703220700
  0.2342045864911376  0.8269114477619462  0.3563998703220700
  0.2842045864911375  0.8269114477619462  0.3563998703220700
  0.3342045864911375  0.8269114477619462  0.3563998703220700
  0.3842045864911375  0.8269114477619462  0.3563998703220700
  0.4342045864911375  0.8269114477619462  0.3563998703220700
  0.4842045864911375  0.8269114477619462  0.3563998703220700
  0.5342045864911378  0.8269114477619462  0.3563998703220700
  0.5842045864911375  0.8269114477619462  0.3563998703220700
  0.6342045864911374  0.8269114477619462  0.3563998703220700
  0.6842045864911377  0.8269114477619462  0.3563998703220700
  0.7342045864911375  0.8269114477619462  0.3563998703220700
  0.7842045864911378  0.8269114477619462  0.3563998703220700
  0.8342045864911376  0.8269114477619462  0.3563998703220700
  0.8842045864911376  0.8269114477619462  0.3563998703220700
  0.9342045864911377  0.8269114477619462  0.3563998703220700
  0.9842045864911377  0.8269114477619462  0.3563998703220700
  0.0342045864911375  0.8769114477619461  0.3563998703220700
  0.0842045864911375  0.8769114477619461  0.3563998703220700
  0.1342045864911376  0.8769114477619461  0.3563998703220700
  0.1842045864911376  0.8769114477619461  0.3563998703220700
  0.2342045864911377  0.8769114477619461  0.3563998703220700
  0.2842045864911376  0.8769114477619461  0.3563998703220700
  0.3342045864911375  0.8769114477619461  0.3563998703220700
  0.3842045864911376  0.8769114477619461  0.3563998703220700
  0.4342045864911375  0.8769114477619461  0.3563998703220700
  0.4842045864911376  0.8769114477619461  0.3563998703220700
  0.5342045864911377  0.8769114477619461  0.3563998703220700
  0.5842045864911375  0.8769114477619461  0.3563998703220700
  0.6342045864911375  0.8769114477619461  0.3563998703220700
  0.6842045864911376  0.8769114477619461  0.3563998703220700
  0.7342045864911374  0.8769114477619461  0.3563998703220700
  0.7842045864911377  0.8769114477619461  0.3563998703220700
  0.8342045864911377  0.8769114477619461  0.3563998703220700
  0.8842045864911375  0.8769114477619461  0.3563998703220700
  0.9342045864911376  0.8769114477619461  0.3563998703220700
  0.9842045864911376  0.8769114477619461  0.3563998703220700
  0.0342045864911375  0.9269114477619461  0.3563998703220700
  0.0842045864911376  0.9269114477619461  0.3563998703220700
  0.1342045864911376  0.9269114477619461  0.3563998703220700
  0.1842045864911376  0.9269114477619461  0.3563998703220700
  0.2342045864911375  0.9269114477619461  0.3563998703220700
  0.2842045864911376  0.9269114477619461  0.3563998703220700
  0.3342045864911375  0.9269114477619461  0.3563998703220700
  0.3842045864911376  0.9269114477619461  0.3563998703220700
  0.4342045864911375  0.9269114477619461  0.3563998703220700
  0.4842045864911376  0.9269114477619461  0.3563998703220700
  0.5342045864911377  0.9269114477619461  0.3563998703220700
  0.5842045864911374  0.9269114477619461  0.3563998703220700
  0.6342045864911374  0.9269114477619461  0.3563998703220700
  0.6842045864911377  0.9269114477619461  0.3563998703220700
  0.7342045864911375  0.9269114477619461  0.3563998703220700
  0.7842045864911376  0.9269114477619461  0.3563998703220700
  0.8342045864911376  0.9269114477619461  0.3563998703220700
  0.8842045864911376  0.9269114477619461  0.3563998703220700
  0.9342045864911377  0.9269114477619461  0.3563998703220700
  0.9842045864911375  0.9269114477619461  0.3563998703220700
  0.0342045864911375  0.9769114477619462  0.3563998703220700
  0.0842045864911375  0.9769114477619462  0.3563998703220700
  0.1342045864911375  0.9769114477619462  0.3563998703220700
  0.1842045864911376  0.9769114477619462  0.3563998703220700
  0.2342045864911376  0.9769114477619462  0.3563998703220700
  0.2842045864911376  0.9769114477619462  0.3563998703220700
  0.3342045864911375  0.9769114477619462  0.3563998703220700
  0.3842045864911376  0.9769114477619462  0.3563998703220700
  0.4342045864911375  0.9769114477619462  0.3563998703220700
  0.4842045864911376  0.9769114477619462  0.3563998703220700
  0.5342045864911377  0.9769114477619462  0.3563998703220700
  0.5842045864911375  0.9769114477619462  0.3563998703220700
  0.6342045864911375  0.9769114477619462  0.3563998703220700
  0.6842045864911376  0.9769114477619462  0.3563998703220700
  0.7342045864911374  0.9769114477619462  0.3563998703220700
  0.7842045864911377  0.9769114477619462  0.3563998703220700
  0.8342045864911375  0.9769114477619462  0.3563998703220700
  0.8842045864911375  0.9769114477619462  0.3563998703220700
  0.9342045864911376  0.9769114477619462  0.3563998703220700
  0.9842045864911376  0.9769114477619462  0.3563998703220700
  0.0054703863868855  0.0334669245993120  0.6436217783747100
  0.0554703863868855  0.0334669245993120  0.6436217783747100
  0.1054703863868855  0.0334669245993120  0.6436217783747100
  0.1554703863868855  0.0334669245993120  0.6436217783747100
  0.2054703863868855  0.0334669245993120  0.6436217783747100
  0.2554703863868855  0.0334669245993120  0.6436217783747100
  0.3054703863868855  0.0334669245993120  0.6436217783747100
  0.3554703863868856  0.0334669245993120  0.6436217783747100
  0.4054703863868855  0.0334669245993120  0.6436217783747100
  0.4554703863868855  0.0334669245993120  0.6436217783747100
  0.5054703863868855  0.0334669245993120  0.6436217783747100
  0.5554703863868854  0.0334669245993120  0.6436217783747100
  0.6054703863868856  0.0334669245993120  0.6436217783747100
  0.6554703863868854  0.0334669245993120  0.6436217783747100
  0.7054703863868855  0.0334669245993120  0.6436217783747100
  0.7554703863868854  0.0334669245993120  0.6436217783747100
  0.8054703863868856  0.0334669245993120  0.6436217783747100
  0.8554703863868856  0.0334669245993120  0.6436217783747100
  0.9054703863868856  0.0334669245993120  0.6436217783747100
  0.9554703863868855  0.0334669245993120  0.6436217783747100
  0.0054703863868855  0.0834669245993120  0.6436217783747100
  0.0554703863868855  0.0834669245993120  0.6436217783747100
  0.1054703863868855  0.0834669245993120  0.6436217783747100
  0.1554703863868855  0.0834669245993120  0.6436217783747100
  0.2054703863868855  0.0834669245993120  0.6436217783747100
  0.2554703863868855  0.0834669245993120  0.6436217783747100
  0.3054703863868855  0.0834669245993120  0.6436217783747100
  0.3554703863868856  0.0834669245993120  0.6436217783747100
  0.4054703863868855  0.0834669245993120  0.6436217783747100
  0.4554703863868855  0.0834669245993120  0.6436217783747100
  0.5054703863868855  0.0834669245993120  0.6436217783747100
  0.5554703863868854  0.0834669245993120  0.6436217783747100
  0.6054703863868856  0.0834669245993120  0.6436217783747100
  0.6554703863868854  0.0834669245993120  0.6436217783747100
  0.7054703863868855  0.0834669245993120  0.6436217783747100
  0.7554703863868854  0.0834669245993120  0.6436217783747100
  0.8054703863868855  0.0834669245993120  0.6436217783747100
  0.8554703863868856  0.0834669245993120  0.6436217783747100
  0.9054703863868855  0.0834669245993120  0.6436217783747100
  0.9554703863868855  0.0834669245993120  0.6436217783747100
  0.0054703863868855  0.1334669245993120  0.6436217783747100
  0.0554703863868855  0.1334669245993120  0.6436217783747100
  0.1054703863868855  0.1334669245993120  0.6436217783747100
  0.1554703863868855  0.1334669245993120  0.6436217783747100
  0.2054703863868855  0.1334669245993120  0.6436217783747100
  0.2554703863868855  0.1334669245993120  0.6436217783747100
  0.3054703863868855  0.1334669245993120  0.6436217783747100
  0.3554703863868856  0.1334669245993120  0.6436217783747100
  0.4054703863868855  0.1334669245993120  0.6436217783747100
  0.4554703863868855  0.1334669245993120  0.6436217783747100
  0.5054703863868855  0.1334669245993120  0.6436217783747100
  0.5554703863868855  0.1334669245993120  0.6436217783747100
  0.6054703863868856  0.1334669245993120  0.6436217783747100
  0.6554703863868855  0.1334669245993120  0.6436217783747100
  0.7054703863868855  0.1334669245993120  0.6436217783747100
  0.7554703863868855  0.1334669245993120  0.6436217783747100
  0.8054703863868856  0.1334669245993120  0.6436217783747100
  0.8554703863868857  0.1334669245993120  0.6436217783747100
  0.9054703863868856  0.1334669245993120  0.6436217783747100
  0.9554703863868859  0.1334669245993120  0.6436217783747100
  0.0054703863868855  0.1834669245993120  0.6436217783747100
  0.0554703863868855  0.1834669245993120  0.6436217783747100
  0.1054703863868855  0.1834669245993120  0.6436217783747100
  0.1554703863868855  0.1834669245993120  0.6436217783747100
  0.2054703863868855  0.1834669245993120  0.6436217783747100
  0.2554703863868855  0.1834669245993120  0.6436217783747100
  0.3054703863868855  0.1834669245993120  0.6436217783747100
  0.3554703863868856  0.1834669245993120  0.6436217783747100
  0.4054703863868854  0.1834669245993120  0.6436217783747100
  0.4554703863868855  0.1834669245993120  0.6436217783747100
  0.5054703863868855  0.1834669245993120  0.6436217783747100
  0.5554703863868855  0.1834669245993120  0.6436217783747100
  0.6054703863868856  0.1834669245993120  0.6436217783747100
  0.6554703863868855  0.1834669245993120  0.6436217783747100
  0.7054703863868855  0.1834669245993120  0.6436217783747100
  0.7554703863868855  0.1834669245993120  0.6436217783747100
  0.8054703863868856  0.1834669245993120  0.6436217783747100
  0.8554703863868856  0.1834669245993120  0.6436217783747100
  0.9054703863868856  0.1834669245993120  0.6436217783747100
  0.9554703863868858  0.1834669245993120  0.6436217783747100
  0.0054703863868855  0.2334669245993120  0.6436217783747100
  0.0554703863868855  0.2334669245993120  0.6436217783747100
  0.1054703863868855  0.2334669245993120  0.6436217783747100
  0.1554703863868855  0.2334669245993120  0.6436217783747100
  0.2054703863868856  0.2334669245993120  0.6436217783747100
  0.2554703863868856  0.2334669245993120  0.6436217783747100
  0.3054703863868856  0.2334669245993120  0.6436217783747100
  0.3554703863868856  0.2334669245993120  0.6436217783747100
  0.4054703863868855  0.2334669245993120  0.6436217783747100
  0.4554703863868854  0.2334669245993120  0.6436217783747100
  0.5054703863868855  0.2334669245993120  0.6436217783747100
  0.5554703863868854  0.2334669245993120  0.6436217783747100
  0.6054703863868856  0.2334669245993120  0.6436217783747100
  0.6554703863868854  0.2334669245993120  0.6436217783747100
  0.7054703863868855  0.2334669245993120  0.6436217783747100
  0.7554703863868854  0.2334669245993120  0.6436217783747100
  0.8054703863868856  0.2334669245993120  0.6436217783747100
  0.8554703863868856  0.2334669245993120  0.6436217783747100
  0.9054703863868856  0.2334669245993120  0.6436217783747100
  0.9554703863868859  0.2334669245993120  0.6436217783747100
  0.0054703863868855  0.2834669245993120  0.6436217783747100
  0.0554703863868855  0.2834669245993120  0.6436217783747100
  0.1054703863868855  0.2834669245993120  0.6436217783747100
  0.1554703863868855  0.2834669245993120  0.6436217783747100
  0.2054703863868855  0.2834669245993120  0.6436217783747100
  0.2554703863868855  0.2834669245993120  0.6436217783747100
  0.3054703863868855  0.2834669245993120  0.6436217783747100
  0.3554703863868856  0.2834669245993120  0.6436217783747100
  0.4054703863868855  0.2834669245993120  0.6436217783747100
  0.4554703863868854  0.2834669245993120  0.6436217783747100
  0.5054703863868855  0.2834669245993120  0.6436217783747100
  0.5554703863868854  0.2834669245993120  0.6436217783747100
  0.6054703863868856  0.2834669245993120  0.6436217783747100
  0.6554703863868854  0.2834669245993120  0.6436217783747100
  0.7054703863868855  0.2834669245993120  0.6436217783747100
  0.7554703863868854  0.2834669245993120  0.6436217783747100
  0.8054703863868856  0.2834669245993120  0.6436217783747100
  0.8554703863868856  0.2834669245993120  0.6436217783747100
  0.9054703863868855  0.2834669245993120  0.6436217783747100
  0.9554703863868858  0.2834669245993120  0.6436217783747100
  0.0054703863868855  0.3334669245993121  0.6436217783747100
  0.0554703863868855  0.3334669245993121  0.6436217783747100
  0.1054703863868855  0.3334669245993121  0.6436217783747100
  0.1554703863868855  0.3334669245993121  0.6436217783747100
  0.2054703863868855  0.3334669245993121  0.6436217783747100
  0.2554703863868855  0.3334669245993121  0.6436217783747100
  0.3054703863868856  0.3334669245993121  0.6436217783747100
  0.3554703863868856  0.3334669245993121  0.6436217783747100
  0.4054703863868855  0.3334669245993121  0.6436217783747100
  0.4554703863868855  0.3334669245993121  0.6436217783747100
  0.5054703863868855  0.3334669245993121  0.6436217783747100
  0.5554703863868855  0.3334669245993121  0.6436217783747100
  0.6054703863868856  0.3334669245993121  0.6436217783747100
  0.6554703863868855  0.3334669245993121  0.6436217783747100
  0.7054703863868855  0.3334669245993121  0.6436217783747100
  0.7554703863868855  0.3334669245993121  0.6436217783747100
  0.8054703863868855  0.3334669245993121  0.6436217783747100
  0.8554703863868856  0.3334669245993121  0.6436217783747100
  0.9054703863868856  0.3334669245993121  0.6436217783747100
  0.9554703863868856  0.3334669245993121  0.6436217783747100
  0.0054703863868855  0.3834669245993120  0.6436217783747100
  0.0554703863868855  0.3834669245993120  0.6436217783747100
  0.1054703863868856  0.3834669245993120  0.6436217783747100
  0.1554703863868856  0.3834669245993120  0.6436217783747100
  0.2054703863868856  0.3834669245993120  0.6436217783747100
  0.2554703863868856  0.3834669245993120  0.6436217783747100
  0.3054703863868856  0.3834669245993120  0.6436217783747100
  0.3554703863868856  0.3834669245993120  0.6436217783747100
  0.4054703863868855  0.3834669245993120  0.6436217783747100
  0.4554703863868856  0.3834669245993120  0.6436217783747100
  0.5054703863868855  0.3834669245993120  0.6436217783747100
  0.5554703863868855  0.3834669245993120  0.6436217783747100
  0.6054703863868856  0.3834669245993120  0.6436217783747100
  0.6554703863868855  0.3834669245993120  0.6436217783747100
  0.7054703863868855  0.3834669245993120  0.6436217783747100
  0.7554703863868854  0.3834669245993120  0.6436217783747100
  0.8054703863868855  0.3834669245993120  0.6436217783747100
  0.8554703863868854  0.3834669245993120  0.6436217783747100
  0.9054703863868855  0.3834669245993120  0.6436217783747100
  0.9554703863868858  0.3834669245993120  0.6436217783747100
  0.0054703863868855  0.4334669245993120  0.6436217783747100
  0.0554703863868855  0.4334669245993120  0.6436217783747100
  0.1054703863868855  0.4334669245993120  0.6436217783747100
  0.1554703863868855  0.4334669245993120  0.6436217783747100
  0.2054703863868856  0.4334669245993120  0.6436217783747100
  0.2554703863868856  0.4334669245993120  0.6436217783747100
  0.3054703863868856  0.4334669245993120  0.6436217783747100
  0.3554703863868855  0.4334669245993120  0.6436217783747100
  0.4054703863868855  0.4334669245993120  0.6436217783747100
  0.4554703863868855  0.4334669245993120  0.6436217783747100
  0.5054703863868855  0.4334669245993120  0.6436217783747100
  0.5554703863868854  0.4334669245993120  0.6436217783747100
  0.6054703863868856  0.4334669245993120  0.6436217783747100
  0.6554703863868854  0.4334669245993120  0.6436217783747100
  0.7054703863868855  0.4334669245993120  0.6436217783747100
  0.7554703863868854  0.4334669245993120  0.6436217783747100
  0.8054703863868855  0.4334669245993120  0.6436217783747100
  0.8554703863868856  0.4334669245993120  0.6436217783747100
  0.9054703863868854  0.4334669245993120  0.6436217783747100
  0.9554703863868856  0.4334669245993120  0.6436217783747100
  0.0054703863868855  0.4834669245993121  0.6436217783747100
  0.0554703863868856  0.4834669245993121  0.6436217783747100
  0.1054703863868856  0.4834669245993121  0.6436217783747100
  0.1554703863868855  0.4834669245993121  0.6436217783747100
  0.2054703863868856  0.4834669245993121  0.6436217783747100
  0.2554703863868856  0.4834669245993121  0.6436217783747100
  0.3054703863868856  0.4834669245993121  0.6436217783747100
  0.3554703863868855  0.4834669245993121  0.6436217783747100
  0.4054703863868855  0.4834669245993121  0.6436217783747100
  0.4554703863868855  0.4834669245993121  0.6436217783747100
  0.5054703863868855  0.4834669245993121  0.6436217783747100
  0.5554703863868854  0.4834669245993121  0.6436217783747100
  0.6054703863868856  0.4834669245993121  0.6436217783747100
  0.6554703863868854  0.4834669245993121  0.6436217783747100
  0.7054703863868855  0.4834669245993121  0.6436217783747100
  0.7554703863868852  0.4834669245993121  0.6436217783747100
  0.8054703863868854  0.4834669245993121  0.6436217783747100
  0.8554703863868854  0.4834669245993121  0.6436217783747100
  0.9054703863868855  0.4834669245993121  0.6436217783747100
  0.9554703863868858  0.4834669245993121  0.6436217783747100
  0.0054703863868855  0.5334669245993120  0.6436217783747100
  0.0554703863868855  0.5334669245993120  0.6436217783747100
  0.1054703863868855  0.5334669245993120  0.6436217783747100
  0.1554703863868855  0.5334669245993120  0.6436217783747100
  0.2054703863868856  0.5334669245993120  0.6436217783747100
  0.2554703863868856  0.5334669245993120  0.6436217783747100
  0.3054703863868856  0.5334669245993120  0.6436217783747100
  0.3554703863868856  0.5334669245993120  0.6436217783747100
  0.4054703863868856  0.5334669245993120  0.6436217783747100
  0.4554703863868855  0.5334669245993120  0.6436217783747100
  0.5054703863868856  0.5334669245993120  0.6436217783747100
  0.5554703863868855  0.5334669245993120  0.6436217783747100
  0.6054703863868856  0.5334669245993120  0.6436217783747100
  0.6554703863868855  0.5334669245993120  0.6436217783747100
  0.7054703863868855  0.5334669245993120  0.6436217783747100
  0.7554703863868854  0.5334669245993120  0.6436217783747100
  0.8054703863868856  0.5334669245993120  0.6436217783747100
  0.8554703863868854  0.5334669245993120  0.6436217783747100
  0.9054703863868855  0.5334669245993120  0.6436217783747100
  0.9554703863868858  0.5334669245993120  0.6436217783747100
  0.0054703863868855  0.5834669245993120  0.6436217783747100
  0.0554703863868855  0.5834669245993120  0.6436217783747100
  0.1054703863868856  0.5834669245993120  0.6436217783747100
  0.1554703863868856  0.5834669245993120  0.6436217783747100
  0.2054703863868856  0.5834669245993120  0.6436217783747100
  0.2554703863868855  0.5834669245993120  0.6436217783747100
  0.3054703863868855  0.5834669245993120  0.6436217783747100
  0.3554703863868856  0.5834669245993120  0.6436217783747100
  0.4054703863868854  0.5834669245993120  0.6436217783747100
  0.4554703863868855  0.5834669245993120  0.6436217783747100
  0.5054703863868855  0.5834669245993120  0.6436217783747100
  0.5554703863868855  0.5834669245993120  0.6436217783747100
  0.6054703863868856  0.5834669245993120  0.6436217783747100
  0.6554703863868856  0.5834669245993120  0.6436217783747100
  0.7054703863868855  0.5834669245993120  0.6436217783747100
  0.7554703863868855  0.5834669245993120  0.6436217783747100
  0.8054703863868857  0.5834669245993120  0.6436217783747100
  0.8554703863868858  0.5834669245993120  0.6436217783747100
  0.9054703863868858  0.5834669245993120  0.6436217783747100
  0.9554703863868856  0.5834669245993120  0.6436217783747100
  0.0054703863868855  0.6334669245993122  0.6436217783747100
  0.0554703863868855  0.6334669245993122  0.6436217783747100
  0.1054703863868855  0.6334669245993122  0.6436217783747100
  0.1554703863868855  0.6334669245993122  0.6436217783747100
  0.2054703863868856  0.6334669245993122  0.6436217783747100
  0.2554703863868856  0.6334669245993122  0.6436217783747100
  0.3054703863868856  0.6334669245993122  0.6436217783747100
  0.3554703863868856  0.6334669245993122  0.6436217783747100
  0.4054703863868855  0.6334669245993122  0.6436217783747100
  0.4554703863868856  0.6334669245993122  0.6436217783747100
  0.5054703863868855  0.6334669245993122  0.6436217783747100
  0.5554703863868855  0.6334669245993122  0.6436217783747100
  0.6054703863868856  0.6334669245993122  0.6436217783747100
  0.6554703863868855  0.6334669245993122  0.6436217783747100
  0.7054703863868854  0.6334669245993122  0.6436217783747100
  0.7554703863868855  0.6334669245993122  0.6436217783747100
  0.8054703863868855  0.6334669245993122  0.6436217783747100
  0.8554703863868856  0.6334669245993122  0.6436217783747100
  0.9054703863868856  0.6334669245993122  0.6436217783747100
  0.9554703863868856  0.6334669245993122  0.6436217783747100
  0.0054703863868855  0.6834669245993120  0.6436217783747100
  0.0554703863868855  0.6834669245993120  0.6436217783747100
  0.1054703863868856  0.6834669245993120  0.6436217783747100
  0.1554703863868856  0.6834669245993120  0.6436217783747100
  0.2054703863868856  0.6834669245993120  0.6436217783747100
  0.2554703863868855  0.6834669245993120  0.6436217783747100
  0.3054703863868855  0.6834669245993120  0.6436217783747100
  0.3554703863868856  0.6834669245993120  0.6436217783747100
  0.4054703863868855  0.6834669245993120  0.6436217783747100
  0.4554703863868854  0.6834669245993120  0.6436217783747100
  0.5054703863868855  0.6834669245993120  0.6436217783747100
  0.5554703863868854  0.6834669245993120  0.6436217783747100
  0.6054703863868856  0.6834669245993120  0.6436217783747100
  0.6554703863868855  0.6834669245993120  0.6436217783747100
  0.7054703863868854  0.6834669245993120  0.6436217783747100
  0.7554703863868855  0.6834669245993120  0.6436217783747100
  0.8054703863868857  0.6834669245993120  0.6436217783747100
  0.8554703863868858  0.6834669245993120  0.6436217783747100
  0.9054703863868856  0.6834669245993120  0.6436217783747100
  0.9554703863868856  0.6834669245993120  0.6436217783747100
  0.0054703863868855  0.7334669245993121  0.6436217783747100
  0.0554703863868855  0.7334669245993121  0.6436217783747100
  0.1054703863868855  0.7334669245993121  0.6436217783747100
  0.1554703863868855  0.7334669245993121  0.6436217783747100
  0.2054703863868857  0.7334669245993121  0.6436217783747100
  0.2554703863868856  0.7334669245993121  0.6436217783747100
  0.3054703863868856  0.7334669245993121  0.6436217783747100
  0.3554703863868856  0.7334669245993121  0.6436217783747100
  0.4054703863868856  0.7334669245993121  0.6436217783747100
  0.4554703863868855  0.7334669245993121  0.6436217783747100
  0.5054703863868856  0.7334669245993121  0.6436217783747100
  0.5554703863868855  0.7334669245993121  0.6436217783747100
  0.6054703863868856  0.7334669245993121  0.6436217783747100
  0.6554703863868855  0.7334669245993121  0.6436217783747100
  0.7054703863868855  0.7334669245993121  0.6436217783747100
  0.7554703863868856  0.7334669245993121  0.6436217783747100
  0.8054703863868856  0.7334669245993121  0.6436217783747100
  0.8554703863868857  0.7334669245993121  0.6436217783747100
  0.9054703863868857  0.7334669245993121  0.6436217783747100
  0.9554703863868855  0.7334669245993121  0.6436217783747100
  0.0054703863868855  0.7834669245993121  0.6436217783747100
  0.0554703863868855  0.7834669245993121  0.6436217783747100
  0.1054703863868855  0.7834669245993121  0.6436217783747100
  0.1554703863868855  0.7834669245993121  0.6436217783747100
  0.2054703863868854  0.7834669245993121  0.6436217783747100
  0.2554703863868855  0.7834669245993121  0.6436217783747100
  0.3054703863868855  0.7834669245993121  0.6436217783747100
  0.3554703863868856  0.7834669245993121  0.6436217783747100
  0.4054703863868854  0.7834669245993121  0.6436217783747100
  0.4554703863868855  0.7834669245993121  0.6436217783747100
  0.5054703863868854  0.7834669245993121  0.6436217783747100
  0.5554703863868855  0.7834669245993121  0.6436217783747100
  0.6054703863868854  0.7834669245993121  0.6436217783747100
  0.6554703863868854  0.7834669245993121  0.6436217783747100
  0.7054703863868854  0.7834669245993121  0.6436217783747100
  0.7554703863868855  0.7834669245993121  0.6436217783747100
  0.8054703863868857  0.7834669245993121  0.6436217783747100
  0.8554703863868856  0.7834669245993121  0.6436217783747100
  0.9054703863868856  0.7834669245993121  0.6436217783747100
  0.9554703863868856  0.7834669245993121  0.6436217783747100
  0.0054703863868856  0.8334669245993119  0.6436217783747100
  0.0554703863868856  0.8334669245993119  0.6436217783747100
  0.1054703863868856  0.8334669245993119  0.6436217783747100
  0.1554703863868856  0.8334669245993119  0.6436217783747100
  0.2054703863868855  0.8334669245993119  0.6436217783747100
  0.2554703863868856  0.8334669245993119  0.6436217783747100
  0.3054703863868855  0.8334669245993119  0.6436217783747100
  0.3554703863868857  0.8334669245993119  0.6436217783747100
  0.4054703863868855  0.8334669245993119  0.6436217783747100
  0.4554703863868855  0.8334669245993119  0.6436217783747100
  0.5054703863868855  0.8334669245993119  0.6436217783747100
  0.5554703863868856  0.8334669245993119  0.6436217783747100
  0.6054703863868856  0.8334669245993119  0.6436217783747100
  0.6554703863868856  0.8334669245993119  0.6436217783747100
  0.7054703863868856  0.8334669245993119  0.6436217783747100
  0.7554703863868855  0.8334669245993119  0.6436217783747100
  0.8054703863868857  0.8334669245993119  0.6436217783747100
  0.8554703863868858  0.8334669245993119  0.6436217783747100
  0.9054703863868856  0.8334669245993119  0.6436217783747100
  0.9554703863868856  0.8334669245993119  0.6436217783747100
  0.0054703863868856  0.8834669245993120  0.6436217783747100
  0.0554703863868856  0.8834669245993120  0.6436217783747100
  0.1054703863868856  0.8834669245993120  0.6436217783747100
  0.1554703863868856  0.8834669245993120  0.6436217783747100
  0.2054703863868855  0.8834669245993120  0.6436217783747100
  0.2554703863868855  0.8834669245993120  0.6436217783747100
  0.3054703863868855  0.8834669245993120  0.6436217783747100
  0.3554703863868856  0.8834669245993120  0.6436217783747100
  0.4054703863868855  0.8834669245993120  0.6436217783747100
  0.4554703863868854  0.8834669245993120  0.6436217783747100
  0.5054703863868856  0.8834669245993120  0.6436217783747100
  0.5554703863868855  0.8834669245993120  0.6436217783747100
  0.6054703863868854  0.8834669245993120  0.6436217783747100
  0.6554703863868855  0.8834669245993120  0.6436217783747100
  0.7054703863868855  0.8834669245993120  0.6436217783747100
  0.7554703863868856  0.8834669245993120  0.6436217783747100
  0.8054703863868856  0.8834669245993120  0.6436217783747100
  0.8554703863868857  0.8834669245993120  0.6436217783747100
  0.9054703863868857  0.8834669245993120  0.6436217783747100
  0.9554703863868858  0.8834669245993120  0.6436217783747100
  0.0054703863868856  0.9334669245993120  0.6436217783747100
  0.0554703863868855  0.9334669245993120  0.6436217783747100
  0.1054703863868856  0.9334669245993120  0.6436217783747100
  0.1554703863868855  0.9334669245993120  0.6436217783747100
  0.2054703863868856  0.9334669245993120  0.6436217783747100
  0.2554703863868855  0.9334669245993120  0.6436217783747100
  0.3054703863868855  0.9334669245993120  0.6436217783747100
  0.3554703863868856  0.9334669245993120  0.6436217783747100
  0.4054703863868855  0.9334669245993120  0.6436217783747100
  0.4554703863868854  0.9334669245993120  0.6436217783747100
  0.5054703863868856  0.9334669245993120  0.6436217783747100
  0.5554703863868855  0.9334669245993120  0.6436217783747100
  0.6054703863868856  0.9334669245993120  0.6436217783747100
  0.6554703863868856  0.9334669245993120  0.6436217783747100
  0.7054703863868854  0.9334669245993120  0.6436217783747100
  0.7554703863868855  0.9334669245993120  0.6436217783747100
  0.8054703863868857  0.9334669245993120  0.6436217783747100
  0.8554703863868858  0.9334669245993120  0.6436217783747100
  0.9054703863868856  0.9334669245993120  0.6436217783747100
  0.9554703863868856  0.9334669245993120  0.6436217783747100
  0.0054703863868855  0.9834669245993121  0.6436217783747100
  0.0554703863868855  0.9834669245993121  0.6436217783747100
  0.1054703863868856  0.9834669245993121  0.6436217783747100
  0.1554703863868855  0.9834669245993121  0.6436217783747100
  0.2054703863868856  0.9834669245993121  0.6436217783747100
  0.2554703863868856  0.9834669245993121  0.6436217783747100
  0.3054703863868856  0.9834669245993121  0.6436217783747100
  0.3554703863868856  0.9834669245993121  0.6436217783747100
  0.4054703863868855  0.9834669245993121  0.6436217783747100
  0.4554703863868856  0.9834669245993121  0.6436217783747100
  0.5054703863868855  0.9834669245993121  0.6436217783747100
  0.5554703863868854  0.9834669245993121  0.6436217783747100
  0.6054703863868854  0.9834669245993121  0.6436217783747100
  0.6554703863868855  0.9834669245993121  0.6436217783747100
  0.7054703863868855  0.9834669245993121  0.6436217783747100
  0.7554703863868854  0.9834669245993121  0.6436217783747100
  0.8054703863868856  0.9834669245993121  0.6436217783747100
  0.8554703863868857  0.9834669245993121  0.6436217783747100
  0.9054703863868857  0.9834669245993121  0.6436217783747100
  0.9554703863868855  0.9834669245993121  0.6436217783747100
  0.0201476108970660  0.0041125632468730  0.5924482644423300
  0.0701476108970660  0.0041125632468730  0.5924482644423300
  0.1201476108970660  0.0041125632468730  0.5924482644423300
  0.1701476108970660  0.0041125632468730  0.5924482644423300
  0.2201476108970660  0.0041125632468730  0.5924482644423300
  0.2701476108970660  0.0041125632468730  0.5924482644423300
  0.3201476108970660  0.0041125632468730  0.5924482644423300
  0.3701476108970660  0.0041125632468730  0.5924482644423300
  0.4201476108970660  0.0041125632468730  0.5924482644423300
  0.4701476108970660  0.0041125632468730  0.5924482644423300
  0.5201476108970660  0.0041125632468730  0.5924482644423300
  0.5701476108970660  0.0041125632468730  0.5924482644423300
  0.6201476108970660  0.0041125632468730  0.5924482644423300
  0.6701476108970660  0.0041125632468730  0.5924482644423300
  0.7201476108970660  0.0041125632468730  0.5924482644423300
  0.7701476108970660  0.0041125632468730  0.5924482644423300
  0.8201476108970660  0.0041125632468730  0.5924482644423300
  0.8701476108970660  0.0041125632468730  0.5924482644423300
  0.9201476108970660  0.0041125632468730  0.5924482644423300
  0.9701476108970658  0.0041125632468730  0.5924482644423300
  0.0201476108970660  0.0541125632468730  0.5924482644423300
  0.0701476108970660  0.0541125632468730  0.5924482644423300
  0.1201476108970660  0.0541125632468730  0.5924482644423300
  0.1701476108970660  0.0541125632468730  0.5924482644423300
  0.2201476108970661  0.0541125632468730  0.5924482644423300
  0.2701476108970660  0.0541125632468730  0.5924482644423300
  0.3201476108970660  0.0541125632468730  0.5924482644423300
  0.3701476108970660  0.0541125632468730  0.5924482644423300
  0.4201476108970660  0.0541125632468730  0.5924482644423300
  0.4701476108970659  0.0541125632468730  0.5924482644423300
  0.5201476108970660  0.0541125632468730  0.5924482644423300
  0.5701476108970660  0.0541125632468730  0.5924482644423300
  0.6201476108970660  0.0541125632468730  0.5924482644423300
  0.6701476108970660  0.0541125632468730  0.5924482644423300
  0.7201476108970660  0.0541125632468730  0.5924482644423300
  0.7701476108970660  0.0541125632468730  0.5924482644423300
  0.8201476108970660  0.0541125632468730  0.5924482644423300
  0.8701476108970660  0.0541125632468730  0.5924482644423300
  0.9201476108970659  0.0541125632468730  0.5924482644423300
  0.9701476108970658  0.0541125632468730  0.5924482644423300
  0.0201476108970660  0.1041125632468730  0.5924482644423300
  0.0701476108970660  0.1041125632468730  0.5924482644423300
  0.1201476108970660  0.1041125632468730  0.5924482644423300
  0.1701476108970660  0.1041125632468730  0.5924482644423300
  0.2201476108970660  0.1041125632468730  0.5924482644423300
  0.2701476108970660  0.1041125632468730  0.5924482644423300
  0.3201476108970660  0.1041125632468730  0.5924482644423300
  0.3701476108970660  0.1041125632468730  0.5924482644423300
  0.4201476108970659  0.1041125632468730  0.5924482644423300
  0.4701476108970659  0.1041125632468730  0.5924482644423300
  0.5201476108970658  0.1041125632468730  0.5924482644423300
  0.5701476108970660  0.1041125632468730  0.5924482644423300
  0.6201476108970659  0.1041125632468730  0.5924482644423300
  0.6701476108970660  0.1041125632468730  0.5924482644423300
  0.7201476108970659  0.1041125632468730  0.5924482644423300
  0.7701476108970660  0.1041125632468730  0.5924482644423300
  0.8201476108970659  0.1041125632468730  0.5924482644423300
  0.8701476108970660  0.1041125632468730  0.5924482644423300
  0.9201476108970658  0.1041125632468730  0.5924482644423300
  0.9701476108970658  0.1041125632468730  0.5924482644423300
  0.0201476108970660  0.1541125632468730  0.5924482644423300
  0.0701476108970660  0.1541125632468730  0.5924482644423300
  0.1201476108970660  0.1541125632468730  0.5924482644423300
  0.1701476108970660  0.1541125632468730  0.5924482644423300
  0.2201476108970661  0.1541125632468730  0.5924482644423300
  0.2701476108970661  0.1541125632468730  0.5924482644423300
  0.3201476108970661  0.1541125632468730  0.5924482644423300
  0.3701476108970660  0.1541125632468730  0.5924482644423300
  0.4201476108970660  0.1541125632468730  0.5924482644423300
  0.4701476108970660  0.1541125632468730  0.5924482644423300
  0.5201476108970658  0.1541125632468730  0.5924482644423300
  0.5701476108970660  0.1541125632468730  0.5924482644423300
  0.6201476108970659  0.1541125632468730  0.5924482644423300
  0.6701476108970660  0.1541125632468730  0.5924482644423300
  0.7201476108970659  0.1541125632468730  0.5924482644423300
  0.7701476108970660  0.1541125632468730  0.5924482644423300
  0.8201476108970659  0.1541125632468730  0.5924482644423300
  0.8701476108970660  0.1541125632468730  0.5924482644423300
  0.9201476108970658  0.1541125632468730  0.5924482644423300
  0.9701476108970657  0.1541125632468730  0.5924482644423300
  0.0201476108970660  0.2041125632468730  0.5924482644423300
  0.0701476108970660  0.2041125632468730  0.5924482644423300
  0.1201476108970660  0.2041125632468730  0.5924482644423300
  0.1701476108970660  0.2041125632468730  0.5924482644423300
  0.2201476108970660  0.2041125632468730  0.5924482644423300
  0.2701476108970660  0.2041125632468730  0.5924482644423300
  0.3201476108970660  0.2041125632468730  0.5924482644423300
  0.3701476108970660  0.2041125632468730  0.5924482644423300
  0.4201476108970660  0.2041125632468730  0.5924482644423300
  0.4701476108970660  0.2041125632468730  0.5924482644423300
  0.5201476108970658  0.2041125632468730  0.5924482644423300
  0.5701476108970659  0.2041125632468730  0.5924482644423300
  0.6201476108970659  0.2041125632468730  0.5924482644423300
  0.6701476108970659  0.2041125632468730  0.5924482644423300
  0.7201476108970659  0.2041125632468730  0.5924482644423300
  0.7701476108970658  0.2041125632468730  0.5924482644423300
  0.8201476108970659  0.2041125632468730  0.5924482644423300
  0.8701476108970659  0.2041125632468730  0.5924482644423300
  0.9201476108970660  0.2041125632468730  0.5924482644423300
  0.9701476108970660  0.2041125632468730  0.5924482644423300
  0.0201476108970660  0.2541125632468730  0.5924482644423300
  0.0701476108970660  0.2541125632468730  0.5924482644423300
  0.1201476108970660  0.2541125632468730  0.5924482644423300
  0.1701476108970661  0.2541125632468730  0.5924482644423300
  0.2201476108970661  0.2541125632468730  0.5924482644423300
  0.2701476108970660  0.2541125632468730  0.5924482644423300
  0.3201476108970660  0.2541125632468730  0.5924482644423300
  0.3701476108970660  0.2541125632468730  0.5924482644423300
  0.4201476108970660  0.2541125632468730  0.5924482644423300
  0.4701476108970659  0.2541125632468730  0.5924482644423300
  0.5201476108970660  0.2541125632468730  0.5924482644423300
  0.5701476108970660  0.2541125632468730  0.5924482644423300
  0.6201476108970660  0.2541125632468730  0.5924482644423300
  0.6701476108970660  0.2541125632468730  0.5924482644423300
  0.7201476108970660  0.2541125632468730  0.5924482644423300
  0.7701476108970660  0.2541125632468730  0.5924482644423300
  0.8201476108970661  0.2541125632468730  0.5924482644423300
  0.8701476108970660  0.2541125632468730  0.5924482644423300
  0.9201476108970660  0.2541125632468730  0.5924482644423300
  0.9701476108970660  0.2541125632468730  0.5924482644423300
  0.0201476108970660  0.3041125632468730  0.5924482644423300
  0.0701476108970660  0.3041125632468730  0.5924482644423300
  0.1201476108970660  0.3041125632468730  0.5924482644423300
  0.1701476108970660  0.3041125632468730  0.5924482644423300
  0.2201476108970661  0.3041125632468730  0.5924482644423300
  0.2701476108970660  0.3041125632468730  0.5924482644423300
  0.3201476108970660  0.3041125632468730  0.5924482644423300
  0.3701476108970660  0.3041125632468730  0.5924482644423300
  0.4201476108970660  0.3041125632468730  0.5924482644423300
  0.4701476108970659  0.3041125632468730  0.5924482644423300
  0.5201476108970660  0.3041125632468730  0.5924482644423300
  0.5701476108970660  0.3041125632468730  0.5924482644423300
  0.6201476108970660  0.3041125632468730  0.5924482644423300
  0.6701476108970660  0.3041125632468730  0.5924482644423300
  0.7201476108970660  0.3041125632468730  0.5924482644423300
  0.7701476108970660  0.3041125632468730  0.5924482644423300
  0.8201476108970660  0.3041125632468730  0.5924482644423300
  0.8701476108970660  0.3041125632468730  0.5924482644423300
  0.9201476108970661  0.3041125632468730  0.5924482644423300
  0.9701476108970659  0.3041125632468730  0.5924482644423300
  0.0201476108970660  0.3541125632468731  0.5924482644423300
  0.0701476108970660  0.3541125632468731  0.5924482644423300
  0.1201476108970660  0.3541125632468731  0.5924482644423300
  0.1701476108970660  0.3541125632468731  0.5924482644423300
  0.2201476108970661  0.3541125632468731  0.5924482644423300
  0.2701476108970660  0.3541125632468731  0.5924482644423300
  0.3201476108970660  0.3541125632468731  0.5924482644423300
  0.3701476108970660  0.3541125632468731  0.5924482644423300
  0.4201476108970659  0.3541125632468731  0.5924482644423300
  0.4701476108970659  0.3541125632468731  0.5924482644423300
  0.5201476108970658  0.3541125632468731  0.5924482644423300
  0.5701476108970660  0.3541125632468731  0.5924482644423300
  0.6201476108970659  0.3541125632468731  0.5924482644423300
  0.6701476108970660  0.3541125632468731  0.5924482644423300
  0.7201476108970659  0.3541125632468731  0.5924482644423300
  0.7701476108970661  0.3541125632468731  0.5924482644423300
  0.8201476108970660  0.3541125632468731  0.5924482644423300
  0.8701476108970659  0.3541125632468731  0.5924482644423300
  0.9201476108970660  0.3541125632468731  0.5924482644423300
  0.9701476108970660  0.3541125632468731  0.5924482644423300
  0.0201476108970660  0.4041125632468730  0.5924482644423300
  0.0701476108970660  0.4041125632468730  0.5924482644423300
  0.1201476108970660  0.4041125632468730  0.5924482644423300
  0.1701476108970660  0.4041125632468730  0.5924482644423300
  0.2201476108970660  0.4041125632468730  0.5924482644423300
  0.2701476108970660  0.4041125632468730  0.5924482644423300
  0.3201476108970660  0.4041125632468730  0.5924482644423300
  0.3701476108970660  0.4041125632468730  0.5924482644423300
  0.4201476108970660  0.4041125632468730  0.5924482644423300
  0.4701476108970659  0.4041125632468730  0.5924482644423300
  0.5201476108970658  0.4041125632468730  0.5924482644423300
  0.5701476108970660  0.4041125632468730  0.5924482644423300
  0.6201476108970659  0.4041125632468730  0.5924482644423300
  0.6701476108970660  0.4041125632468730  0.5924482644423300
  0.7201476108970659  0.4041125632468730  0.5924482644423300
  0.7701476108970660  0.4041125632468730  0.5924482644423300
  0.8201476108970660  0.4041125632468730  0.5924482644423300
  0.8701476108970660  0.4041125632468730  0.5924482644423300
  0.9201476108970659  0.4041125632468730  0.5924482644423300
  0.9701476108970659  0.4041125632468730  0.5924482644423300
  0.0201476108970660  0.4541125632468730  0.5924482644423300
  0.0701476108970660  0.4541125632468730  0.5924482644423300
  0.1201476108970660  0.4541125632468730  0.5924482644423300
  0.1701476108970661  0.4541125632468730  0.5924482644423300
  0.2201476108970661  0.4541125632468730  0.5924482644423300
  0.2701476108970660  0.4541125632468730  0.5924482644423300
  0.3201476108970660  0.4541125632468730  0.5924482644423300
  0.3701476108970660  0.4541125632468730  0.5924482644423300
  0.4201476108970660  0.4541125632468730  0.5924482644423300
  0.4701476108970659  0.4541125632468730  0.5924482644423300
  0.5201476108970660  0.4541125632468730  0.5924482644423300
  0.5701476108970660  0.4541125632468730  0.5924482644423300
  0.6201476108970660  0.4541125632468730  0.5924482644423300
  0.6701476108970660  0.4541125632468730  0.5924482644423300
  0.7201476108970660  0.4541125632468730  0.5924482644423300
  0.7701476108970660  0.4541125632468730  0.5924482644423300
  0.8201476108970659  0.4541125632468730  0.5924482644423300
  0.8701476108970659  0.4541125632468730  0.5924482644423300
  0.9201476108970660  0.4541125632468730  0.5924482644423300
  0.9701476108970660  0.4541125632468730  0.5924482644423300
  0.0201476108970660  0.5041125632468730  0.5924482644423300
  0.0701476108970660  0.5041125632468730  0.5924482644423300
  0.1201476108970660  0.5041125632468730  0.5924482644423300
  0.1701476108970660  0.5041125632468730  0.5924482644423300
  0.2201476108970660  0.5041125632468730  0.5924482644423300
  0.2701476108970660  0.5041125632468730  0.5924482644423300
  0.3201476108970661  0.5041125632468730  0.5924482644423300
  0.3701476108970661  0.5041125632468730  0.5924482644423300
  0.4201476108970660  0.5041125632468730  0.5924482644423300
  0.4701476108970660  0.5041125632468730  0.5924482644423300
  0.5201476108970660  0.5041125632468730  0.5924482644423300
  0.5701476108970660  0.5041125632468730  0.5924482644423300
  0.6201476108970660  0.5041125632468730  0.5924482644423300
  0.6701476108970660  0.5041125632468730  0.5924482644423300
  0.7201476108970660  0.5041125632468730  0.5924482644423300
  0.7701476108970660  0.5041125632468730  0.5924482644423300
  0.8201476108970660  0.5041125632468730  0.5924482644423300
  0.8701476108970660  0.5041125632468730  0.5924482644423300
  0.9201476108970659  0.5041125632468730  0.5924482644423300
  0.9701476108970659  0.5041125632468730  0.5924482644423300
  0.0201476108970660  0.5541125632468730  0.5924482644423300
  0.0701476108970660  0.5541125632468730  0.5924482644423300
  0.1201476108970660  0.5541125632468730  0.5924482644423300
  0.1701476108970661  0.5541125632468730  0.5924482644423300
  0.2201476108970661  0.5541125632468730  0.5924482644423300
  0.2701476108970660  0.5541125632468730  0.5924482644423300
  0.3201476108970659  0.5541125632468730  0.5924482644423300
  0.3701476108970661  0.5541125632468730  0.5924482644423300
  0.4201476108970659  0.5541125632468730  0.5924482644423300
  0.4701476108970660  0.5541125632468730  0.5924482644423300
  0.5201476108970660  0.5541125632468730  0.5924482644423300
  0.5701476108970661  0.5541125632468730  0.5924482644423300
  0.6201476108970660  0.5541125632468730  0.5924482644423300
  0.6701476108970661  0.5541125632468730  0.5924482644423300
  0.7201476108970660  0.5541125632468730  0.5924482644423300
  0.7701476108970660  0.5541125632468730  0.5924482644423300
  0.8201476108970660  0.5541125632468730  0.5924482644423300
  0.8701476108970660  0.5541125632468730  0.5924482644423300
  0.9201476108970661  0.5541125632468730  0.5924482644423300
  0.9701476108970659  0.5541125632468730  0.5924482644423300
  0.0201476108970660  0.6041125632468731  0.5924482644423300
  0.0701476108970660  0.6041125632468731  0.5924482644423300
  0.1201476108970660  0.6041125632468731  0.5924482644423300
  0.1701476108970660  0.6041125632468731  0.5924482644423300
  0.2201476108970660  0.6041125632468731  0.5924482644423300
  0.2701476108970660  0.6041125632468731  0.5924482644423300
  0.3201476108970659  0.6041125632468731  0.5924482644423300
  0.3701476108970661  0.6041125632468731  0.5924482644423300
  0.4201476108970659  0.6041125632468731  0.5924482644423300
  0.4701476108970660  0.6041125632468731  0.5924482644423300
  0.5201476108970658  0.6041125632468731  0.5924482644423300
  0.5701476108970660  0.6041125632468731  0.5924482644423300
  0.6201476108970659  0.6041125632468731  0.5924482644423300
  0.6701476108970660  0.6041125632468731  0.5924482644423300
  0.7201476108970659  0.6041125632468731  0.5924482644423300
  0.7701476108970660  0.6041125632468731  0.5924482644423300
  0.8201476108970660  0.6041125632468731  0.5924482644423300
  0.8701476108970658  0.6041125632468731  0.5924482644423300
  0.9201476108970659  0.6041125632468731  0.5924482644423300
  0.9701476108970659  0.6041125632468731  0.5924482644423300
  0.0201476108970660  0.6541125632468731  0.5924482644423300
  0.0701476108970661  0.6541125632468731  0.5924482644423300
  0.1201476108970661  0.6541125632468731  0.5924482644423300
  0.1701476108970661  0.6541125632468731  0.5924482644423300
  0.2201476108970661  0.6541125632468731  0.5924482644423300
  0.2701476108970660  0.6541125632468731  0.5924482644423300
  0.3201476108970661  0.6541125632468731  0.5924482644423300
  0.3701476108970660  0.6541125632468731  0.5924482644423300
  0.4201476108970660  0.6541125632468731  0.5924482644423300
  0.4701476108970659  0.6541125632468731  0.5924482644423300
  0.5201476108970660  0.6541125632468731  0.5924482644423300
  0.5701476108970660  0.6541125632468731  0.5924482644423300
  0.6201476108970660  0.6541125632468731  0.5924482644423300
  0.6701476108970660  0.6541125632468731  0.5924482644423300
  0.7201476108970659  0.6541125632468731  0.5924482644423300
  0.7701476108970660  0.6541125632468731  0.5924482644423300
  0.8201476108970660  0.6541125632468731  0.5924482644423300
  0.8701476108970663  0.6541125632468731  0.5924482644423300
  0.9201476108970659  0.6541125632468731  0.5924482644423300
  0.9701476108970659  0.6541125632468731  0.5924482644423300
  0.0201476108970661  0.7041125632468730  0.5924482644423300
  0.0701476108970661  0.7041125632468730  0.5924482644423300
  0.1201476108970661  0.7041125632468730  0.5924482644423300
  0.1701476108970660  0.7041125632468730  0.5924482644423300
  0.2201476108970662  0.7041125632468730  0.5924482644423300
  0.2701476108970661  0.7041125632468730  0.5924482644423300
  0.3201476108970662  0.7041125632468730  0.5924482644423300
  0.3701476108970661  0.7041125632468730  0.5924482644423300
  0.4201476108970661  0.7041125632468730  0.5924482644423300
  0.4701476108970660  0.7041125632468730  0.5924482644423300
  0.5201476108970660  0.7041125632468730  0.5924482644423300
  0.5701476108970660  0.7041125632468730  0.5924482644423300
  0.6201476108970660  0.7041125632468730  0.5924482644423300
  0.6701476108970660  0.7041125632468730  0.5924482644423300
  0.7201476108970660  0.7041125632468730  0.5924482644423300
  0.7701476108970661  0.7041125632468730  0.5924482644423300
  0.8201476108970659  0.7041125632468730  0.5924482644423300
  0.8701476108970662  0.7041125632468730  0.5924482644423300
  0.9201476108970660  0.7041125632468730  0.5924482644423300
  0.9701476108970660  0.7041125632468730  0.5924482644423300
  0.0201476108970660  0.7541125632468731  0.5924482644423300
  0.0701476108970660  0.7541125632468731  0.5924482644423300
  0.1201476108970660  0.7541125632468731  0.5924482644423300
  0.1701476108970661  0.7541125632468731  0.5924482644423300
  0.2201476108970660  0.7541125632468731  0.5924482644423300
  0.2701476108970661  0.7541125632468731  0.5924482644423300
  0.3201476108970660  0.7541125632468731  0.5924482644423300
  0.3701476108970660  0.7541125632468731  0.5924482644423300
  0.4201476108970660  0.7541125632468731  0.5924482644423300
  0.4701476108970659  0.7541125632468731  0.5924482644423300
  0.5201476108970660  0.7541125632468731  0.5924482644423300
  0.5701476108970660  0.7541125632468731  0.5924482644423300
  0.6201476108970659  0.7541125632468731  0.5924482644423300
  0.6701476108970659  0.7541125632468731  0.5924482644423300
  0.7201476108970659  0.7541125632468731  0.5924482644423300
  0.7701476108970660  0.7541125632468731  0.5924482644423300
  0.8201476108970660  0.7541125632468731  0.5924482644423300
  0.8701476108970660  0.7541125632468731  0.5924482644423300
  0.9201476108970659  0.7541125632468731  0.5924482644423300
  0.9701476108970659  0.7541125632468731  0.5924482644423300
  0.0201476108970661  0.8041125632468731  0.5924482644423300
  0.0701476108970661  0.8041125632468731  0.5924482644423300
  0.1201476108970660  0.8041125632468731  0.5924482644423300
  0.1701476108970661  0.8041125632468731  0.5924482644423300
  0.2201476108970660  0.8041125632468731  0.5924482644423300
  0.2701476108970661  0.8041125632468731  0.5924482644423300
  0.3201476108970660  0.8041125632468731  0.5924482644423300
  0.3701476108970662  0.8041125632468731  0.5924482644423300
  0.4201476108970660  0.8041125632468731  0.5924482644423300
  0.4701476108970660  0.8041125632468731  0.5924482644423300
  0.5201476108970660  0.8041125632468731  0.5924482644423300
  0.5701476108970660  0.8041125632468731  0.5924482644423300
  0.6201476108970659  0.8041125632468731  0.5924482644423300
  0.6701476108970660  0.8041125632468731  0.5924482644423300
  0.7201476108970660  0.8041125632468731  0.5924482644423300
  0.7701476108970658  0.8041125632468731  0.5924482644423300
  0.8201476108970659  0.8041125632468731  0.5924482644423300
  0.8701476108970662  0.8041125632468731  0.5924482644423300
  0.9201476108970660  0.8041125632468731  0.5924482644423300
  0.9701476108970658  0.8041125632468731  0.5924482644423300
  0.0201476108970661  0.8541125632468731  0.5924482644423300
  0.0701476108970661  0.8541125632468731  0.5924482644423300
  0.1201476108970660  0.8541125632468731  0.5924482644423300
  0.1701476108970661  0.8541125632468731  0.5924482644423300
  0.2201476108970660  0.8541125632468731  0.5924482644423300
  0.2701476108970661  0.8541125632468731  0.5924482644423300
  0.3201476108970660  0.8541125632468731  0.5924482644423300
  0.3701476108970660  0.8541125632468731  0.5924482644423300
  0.4201476108970660  0.8541125632468731  0.5924482644423300
  0.4701476108970660  0.8541125632468731  0.5924482644423300
  0.5201476108970660  0.8541125632468731  0.5924482644423300
  0.5701476108970660  0.8541125632468731  0.5924482644423300
  0.6201476108970660  0.8541125632468731  0.5924482644423300
  0.6701476108970659  0.8541125632468731  0.5924482644423300
  0.7201476108970659  0.8541125632468731  0.5924482644423300
  0.7701476108970660  0.8541125632468731  0.5924482644423300
  0.8201476108970658  0.8541125632468731  0.5924482644423300
  0.8701476108970660  0.8541125632468731  0.5924482644423300
  0.9201476108970659  0.8541125632468731  0.5924482644423300
  0.9701476108970659  0.8541125632468731  0.5924482644423300
  0.0201476108970661  0.9041125632468732  0.5924482644423300
  0.0701476108970660  0.9041125632468732  0.5924482644423300
  0.1201476108970660  0.9041125632468732  0.5924482644423300
  0.1701476108970661  0.9041125632468732  0.5924482644423300
  0.2201476108970661  0.9041125632468732  0.5924482644423300
  0.2701476108970661  0.9041125632468732  0.5924482644423300
  0.3201476108970661  0.9041125632468732  0.5924482644423300
  0.3701476108970660  0.9041125632468732  0.5924482644423300
  0.4201476108970661  0.9041125632468732  0.5924482644423300
  0.4701476108970659  0.9041125632468732  0.5924482644423300
  0.5201476108970660  0.9041125632468732  0.5924482644423300
  0.5701476108970661  0.9041125632468732  0.5924482644423300
  0.6201476108970662  0.9041125632468732  0.5924482644423300
  0.6701476108970662  0.9041125632468732  0.5924482644423300
  0.7201476108970660  0.9041125632468732  0.5924482644423300
  0.7701476108970661  0.9041125632468732  0.5924482644423300
  0.8201476108970661  0.9041125632468732  0.5924482644423300
  0.8701476108970662  0.9041125632468732  0.5924482644423300
  0.9201476108970660  0.9041125632468732  0.5924482644423300
  0.9701476108970660  0.9041125632468732  0.5924482644423300
  0.0201476108970660  0.9541125632468732  0.5924482644423300
  0.0701476108970660  0.9541125632468732  0.5924482644423300
  0.1201476108970661  0.9541125632468732  0.5924482644423300
  0.1701476108970660  0.9541125632468732  0.5924482644423300
  0.2201476108970662  0.9541125632468732  0.5924482644423300
  0.2701476108970661  0.9541125632468732  0.5924482644423300
  0.3201476108970661  0.9541125632468732  0.5924482644423300
  0.3701476108970660  0.9541125632468732  0.5924482644423300
  0.4201476108970661  0.9541125632468732  0.5924482644423300
  0.4701476108970659  0.9541125632468732  0.5924482644423300
  0.5201476108970660  0.9541125632468732  0.5924482644423300
  0.5701476108970660  0.9541125632468732  0.5924482644423300
  0.6201476108970660  0.9541125632468732  0.5924482644423300
  0.6701476108970661  0.9541125632468732  0.5924482644423300
  0.7201476108970661  0.9541125632468732  0.5924482644423300
  0.7701476108970660  0.9541125632468732  0.5924482644423300
  0.8201476108970660  0.9541125632468732  0.5924482644423300
  0.8701476108970660  0.9541125632468732  0.5924482644423300
  0.9201476108970661  0.9541125632468732  0.5924482644423300
  0.9701476108970659  0.9541125632468732  0.5924482644423300
  0.0338387414238680  0.0267302228184280  0.5778109184832200
  0.0838387414238680  0.0267302228184280  0.5778109184832200
  0.1338387414238680  0.0267302228184280  0.5778109184832200
  0.1838387414238680  0.0267302228184280  0.5778109184832200
  0.2338387414238679  0.0267302228184280  0.5778109184832200
  0.2838387414238680  0.0267302228184280  0.5778109184832200
  0.3338387414238680  0.0267302228184280  0.5778109184832200
  0.3838387414238680  0.0267302228184280  0.5778109184832200
  0.4338387414238680  0.0267302228184280  0.5778109184832200
  0.4838387414238680  0.0267302228184280  0.5778109184832200
  0.5338387414238681  0.0267302228184280  0.5778109184832200
  0.5838387414238682  0.0267302228184280  0.5778109184832200
  0.6338387414238681  0.0267302228184280  0.5778109184832200
  0.6838387414238681  0.0267302228184280  0.5778109184832200
  0.7338387414238682  0.0267302228184280  0.5778109184832200
  0.7838387414238680  0.0267302228184280  0.5778109184832200
  0.8338387414238682  0.0267302228184280  0.5778109184832200
  0.8838387414238680  0.0267302228184280  0.5778109184832200
  0.9338387414238681  0.0267302228184280  0.5778109184832200
  0.9838387414238681  0.0267302228184280  0.5778109184832200
  0.0338387414238680  0.0767302228184280  0.5778109184832200
  0.0838387414238680  0.0767302228184280  0.5778109184832200
  0.1338387414238680  0.0767302228184280  0.5778109184832200
  0.1838387414238680  0.0767302228184280  0.5778109184832200
  0.2338387414238680  0.0767302228184280  0.5778109184832200
  0.2838387414238680  0.0767302228184280  0.5778109184832200
  0.3338387414238680  0.0767302228184280  0.5778109184832200
  0.3838387414238680  0.0767302228184280  0.5778109184832200
  0.4338387414238680  0.0767302228184280  0.5778109184832200
  0.4838387414238680  0.0767302228184280  0.5778109184832200
  0.5338387414238680  0.0767302228184280  0.5778109184832200
  0.5838387414238682  0.0767302228184280  0.5778109184832200
  0.6338387414238680  0.0767302228184280  0.5778109184832200
  0.6838387414238681  0.0767302228184280  0.5778109184832200
  0.7338387414238681  0.0767302228184280  0.5778109184832200
  0.7838387414238680  0.0767302228184280  0.5778109184832200
  0.8338387414238680  0.0767302228184280  0.5778109184832200
  0.8838387414238680  0.0767302228184280  0.5778109184832200
  0.9338387414238680  0.0767302228184280  0.5778109184832200
  0.9838387414238680  0.0767302228184280  0.5778109184832200
  0.0338387414238680  0.1267302228184280  0.5778109184832200
  0.0838387414238680  0.1267302228184280  0.5778109184832200
  0.1338387414238680  0.1267302228184280  0.5778109184832200
  0.1838387414238680  0.1267302228184280  0.5778109184832200
  0.2338387414238680  0.1267302228184280  0.5778109184832200
  0.2838387414238680  0.1267302228184280  0.5778109184832200
  0.3338387414238680  0.1267302228184280  0.5778109184832200
  0.3838387414238680  0.1267302228184280  0.5778109184832200
  0.4338387414238680  0.1267302228184280  0.5778109184832200
  0.4838387414238680  0.1267302228184280  0.5778109184832200
  0.5338387414238680  0.1267302228184280  0.5778109184832200
  0.5838387414238682  0.1267302228184280  0.5778109184832200
  0.6338387414238680  0.1267302228184280  0.5778109184832200
  0.6838387414238681  0.1267302228184280  0.5778109184832200
  0.7338387414238681  0.1267302228184280  0.5778109184832200
  0.7838387414238680  0.1267302228184280  0.5778109184832200
  0.8338387414238680  0.1267302228184280  0.5778109184832200
  0.8838387414238679  0.1267302228184280  0.5778109184832200
  0.9338387414238680  0.1267302228184280  0.5778109184832200
  0.9838387414238681  0.1267302228184280  0.5778109184832200
  0.0338387414238680  0.1767302228184280  0.5778109184832200
  0.0838387414238680  0.1767302228184280  0.5778109184832200
  0.1338387414238680  0.1767302228184280  0.5778109184832200
  0.1838387414238680  0.1767302228184280  0.5778109184832200
  0.2338387414238679  0.1767302228184280  0.5778109184832200
  0.2838387414238680  0.1767302228184280  0.5778109184832200
  0.3338387414238680  0.1767302228184280  0.5778109184832200
  0.3838387414238679  0.1767302228184280  0.5778109184832200
  0.4338387414238680  0.1767302228184280  0.5778109184832200
  0.4838387414238681  0.1767302228184280  0.5778109184832200
  0.5338387414238680  0.1767302228184280  0.5778109184832200
  0.5838387414238680  0.1767302228184280  0.5778109184832200
  0.6338387414238680  0.1767302228184280  0.5778109184832200
  0.6838387414238680  0.1767302228184280  0.5778109184832200
  0.7338387414238681  0.1767302228184280  0.5778109184832200
  0.7838387414238680  0.1767302228184280  0.5778109184832200
  0.8338387414238680  0.1767302228184280  0.5778109184832200
  0.8838387414238679  0.1767302228184280  0.5778109184832200
  0.9338387414238679  0.1767302228184280  0.5778109184832200
  0.9838387414238680  0.1767302228184280  0.5778109184832200
  0.0338387414238680  0.2267302228184280  0.5778109184832200
  0.0838387414238680  0.2267302228184280  0.5778109184832200
  0.1338387414238680  0.2267302228184280  0.5778109184832200
  0.1838387414238680  0.2267302228184280  0.5778109184832200
  0.2338387414238680  0.2267302228184280  0.5778109184832200
  0.2838387414238680  0.2267302228184280  0.5778109184832200
  0.3338387414238680  0.2267302228184280  0.5778109184832200
  0.3838387414238680  0.2267302228184280  0.5778109184832200
  0.4338387414238680  0.2267302228184280  0.5778109184832200
  0.4838387414238680  0.2267302228184280  0.5778109184832200
  0.5338387414238680  0.2267302228184280  0.5778109184832200
  0.5838387414238680  0.2267302228184280  0.5778109184832200
  0.6338387414238680  0.2267302228184280  0.5778109184832200
  0.6838387414238680  0.2267302228184280  0.5778109184832200
  0.7338387414238681  0.2267302228184280  0.5778109184832200
  0.7838387414238679  0.2267302228184280  0.5778109184832200
  0.8338387414238680  0.2267302228184280  0.5778109184832200
  0.8838387414238680  0.2267302228184280  0.5778109184832200
  0.9338387414238682  0.2267302228184280  0.5778109184832200
  0.9838387414238683  0.2267302228184280  0.5778109184832200
  0.0338387414238680  0.2767302228184280  0.5778109184832200
  0.0838387414238680  0.2767302228184280  0.5778109184832200
  0.1338387414238680  0.2767302228184280  0.5778109184832200
  0.1838387414238680  0.2767302228184280  0.5778109184832200
  0.2338387414238679  0.2767302228184280  0.5778109184832200
  0.2838387414238679  0.2767302228184280  0.5778109184832200
  0.3338387414238680  0.2767302228184280  0.5778109184832200
  0.3838387414238680  0.2767302228184280  0.5778109184832200
  0.4338387414238680  0.2767302228184280  0.5778109184832200
  0.4838387414238680  0.2767302228184280  0.5778109184832200
  0.5338387414238680  0.2767302228184280  0.5778109184832200
  0.5838387414238680  0.2767302228184280  0.5778109184832200
  0.6338387414238680  0.2767302228184280  0.5778109184832200
  0.6838387414238680  0.2767302228184280  0.5778109184832200
  0.7338387414238681  0.2767302228184280  0.5778109184832200
  0.7838387414238679  0.2767302228184280  0.5778109184832200
  0.8338387414238680  0.2767302228184280  0.5778109184832200
  0.8838387414238681  0.2767302228184280  0.5778109184832200
  0.9338387414238681  0.2767302228184280  0.5778109184832200
  0.9838387414238682  0.2767302228184280  0.5778109184832200
  0.0338387414238680  0.3267302228184280  0.5778109184832200
  0.0838387414238680  0.3267302228184280  0.5778109184832200
  0.1338387414238680  0.3267302228184280  0.5778109184832200
  0.1838387414238681  0.3267302228184280  0.5778109184832200
  0.2338387414238680  0.3267302228184280  0.5778109184832200
  0.2838387414238681  0.3267302228184280  0.5778109184832200
  0.3338387414238680  0.3267302228184280  0.5778109184832200
  0.3838387414238680  0.3267302228184280  0.5778109184832200
  0.4338387414238680  0.3267302228184280  0.5778109184832200
  0.4838387414238680  0.3267302228184280  0.5778109184832200
  0.5338387414238679  0.3267302228184280  0.5778109184832200
  0.5838387414238680  0.3267302228184280  0.5778109184832200
  0.6338387414238679  0.3267302228184280  0.5778109184832200
  0.6838387414238680  0.3267302228184280  0.5778109184832200
  0.7338387414238680  0.3267302228184280  0.5778109184832200
  0.7838387414238680  0.3267302228184280  0.5778109184832200
  0.8338387414238679  0.3267302228184280  0.5778109184832200
  0.8838387414238680  0.3267302228184280  0.5778109184832200
  0.9338387414238682  0.3267302228184280  0.5778109184832200
  0.9838387414238681  0.3267302228184280  0.5778109184832200
  0.0338387414238680  0.3767302228184281  0.5778109184832200
  0.0838387414238680  0.3767302228184281  0.5778109184832200
  0.1338387414238680  0.3767302228184281  0.5778109184832200
  0.1838387414238680  0.3767302228184281  0.5778109184832200
  0.2338387414238680  0.3767302228184281  0.5778109184832200
  0.2838387414238680  0.3767302228184281  0.5778109184832200
  0.3338387414238680  0.3767302228184281  0.5778109184832200
  0.3838387414238680  0.3767302228184281  0.5778109184832200
  0.4338387414238680  0.3767302228184281  0.5778109184832200
  0.4838387414238680  0.3767302228184281  0.5778109184832200
  0.5338387414238680  0.3767302228184281  0.5778109184832200
  0.5838387414238682  0.3767302228184281  0.5778109184832200
  0.6338387414238680  0.3767302228184281  0.5778109184832200
  0.6838387414238681  0.3767302228184281  0.5778109184832200
  0.7338387414238681  0.3767302228184281  0.5778109184832200
  0.7838387414238681  0.3767302228184281  0.5778109184832200
  0.8338387414238682  0.3767302228184281  0.5778109184832200
  0.8838387414238680  0.3767302228184281  0.5778109184832200
  0.9338387414238682  0.3767302228184281  0.5778109184832200
  0.9838387414238683  0.3767302228184281  0.5778109184832200
  0.0338387414238680  0.4267302228184280  0.5778109184832200
  0.0838387414238680  0.4267302228184280  0.5778109184832200
  0.1338387414238681  0.4267302228184280  0.5778109184832200
  0.1838387414238681  0.4267302228184280  0.5778109184832200
  0.2338387414238680  0.4267302228184280  0.5778109184832200
  0.2838387414238680  0.4267302228184280  0.5778109184832200
  0.3338387414238680  0.4267302228184280  0.5778109184832200
  0.3838387414238679  0.4267302228184280  0.5778109184832200
  0.4338387414238681  0.4267302228184280  0.5778109184832200
  0.4838387414238680  0.4267302228184280  0.5778109184832200
  0.5338387414238681  0.4267302228184280  0.5778109184832200
  0.5838387414238682  0.4267302228184280  0.5778109184832200
  0.6338387414238681  0.4267302228184280  0.5778109184832200
  0.6838387414238681  0.4267302228184280  0.5778109184832200
  0.7338387414238681  0.4267302228184280  0.5778109184832200
  0.7838387414238680  0.4267302228184280  0.5778109184832200
  0.8338387414238680  0.4267302228184280  0.5778109184832200
  0.8838387414238681  0.4267302228184280  0.5778109184832200
  0.9338387414238681  0.4267302228184280  0.5778109184832200
  0.9838387414238682  0.4267302228184280  0.5778109184832200
  0.0338387414238680  0.4767302228184281  0.5778109184832200
  0.0838387414238680  0.4767302228184281  0.5778109184832200
  0.1338387414238680  0.4767302228184281  0.5778109184832200
  0.1838387414238680  0.4767302228184281  0.5778109184832200
  0.2338387414238680  0.4767302228184281  0.5778109184832200
  0.2838387414238679  0.4767302228184281  0.5778109184832200
  0.3338387414238680  0.4767302228184281  0.5778109184832200
  0.3838387414238679  0.4767302228184281  0.5778109184832200
  0.4338387414238681  0.4767302228184281  0.5778109184832200
  0.4838387414238680  0.4767302228184281  0.5778109184832200
  0.5338387414238681  0.4767302228184281  0.5778109184832200
  0.5838387414238682  0.4767302228184281  0.5778109184832200
  0.6338387414238681  0.4767302228184281  0.5778109184832200
  0.6838387414238681  0.4767302228184281  0.5778109184832200
  0.7338387414238681  0.4767302228184281  0.5778109184832200
  0.7838387414238681  0.4767302228184281  0.5778109184832200
  0.8338387414238679  0.4767302228184281  0.5778109184832200
  0.8838387414238680  0.4767302228184281  0.5778109184832200
  0.9338387414238682  0.4767302228184281  0.5778109184832200
  0.9838387414238681  0.4767302228184281  0.5778109184832200
  0.0338387414238680  0.5267302228184281  0.5778109184832200
  0.0838387414238680  0.5267302228184281  0.5778109184832200
  0.1338387414238680  0.5267302228184281  0.5778109184832200
  0.1838387414238681  0.5267302228184281  0.5778109184832200
  0.2338387414238680  0.5267302228184281  0.5778109184832200
  0.2838387414238680  0.5267302228184281  0.5778109184832200
  0.3338387414238680  0.5267302228184281  0.5778109184832200
  0.3838387414238680  0.5267302228184281  0.5778109184832200
  0.4338387414238680  0.5267302228184281  0.5778109184832200
  0.4838387414238681  0.5267302228184281  0.5778109184832200
  0.5338387414238680  0.5267302228184281  0.5778109184832200
  0.5838387414238682  0.5267302228184281  0.5778109184832200
  0.6338387414238680  0.5267302228184281  0.5778109184832200
  0.6838387414238680  0.5267302228184281  0.5778109184832200
  0.7338387414238680  0.5267302228184281  0.5778109184832200
  0.7838387414238680  0.5267302228184281  0.5778109184832200
  0.8338387414238680  0.5267302228184281  0.5778109184832200
  0.8838387414238679  0.5267302228184281  0.5778109184832200
  0.9338387414238681  0.5267302228184281  0.5778109184832200
  0.9838387414238682  0.5267302228184281  0.5778109184832200
  0.0338387414238681  0.5767302228184280  0.5778109184832200
  0.0838387414238681  0.5767302228184280  0.5778109184832200
  0.1338387414238681  0.5767302228184280  0.5778109184832200
  0.1838387414238681  0.5767302228184280  0.5778109184832200
  0.2338387414238680  0.5767302228184280  0.5778109184832200
  0.2838387414238680  0.5767302228184280  0.5778109184832200
  0.3338387414238679  0.5767302228184280  0.5778109184832200
  0.3838387414238680  0.5767302228184280  0.5778109184832200
  0.4338387414238680  0.5767302228184280  0.5778109184832200
  0.4838387414238681  0.5767302228184280  0.5778109184832200
  0.5338387414238680  0.5767302228184280  0.5778109184832200
  0.5838387414238682  0.5767302228184280  0.5778109184832200
  0.6338387414238680  0.5767302228184280  0.5778109184832200
  0.6838387414238680  0.5767302228184280  0.5778109184832200
  0.7338387414238681  0.5767302228184280  0.5778109184832200
  0.7838387414238679  0.5767302228184280  0.5778109184832200
  0.8338387414238679  0.5767302228184280  0.5778109184832200
  0.8838387414238680  0.5767302228184280  0.5778109184832200
  0.9338387414238682  0.5767302228184280  0.5778109184832200
  0.9838387414238681  0.5767302228184280  0.5778109184832200
  0.0338387414238680  0.6267302228184282  0.5778109184832200
  0.0838387414238680  0.6267302228184282  0.5778109184832200
  0.1338387414238680  0.6267302228184282  0.5778109184832200
  0.1838387414238681  0.6267302228184282  0.5778109184832200
  0.2338387414238680  0.6267302228184282  0.5778109184832200
  0.2838387414238680  0.6267302228184282  0.5778109184832200
  0.3338387414238680  0.6267302228184282  0.5778109184832200
  0.3838387414238680  0.6267302228184282  0.5778109184832200
  0.4338387414238680  0.6267302228184282  0.5778109184832200
  0.4838387414238680  0.6267302228184282  0.5778109184832200
  0.5338387414238680  0.6267302228184282  0.5778109184832200
  0.5838387414238680  0.6267302228184282  0.5778109184832200
  0.6338387414238680  0.6267302228184282  0.5778109184832200
  0.6838387414238681  0.6267302228184282  0.5778109184832200
  0.7338387414238682  0.6267302228184282  0.5778109184832200
  0.7838387414238680  0.6267302228184282  0.5778109184832200
  0.8338387414238680  0.6267302228184282  0.5778109184832200
  0.8838387414238679  0.6267302228184282  0.5778109184832200
  0.9338387414238681  0.6267302228184282  0.5778109184832200
  0.9838387414238682  0.6267302228184282  0.5778109184832200
  0.0338387414238681  0.6767302228184281  0.5778109184832200
  0.0838387414238681  0.6767302228184281  0.5778109184832200
  0.1338387414238681  0.6767302228184281  0.5778109184832200
  0.1838387414238680  0.6767302228184281  0.5778109184832200
  0.2338387414238680  0.6767302228184281  0.5778109184832200
  0.2838387414238680  0.6767302228184281  0.5778109184832200
  0.3338387414238680  0.6767302228184281  0.5778109184832200
  0.3838387414238680  0.6767302228184281  0.5778109184832200
  0.4338387414238680  0.6767302228184281  0.5778109184832200
  0.4838387414238680  0.6767302228184281  0.5778109184832200
  0.5338387414238680  0.6767302228184281  0.5778109184832200
  0.5838387414238680  0.6767302228184281  0.5778109184832200
  0.6338387414238680  0.6767302228184281  0.5778109184832200
  0.6838387414238682  0.6767302228184281  0.5778109184832200
  0.7338387414238681  0.6767302228184281  0.5778109184832200
  0.7838387414238679  0.6767302228184281  0.5778109184832200
  0.8338387414238682  0.6767302228184281  0.5778109184832200
  0.8838387414238680  0.6767302228184281  0.5778109184832200
  0.9338387414238680  0.6767302228184281  0.5778109184832200
  0.9838387414238681  0.6767302228184281  0.5778109184832200
  0.0338387414238680  0.7267302228184280  0.5778109184832200
  0.0838387414238681  0.7267302228184280  0.5778109184832200
  0.1338387414238680  0.7267302228184280  0.5778109184832200
  0.1838387414238681  0.7267302228184280  0.5778109184832200
  0.2338387414238680  0.7267302228184280  0.5778109184832200
  0.2838387414238681  0.7267302228184280  0.5778109184832200
  0.3338387414238682  0.7267302228184280  0.5778109184832200
  0.3838387414238681  0.7267302228184280  0.5778109184832200
  0.4338387414238681  0.7267302228184280  0.5778109184832200
  0.4838387414238681  0.7267302228184280  0.5778109184832200
  0.5338387414238681  0.7267302228184280  0.5778109184832200
  0.5838387414238683  0.7267302228184280  0.5778109184832200
  0.6338387414238681  0.7267302228184280  0.5778109184832200
  0.6838387414238682  0.7267302228184280  0.5778109184832200
  0.7338387414238683  0.7267302228184280  0.5778109184832200
  0.7838387414238681  0.7267302228184280  0.5778109184832200
  0.8338387414238682  0.7267302228184280  0.5778109184832200
  0.8838387414238680  0.7267302228184280  0.5778109184832200
  0.9338387414238682  0.7267302228184280  0.5778109184832200
  0.9838387414238681  0.7267302228184280  0.5778109184832200
  0.0338387414238680  0.7767302228184282  0.5778109184832200
  0.0838387414238681  0.7767302228184282  0.5778109184832200
  0.1338387414238680  0.7767302228184282  0.5778109184832200
  0.1838387414238681  0.7767302228184282  0.5778109184832200
  0.2338387414238679  0.7767302228184282  0.5778109184832200
  0.2838387414238681  0.7767302228184282  0.5778109184832200
  0.3338387414238680  0.7767302228184282  0.5778109184832200
  0.3838387414238680  0.7767302228184282  0.5778109184832200
  0.4338387414238680  0.7767302228184282  0.5778109184832200
  0.4838387414238680  0.7767302228184282  0.5778109184832200
  0.5338387414238679  0.7767302228184282  0.5778109184832200
  0.5838387414238682  0.7767302228184282  0.5778109184832200
  0.6338387414238680  0.7767302228184282  0.5778109184832200
  0.6838387414238680  0.7767302228184282  0.5778109184832200
  0.7338387414238681  0.7767302228184282  0.5778109184832200
  0.7838387414238679  0.7767302228184282  0.5778109184832200
  0.8338387414238682  0.7767302228184282  0.5778109184832200
  0.8838387414238678  0.7767302228184282  0.5778109184832200
  0.9338387414238680  0.7767302228184282  0.5778109184832200
  0.9838387414238681  0.7767302228184282  0.5778109184832200
  0.0338387414238681  0.8267302228184280  0.5778109184832200
  0.0838387414238680  0.8267302228184280  0.5778109184832200
  0.1338387414238681  0.8267302228184280  0.5778109184832200
  0.1838387414238681  0.8267302228184280  0.5778109184832200
  0.2338387414238680  0.8267302228184280  0.5778109184832200
  0.2838387414238681  0.8267302228184280  0.5778109184832200
  0.3338387414238680  0.8267302228184280  0.5778109184832200
  0.3838387414238681  0.8267302228184280  0.5778109184832200
  0.4338387414238680  0.8267302228184280  0.5778109184832200
  0.4838387414238681  0.8267302228184280  0.5778109184832200
  0.5338387414238680  0.8267302228184280  0.5778109184832200
  0.5838387414238682  0.8267302228184280  0.5778109184832200
  0.6338387414238680  0.8267302228184280  0.5778109184832200
  0.6838387414238682  0.8267302228184280  0.5778109184832200
  0.7338387414238681  0.8267302228184280  0.5778109184832200
  0.7838387414238679  0.8267302228184280  0.5778109184832200
  0.8338387414238682  0.8267302228184280  0.5778109184832200
  0.8838387414238680  0.8267302228184280  0.5778109184832200
  0.9338387414238680  0.8267302228184280  0.5778109184832200
  0.9838387414238681  0.8267302228184280  0.5778109184832200
  0.0338387414238681  0.8767302228184279  0.5778109184832200
  0.0838387414238680  0.8767302228184279  0.5778109184832200
  0.1338387414238681  0.8767302228184279  0.5778109184832200
  0.1838387414238681  0.8767302228184279  0.5778109184832200
  0.2338387414238680  0.8767302228184279  0.5778109184832200
  0.2838387414238681  0.8767302228184279  0.5778109184832200
  0.3338387414238681  0.8767302228184279  0.5778109184832200
  0.3838387414238680  0.8767302228184279  0.5778109184832200
  0.4338387414238681  0.8767302228184279  0.5778109184832200
  0.4838387414238680  0.8767302228184279  0.5778109184832200
  0.5338387414238681  0.8767302228184279  0.5778109184832200
  0.5838387414238684  0.8767302228184279  0.5778109184832200
  0.6338387414238680  0.8767302228184279  0.5778109184832200
  0.6838387414238682  0.8767302228184279  0.5778109184832200
  0.7338387414238683  0.8767302228184279  0.5778109184832200
  0.7838387414238681  0.8767302228184279  0.5778109184832200
  0.8338387414238682  0.8767302228184279  0.5778109184832200
  0.8838387414238680  0.8767302228184279  0.5778109184832200
  0.9338387414238682  0.8767302228184279  0.5778109184832200
  0.9838387414238683  0.8767302228184279  0.5778109184832200
  0.0338387414238680  0.9267302228184281  0.5778109184832200
  0.0838387414238679  0.9267302228184281  0.5778109184832200
  0.1338387414238681  0.9267302228184281  0.5778109184832200
  0.1838387414238681  0.9267302228184281  0.5778109184832200
  0.2338387414238680  0.9267302228184281  0.5778109184832200
  0.2838387414238680  0.9267302228184281  0.5778109184832200
  0.3338387414238680  0.9267302228184281  0.5778109184832200
  0.3838387414238680  0.9267302228184281  0.5778109184832200
  0.4338387414238680  0.9267302228184281  0.5778109184832200
  0.4838387414238680  0.9267302228184281  0.5778109184832200
  0.5338387414238680  0.9267302228184281  0.5778109184832200
  0.5838387414238682  0.9267302228184281  0.5778109184832200
  0.6338387414238680  0.9267302228184281  0.5778109184832200
  0.6838387414238680  0.9267302228184281  0.5778109184832200
  0.7338387414238681  0.9267302228184281  0.5778109184832200
  0.7838387414238679  0.9267302228184281  0.5778109184832200
  0.8338387414238682  0.9267302228184281  0.5778109184832200
  0.8838387414238680  0.9267302228184281  0.5778109184832200
  0.9338387414238680  0.9267302228184281  0.5778109184832200
  0.9838387414238681  0.9267302228184281  0.5778109184832200
  0.0338387414238680  0.9767302228184281  0.5778109184832200
  0.0838387414238681  0.9767302228184281  0.5778109184832200
  0.1338387414238680  0.9767302228184281  0.5778109184832200
  0.1838387414238681  0.9767302228184281  0.5778109184832200
  0.2338387414238680  0.9767302228184281  0.5778109184832200
  0.2838387414238680  0.9767302228184281  0.5778109184832200
  0.3338387414238679  0.9767302228184281  0.5778109184832200
  0.3838387414238680  0.9767302228184281  0.5778109184832200
  0.4338387414238680  0.9767302228184281  0.5778109184832200
  0.4838387414238680  0.9767302228184281  0.5778109184832200
  0.5338387414238680  0.9767302228184281  0.5778109184832200
  0.5838387414238680  0.9767302228184281  0.5778109184832200
  0.6338387414238679  0.9767302228184281  0.5778109184832200
  0.6838387414238681  0.9767302228184281  0.5778109184832200
  0.7338387414238682  0.9767302228184281  0.5778109184832200
  0.7838387414238678  0.9767302228184281  0.5778109184832200
  0.8338387414238680  0.9767302228184281  0.5778109184832200
  0.8838387414238679  0.9767302228184281  0.5778109184832200
  0.9338387414238681  0.9767302228184281  0.5778109184832200
  0.9838387414238680  0.9767302228184281  0.5778109184832200
