generated by phonopy
   1.0
    34.5312476610872992    0.0000000000000000    0.0000000000000000
    13.8127802529437602   43.3239956855702388    0.0000000000000000
     0.0000000000000000    0.0000000000000000   30.0000000000000000
Ga O
 320  480
Direct
  0.0557288416047160  0.0989790931875163  0.4040940118915999
  0.1557288416047160  0.0989790931875163  0.4040940118915999
  0.2557288416047160  0.0989790931875163  0.4040940118915999
  0.3557288416047160  0.0989790931875163  0.4040940118915999
  0.4557288416047161  0.0989790931875163  0.4040940118915999
  0.5557288416047161  0.0989790931875163  0.4040940118915999
  0.6557288416047161  0.0989790931875163  0.4040940118915999
  0.7557288416047162  0.0989790931875163  0.4040940118915999
  0.8557288416047161  0.0989790931875163  0.4040940118915999
  0.9557288416047158  0.0989790931875163  0.4040940118915999
  0.0557288416047160  0.2239790931875162  0.4040940118915999
  0.1557288416047160  0.2239790931875162  0.4040940118915999
  0.2557288416047161  0.2239790931875162  0.4040940118915999
  0.3557288416047161  0.2239790931875162  0.4040940118915999
  0.4557288416047161  0.2239790931875162  0.4040940118915999
  0.5557288416047160  0.2239790931875162  0.4040940118915999
  0.6557288416047160  0.2239790931875162  0.4040940118915999
  0.7557288416047161  0.2239790931875162  0.4040940118915999
  0.8557288416047160  0.2239790931875162  0.4040940118915999
  0.9557288416047158  0.2239790931875162  0.4040940118915999
  0.0557288416047160  0.3489790931875162  0.4040940118915999
  0.1557288416047160  0.3489790931875162  0.4040940118915999
  0.2557288416047160  0.3489790931875162  0.4040940118915999
  0.3557288416047161  0.3489790931875162  0.4040940118915999
  0.4557288416047161  0.3489790931875162  0.4040940118915999
  0.5557288416047160  0.3489790931875162  0.4040940118915999
  0.6557288416047160  0.3489790931875162  0.4040940118915999
  0.7557288416047161  0.3489790931875162  0.4040940118915999
  0.8557288416047160  0.3489790931875162  0.4040940118915999
  0.9557288416047158  0.3489790931875162  0.4040940118915999
  0.0557288416047160  0.4739790931875162  0.4040940118915999
  0.1557288416047160  0.4739790931875162  0.4040940118915999
  0.2557288416047160  0.4739790931875162  0.4040940118915999
  0.3557288416047160  0.4739790931875162  0.4040940118915999
  0.4557288416047159  0.4739790931875162  0.4040940118915999
  0.5557288416047159  0.4739790931875162  0.4040940118915999
  0.6557288416047159  0.4739790931875162  0.4040940118915999
  0.7557288416047161  0.4739790931875162  0.4040940118915999
  0.8557288416047160  0.4739790931875162  0.4040940118915999
  0.9557288416047158  0.4739790931875162  0.4040940118915999
  0.0557288416047160  0.5989790931875163  0.4040940118915999
  0.1557288416047160  0.5989790931875163  0.4040940118915999
  0.2557288416047160  0.5989790931875163  0.4040940118915999
  0.3557288416047160  0.5989790931875163  0.4040940118915999
  0.4557288416047161  0.5989790931875163  0.4040940118915999
  0.5557288416047160  0.5989790931875163  0.4040940118915999
  0.6557288416047160  0.5989790931875163  0.4040940118915999
  0.7557288416047161  0.5989790931875163  0.4040940118915999
  0.8557288416047157  0.5989790931875163  0.4040940118915999
  0.9557288416047158  0.5989790931875163  0.4040940118915999
  0.0557288416047159  0.7239790931875163  0.4040940118915999
  0.1557288416047160  0.7239790931875163  0.4040940118915999
  0.2557288416047160  0.7239790931875163  0.4040940118915999
  0.3557288416047160  0.7239790931875163  0.4040940118915999
  0.4557288416047159  0.7239790931875163  0.4040940118915999
  0.5557288416047159  0.7239790931875163  0.4040940118915999
  0.6557288416047160  0.7239790931875163  0.4040940118915999
  0.7557288416047161  0.7239790931875163  0.4040940118915999
  0.8557288416047160  0.7239790931875163  0.4040940118915999
  0.9557288416047158  0.7239790931875163  0.4040940118915999
  0.0557288416047159  0.8489790931875163  0.4040940118915999
  0.1557288416047159  0.8489790931875163  0.4040940118915999
  0.2557288416047160  0.8489790931875163  0.4040940118915999
  0.3557288416047160  0.8489790931875163  0.4040940118915999
  0.4557288416047159  0.8489790931875163  0.4040940118915999
  0.5557288416047159  0.8489790931875163  0.4040940118915999
  0.6557288416047160  0.8489790931875163  0.4040940118915999
  0.7557288416047159  0.8489790931875163  0.4040940118915999
  0.8557288416047160  0.8489790931875163  0.4040940118915999
  0.9557288416047158  0.8489790931875163  0.4040940118915999
  0.0557288416047160  0.9739790931875162  0.4040940118915999
  0.1557288416047160  0.9739790931875162  0.4040940118915999
  0.2557288416047161  0.9739790931875162  0.4040940118915999
  0.3557288416047161  0.9739790931875162  0.4040940118915999
  0.4557288416047161  0.9739790931875162  0.4040940118915999
  0.5557288416047160  0.9739790931875162  0.4040940118915999
  0.6557288416047161  0.9739790931875162  0.4040940118915999
  0.7557288416047160  0.9739790931875162  0.4040940118915999
  0.8557288416047161  0.9739790931875162  0.4040940118915999
  0.9557288416047157  0.9739790931875162  0.4040940118915999
  0.0243267000557169  0.0510370908034537  0.3750824751567000
  0.1249058856153090  0.0510370908034537  0.3750824751567000
  0.2249058856153090  0.0510370908034537  0.3750824751567000
  0.3249058856153090  0.0510370908034537  0.3750824751567000
  0.4249058856153091  0.0510370908034537  0.3750824751567000
  0.5249058856153089  0.0510370908034537  0.3750824751567000
  0.6249058856153090  0.0510370908034537  0.3750824751567000
  0.7249058856153090  0.0510370908034537  0.3750824751567000
  0.8249058856153089  0.0510370908034537  0.3750824751567000
  0.9249058856153090  0.0510370908034537  0.3750824751567000
  0.0249058856153090  0.1760370908034538  0.3750824751567000
  0.1249058856153090  0.1760370908034538  0.3750824751567000
  0.2249058856153090  0.1760370908034538  0.3750824751567000
  0.3249058856153090  0.1760370908034538  0.3750824751567000
  0.4249058856153091  0.1760370908034538  0.3750824751567000
  0.5249058856153092  0.1760370908034538  0.3750824751567000
  0.6249058856153092  0.1760370908034538  0.3750824751567000
  0.7249058856153092  0.1760370908034538  0.3750824751567000
  0.8249058856153091  0.1760370908034538  0.3750824751567000
  0.9249058856153091  0.1760370908034538  0.3750824751567000
  0.0249058856153090  0.3010370908034538  0.3750824751567000
  0.1249058856153090  0.3010370908034538  0.3750824751567000
  0.2249058856153090  0.3010370908034538  0.3750824751567000
  0.3249058856153090  0.3010370908034538  0.3750824751567000
  0.4249058856153090  0.3010370908034538  0.3750824751567000
  0.5249058856153090  0.3010370908034538  0.3750824751567000
  0.6249058856153091  0.3010370908034538  0.3750824751567000
  0.7249058856153091  0.3010370908034538  0.3750824751567000
  0.8249058856153090  0.3010370908034538  0.3750824751567000
  0.9249058856153090  0.3010370908034538  0.3750824751567000
  0.0249058856153090  0.4260370908034537  0.3750824751567000
  0.1249058856153090  0.4260370908034537  0.3750824751567000
  0.2249058856153090  0.4260370908034537  0.3750824751567000
  0.3249058856153091  0.4260370908034537  0.3750824751567000
  0.4249058856153091  0.4260370908034537  0.3750824751567000
  0.5249058856153090  0.4260370908034537  0.3750824751567000
  0.6249058856153091  0.4260370908034537  0.3750824751567000
  0.7249058856153091  0.4260370908034537  0.3750824751567000
  0.8249058856153090  0.4260370908034537  0.3750824751567000
  0.9249058856153090  0.4260370908034537  0.3750824751567000
  0.0249058856153090  0.5510370908034538  0.3750824751567000
  0.1249058856153090  0.5510370908034538  0.3750824751567000
  0.2249058856153090  0.5510370908034538  0.3750824751567000
  0.3249058856153090  0.5510370908034538  0.3750824751567000
  0.4249058856153090  0.5510370908034538  0.3750824751567000
  0.5249058856153089  0.5510370908034538  0.3750824751567000
  0.6249058856153090  0.5510370908034538  0.3750824751567000
  0.7249058856153091  0.5510370908034538  0.3750824751567000
  0.8249058856153089  0.5510370908034538  0.3750824751567000
  0.9249058856153090  0.5510370908034538  0.3750824751567000
  0.0249058856153090  0.6760370908034538  0.3750824751567000
  0.1249058856153090  0.6760370908034538  0.3750824751567000
  0.2249058856153090  0.6760370908034538  0.3750824751567000
  0.3249058856153090  0.6760370908034538  0.3750824751567000
  0.4249058856153091  0.6760370908034538  0.3750824751567000
  0.5249058856153090  0.6760370908034538  0.3750824751567000
  0.6249058856153091  0.6760370908034538  0.3750824751567000
  0.7249058856153091  0.6760370908034538  0.3750824751567000
  0.8249058856153089  0.6760370908034538  0.3750824751567000
  0.9249058856153087  0.6760370908034538  0.3750824751567000
  0.0249058856153090  0.8010370908034536  0.3750824751567000
  0.1249058856153090  0.8010370908034536  0.3750824751567000
  0.2249058856153090  0.8010370908034536  0.3750824751567000
  0.3249058856153089  0.8010370908034536  0.3750824751567000
  0.4249058856153090  0.8010370908034536  0.3750824751567000
  0.5249058856153090  0.8010370908034536  0.3750824751567000
  0.6249058856153091  0.8010370908034536  0.3750824751567000
  0.7249058856153091  0.8010370908034536  0.3750824751567000
  0.8249058856153090  0.8010370908034536  0.3750824751567000
  0.9249058856153088  0.8010370908034536  0.3750824751567000
  0.0249058856153089  0.9260370908034538  0.3750824751567000
  0.1249058856153090  0.9260370908034538  0.3750824751567000
  0.2249058856153090  0.9260370908034538  0.3750824751567000
  0.3249058856153090  0.9260370908034538  0.3750824751567000
  0.4249058856153090  0.9260370908034538  0.3750824751567000
  0.5249058856153090  0.9260370908034538  0.3750824751567000
  0.6249058856153091  0.9260370908034538  0.3750824751567000
  0.7249058856153091  0.9260370908034538  0.3750824751567000
  0.8249058856153090  0.9260370908034538  0.3750824751567000
  0.9249058856153091  0.9260370908034538  0.3750824751567000
  0.0544440601405090  0.0999088400985438  0.6249391735401600
  0.1544440601405090  0.0999088400985438  0.6249391735401600
  0.2544440601405090  0.0999088400985438  0.6249391735401600
  0.3544440601405089  0.0999088400985438  0.6249391735401600
  0.4544440601405090  0.0999088400985438  0.6249391735401600
  0.5544440601405091  0.0999088400985438  0.6249391735401600
  0.6544440601405090  0.0999088400985438  0.6249391735401600
  0.7544440601405089  0.0999088400985438  0.6249391735401600
  0.8544440601405089  0.0999088400985438  0.6249391735401600
  0.9544440601405089  0.0999088400985438  0.6249391735401600
  0.0544440601405090  0.2249088400985438  0.6249391735401600
  0.1544440601405090  0.2249088400985438  0.6249391735401600
  0.2544440601405090  0.2249088400985438  0.6249391735401600
  0.3544440601405090  0.2249088400985438  0.6249391735401600
  0.4544440601405090  0.2249088400985438  0.6249391735401600
  0.5544440601405090  0.2249088400985438  0.6249391735401600
  0.6544440601405089  0.2249088400985438  0.6249391735401600
  0.7544440601405089  0.2249088400985438  0.6249391735401600
  0.8544440601405089  0.2249088400985438  0.6249391735401600
  0.9544440601405088  0.2249088400985438  0.6249391735401600
  0.0544440601405090  0.3499088400985437  0.6249391735401600
  0.1544440601405090  0.3499088400985437  0.6249391735401600
  0.2544440601405090  0.3499088400985437  0.6249391735401600
  0.3544440601405089  0.3499088400985437  0.6249391735401600
  0.4544440601405090  0.3499088400985437  0.6249391735401600
  0.5544440601405092  0.3499088400985437  0.6249391735401600
  0.6544440601405092  0.3499088400985437  0.6249391735401600
  0.7544440601405090  0.3499088400985437  0.6249391735401600
  0.8544440601405089  0.3499088400985437  0.6249391735401600
  0.9544440601405089  0.3499088400985437  0.6249391735401600
  0.0544440601405090  0.4749088400985437  0.6249391735401600
  0.1544440601405090  0.4749088400985437  0.6249391735401600
  0.2544440601405090  0.4749088400985437  0.6249391735401600
  0.3544440601405089  0.4749088400985437  0.6249391735401600
  0.4544440601405090  0.4749088400985437  0.6249391735401600
  0.5544440601405091  0.4749088400985437  0.6249391735401600
  0.6544440601405090  0.4749088400985437  0.6249391735401600
  0.7544440601405089  0.4749088400985437  0.6249391735401600
  0.8544440601405088  0.4749088400985437  0.6249391735401600
  0.9544440601405089  0.4749088400985437  0.6249391735401600
  0.0544440601405090  0.5999088400985437  0.6249391735401600
  0.1544440601405090  0.5999088400985437  0.6249391735401600
  0.2544440601405090  0.5999088400985437  0.6249391735401600
  0.3544440601405090  0.5999088400985437  0.6249391735401600
  0.4544440601405090  0.5999088400985437  0.6249391735401600
  0.5544440601405091  0.5999088400985437  0.6249391735401600
  0.6544440601405090  0.5999088400985437  0.6249391735401600
  0.7544440601405090  0.5999088400985437  0.6249391735401600
  0.8544440601405090  0.5999088400985437  0.6249391735401600
  0.9544440601405091  0.5999088400985437  0.6249391735401600
  0.0544440601405090  0.7249088400985437  0.6249391735401600
  0.1544440601405089  0.7249088400985437  0.6249391735401600
  0.2544440601405090  0.7249088400985437  0.6249391735401600
  0.3544440601405090  0.7249088400985437  0.6249391735401600
  0.4544440601405090  0.7249088400985437  0.6249391735401600
  0.5544440601405091  0.7249088400985437  0.6249391735401600
  0.6544440601405090  0.7249088400985437  0.6249391735401600
  0.7544440601405089  0.7249088400985437  0.6249391735401600
  0.8544440601405090  0.7249088400985437  0.6249391735401600
  0.9544440601405089  0.7249088400985437  0.6249391735401600
  0.0544440601405090  0.8499088400985438  0.6249391735401600
  0.1544440601405090  0.8499088400985438  0.6249391735401600
  0.2544440601405089  0.8499088400985438  0.6249391735401600
  0.3544440601405089  0.8499088400985438  0.6249391735401600
  0.4544440601405090  0.8499088400985438  0.6249391735401600
  0.5544440601405091  0.8499088400985438  0.6249391735401600
  0.6544440601405089  0.8499088400985438  0.6249391735401600
  0.7544440601405089  0.8499088400985438  0.6249391735401600
  0.8544440601405090  0.8499088400985438  0.6249391735401600
  0.9544440601405089  0.8499088400985438  0.6249391735401600
  0.0544440601405090  0.9749088400985436  0.6249391735401600
  0.1544440601405090  0.9749088400985436  0.6249391735401600
  0.2544440601405090  0.9749088400985436  0.6249391735401600
  0.3544440601405089  0.9749088400985436  0.6249391735401600
  0.4544440601405090  0.9749088400985436  0.6249391735401600
  0.5544440601405091  0.9749088400985436  0.6249391735401600
  0.6544440601405089  0.9749088400985436  0.6249391735401600
  0.7544440601405090  0.9749088400985436  0.6249391735401600
  0.8544440601405089  0.9749088400985436  0.6249391735401600
  0.9544440601405090  0.9749088400985436  0.6249391735401600
  0.0236211041454170  0.0519668377329825  0.5959276367889000
  0.1236211041454170  0.0519668377329825  0.5959276367889000
  0.2236211041454170  0.0519668377329825  0.5959276367889000
  0.3236211041454170  0.0519668377329825  0.5959276367889000
  0.4236211041454170  0.0519668377329825  0.5959276367889000
  0.5236211041454170  0.0519668377329825  0.5959276367889000
  0.6236211041454170  0.0519668377329825  0.5959276367889000
  0.7236211041454170  0.0519668377329825  0.5959276367889000
  0.8236211041454171  0.0519668377329825  0.5959276367889000
  0.9236211041454170  0.0519668377329825  0.5959276367889000
  0.0236211041454170  0.1769668377329825  0.5959276367889000
  0.1236211041454170  0.1769668377329825  0.5959276367889000
  0.2236211041454170  0.1769668377329825  0.5959276367889000
  0.3236211041454169  0.1769668377329825  0.5959276367889000
  0.4236211041454169  0.1769668377329825  0.5959276367889000
  0.5236211041454170  0.1769668377329825  0.5959276367889000
  0.6236211041454169  0.1769668377329825  0.5959276367889000
  0.7236211041454169  0.1769668377329825  0.5959276367889000
  0.8236211041454170  0.1769668377329825  0.5959276367889000
  0.9236211041454169  0.1769668377329825  0.5959276367889000
  0.0236211041454170  0.3019668377329825  0.5959276367889000
  0.1236211041454170  0.3019668377329825  0.5959276367889000
  0.2236211041454169  0.3019668377329825  0.5959276367889000
  0.3236211041454169  0.3019668377329825  0.5959276367889000
  0.4236211041454169  0.3019668377329825  0.5959276367889000
  0.5236211041454168  0.3019668377329825  0.5959276367889000
  0.6236211041454169  0.3019668377329825  0.5959276367889000
  0.7236211041454169  0.3019668377329825  0.5959276367889000
  0.8236211041454171  0.3019668377329825  0.5959276367889000
  0.9236211041454170  0.3019668377329825  0.5959276367889000
  0.0236211041454170  0.4269668377329825  0.5959276367889000
  0.1236211041454169  0.4269668377329825  0.5959276367889000
  0.2236211041454169  0.4269668377329825  0.5959276367889000
  0.3236211041454169  0.4269668377329825  0.5959276367889000
  0.4236211041454169  0.4269668377329825  0.5959276367889000
  0.5236211041454168  0.4269668377329825  0.5959276367889000
  0.6236211041454169  0.4269668377329825  0.5959276367889000
  0.7236211041454169  0.4269668377329825  0.5959276367889000
  0.8236211041454170  0.4269668377329825  0.5959276367889000
  0.9236211041454170  0.4269668377329825  0.5959276367889000
  0.0236211041454170  0.5519668377329825  0.5959276367889000
  0.1236211041454170  0.5519668377329825  0.5959276367889000
  0.2236211041454169  0.5519668377329825  0.5959276367889000
  0.3236211041454169  0.5519668377329825  0.5959276367889000
  0.4236211041454169  0.5519668377329825  0.5959276367889000
  0.5236211041454170  0.5519668377329825  0.5959276367889000
  0.6236211041454170  0.5519668377329825  0.5959276367889000
  0.7236211041454169  0.5519668377329825  0.5959276367889000
  0.8236211041454170  0.5519668377329825  0.5959276367889000
  0.9236211041454171  0.5519668377329825  0.5959276367889000
  0.0236211041454170  0.6769668377329825  0.5959276367889000
  0.1236211041454170  0.6769668377329825  0.5959276367889000
  0.2236211041454169  0.6769668377329825  0.5959276367889000
  0.3236211041454169  0.6769668377329825  0.5959276367889000
  0.4236211041454169  0.6769668377329825  0.5959276367889000
  0.5236211041454170  0.6769668377329825  0.5959276367889000
  0.6236211041454170  0.6769668377329825  0.5959276367889000
  0.7236211041454169  0.6769668377329825  0.5959276367889000
  0.8236211041454170  0.6769668377329825  0.5959276367889000
  0.9236211041454171  0.6769668377329825  0.5959276367889000
  0.0236211041454170  0.8019668377329825  0.5959276367889000
  0.1236211041454170  0.8019668377329825  0.5959276367889000
  0.2236211041454169  0.8019668377329825  0.5959276367889000
  0.3236211041454168  0.8019668377329825  0.5959276367889000
  0.4236211041454168  0.8019668377329825  0.5959276367889000
  0.5236211041454168  0.8019668377329825  0.5959276367889000
  0.6236211041454170  0.8019668377329825  0.5959276367889000
  0.7236211041454171  0.8019668377329825  0.5959276367889000
  0.8236211041454170  0.8019668377329825  0.5959276367889000
  0.9236211041454171  0.8019668377329825  0.5959276367889000
  0.0236211041454170  0.9269668377329824  0.5959276367889000
  0.1236211041454170  0.9269668377329824  0.5959276367889000
  0.2236211041454169  0.9269668377329824  0.5959276367889000
  0.3236211041454169  0.9269668377329824  0.5959276367889000
  0.4236211041454169  0.9269668377329824  0.5959276367889000
  0.5236211041454168  0.9269668377329824  0.5959276367889000
  0.6236211041454170  0.9269668377329824  0.5959276367889000
  0.7236211041454169  0.9269668377329824  0.5959276367889000
  0.8236211041454170  0.9269668377329824  0.5959276367889000
  0.9236211041454169  0.9269668377329824  0.5959276367889000
  0.0116724629013760  0.0841203738750663  0.4222107301842400
  0.1116724629013760  0.0841203738750663  0.4222107301842400
  0.2116724629013759  0.0841203738750663  0.4222107301842400
  0.3116724629013760  0.0841203738750663  0.4222107301842400
  0.4116724629013759  0.0841203738750663  0.4222107301842400
  0.5116724629013761  0.0841203738750663  0.4222107301842400
  0.6116724629013761  0.0841203738750663  0.4222107301842400
  0.7116724629013761  0.0841203738750663  0.4222107301842400
  0.8116724629013762  0.0841203738750663  0.4222107301842400
  0.9116724629013760  0.0841203738750663  0.4222107301842400
  0.0116724629013760  0.2091203738750663  0.4222107301842400
  0.1116724629013760  0.2091203738750663  0.4222107301842400
  0.2116724629013760  0.2091203738750663  0.4222107301842400
  0.3116724629013760  0.2091203738750663  0.4222107301842400
  0.4116724629013759  0.2091203738750663  0.4222107301842400
  0.5116724629013760  0.2091203738750663  0.4222107301842400
  0.6116724629013760  0.2091203738750663  0.4222107301842400
  0.7116724629013760  0.2091203738750663  0.4222107301842400
  0.8116724629013761  0.2091203738750663  0.4222107301842400
  0.9116724629013762  0.2091203738750663  0.4222107301842400
  0.0116724629013760  0.3341203738750663  0.4222107301842400
  0.1116724629013760  0.3341203738750663  0.4222107301842400
  0.2116724629013760  0.3341203738750663  0.4222107301842400
  0.3116724629013760  0.3341203738750663  0.4222107301842400
  0.4116724629013759  0.3341203738750663  0.4222107301842400
  0.5116724629013760  0.3341203738750663  0.4222107301842400
  0.6116724629013760  0.3341203738750663  0.4222107301842400
  0.7116724629013760  0.3341203738750663  0.4222107301842400
  0.8116724629013762  0.3341203738750663  0.4222107301842400
  0.9116724629013762  0.3341203738750663  0.4222107301842400
  0.0116724629013760  0.4591203738750662  0.4222107301842400
  0.1116724629013760  0.4591203738750662  0.4222107301842400
  0.2116724629013760  0.4591203738750662  0.4222107301842400
  0.3116724629013760  0.4591203738750662  0.4222107301842400
  0.4116724629013760  0.4591203738750662  0.4222107301842400
  0.5116724629013760  0.4591203738750662  0.4222107301842400
  0.6116724629013760  0.4591203738750662  0.4222107301842400
  0.7116724629013760  0.4591203738750662  0.4222107301842400
  0.8116724629013761  0.4591203738750662  0.4222107301842400
  0.9116724629013762  0.4591203738750662  0.4222107301842400
  0.0116724629013760  0.5841203738750662  0.4222107301842400
  0.1116724629013759  0.5841203738750662  0.4222107301842400
  0.2116724629013759  0.5841203738750662  0.4222107301842400
  0.3116724629013760  0.5841203738750662  0.4222107301842400
  0.4116724629013760  0.5841203738750662  0.4222107301842400
  0.5116724629013760  0.5841203738750662  0.4222107301842400
  0.6116724629013760  0.5841203738750662  0.4222107301842400
  0.7116724629013759  0.5841203738750662  0.4222107301842400
  0.8116724629013761  0.5841203738750662  0.4222107301842400
  0.9116724629013759  0.5841203738750662  0.4222107301842400
  0.0116724629013760  0.7091203738750662  0.4222107301842400
  0.1116724629013759  0.7091203738750662  0.4222107301842400
  0.2116724629013759  0.7091203738750662  0.4222107301842400
  0.3116724629013760  0.7091203738750662  0.4222107301842400
  0.4116724629013760  0.7091203738750662  0.4222107301842400
  0.5116724629013761  0.7091203738750662  0.4222107301842400
  0.6116724629013761  0.7091203738750662  0.4222107301842400
  0.7116724629013760  0.7091203738750662  0.4222107301842400
  0.8116724629013762  0.7091203738750662  0.4222107301842400
  0.9116724629013760  0.7091203738750662  0.4222107301842400
  0.0116724629013760  0.8341203738750662  0.4222107301842400
  0.1116724629013760  0.8341203738750662  0.4222107301842400
  0.2116724629013760  0.8341203738750662  0.4222107301842400
  0.3116724629013760  0.8341203738750662  0.4222107301842400
  0.4116724629013759  0.8341203738750662  0.4222107301842400
  0.5116724629013760  0.8341203738750662  0.4222107301842400
  0.6116724629013761  0.8341203738750662  0.4222107301842400
  0.7116724629013761  0.8341203738750662  0.4222107301842400
  0.8116724629013762  0.8341203738750662  0.4222107301842400
  0.9116724629013760  0.8341203738750662  0.4222107301842400
  0.0116724629013759  0.9591203738750662  0.4222107301842400
  0.1116724629013760  0.9591203738750662  0.4222107301842400
  0.2116724629013760  0.9591203738750662  0.4222107301842400
  0.3116724629013760  0.9591203738750662  0.4222107301842400
  0.4116724629013759  0.9591203738750662  0.4222107301842400
  0.5116724629013760  0.9591203738750662  0.4222107301842400
  0.6116724629013761  0.9591203738750662  0.4222107301842400
  0.7116724629013761  0.9591203738750662  0.4222107301842400
  0.8116724629013760  0.9591203738750662  0.4222107301842400
  0.9116724629013760  0.9591203738750662  0.4222107301842400
  0.0390547239498750  0.0156645228036838  0.4075733843043099
  0.1390547239498750  0.0156645228036838  0.4075733843043099
  0.2390547239498750  0.0156645228036838  0.4075733843043099
  0.3390547239498750  0.0156645228036838  0.4075733843043099
  0.4390547239498750  0.0156645228036838  0.4075733843043099
  0.5390547239498751  0.0156645228036838  0.4075733843043099
  0.6390547239498751  0.0156645228036838  0.4075733843043099
  0.7390547239498750  0.0156645228036838  0.4075733843043099
  0.8390547239498750  0.0156645228036838  0.4075733843043099
  0.9390547239498751  0.0156645228036838  0.4075733843043099
  0.0390547239498750  0.1406645228036837  0.4075733843043099
  0.1390547239498750  0.1406645228036837  0.4075733843043099
  0.2390547239498750  0.1406645228036837  0.4075733843043099
  0.3390547239498751  0.1406645228036837  0.4075733843043099
  0.4390547239498751  0.1406645228036837  0.4075733843043099
  0.5390547239498751  0.1406645228036837  0.4075733843043099
  0.6390547239498751  0.1406645228036837  0.4075733843043099
  0.7390547239498750  0.1406645228036837  0.4075733843043099
  0.8390547239498750  0.1406645228036837  0.4075733843043099
  0.9390547239498751  0.1406645228036837  0.4075733843043099
  0.0390547239498750  0.2656645228036837  0.4075733843043099
  0.1390547239498750  0.2656645228036837  0.4075733843043099
  0.2390547239498750  0.2656645228036837  0.4075733843043099
  0.3390547239498750  0.2656645228036837  0.4075733843043099
  0.4390547239498750  0.2656645228036837  0.4075733843043099
  0.5390547239498750  0.2656645228036837  0.4075733843043099
  0.6390547239498749  0.2656645228036837  0.4075733843043099
  0.7390547239498749  0.2656645228036837  0.4075733843043099
  0.8390547239498750  0.2656645228036837  0.4075733843043099
  0.9390547239498750  0.2656645228036837  0.4075733843043099
  0.0390547239498750  0.3906645228036837  0.4075733843043099
  0.1390547239498750  0.3906645228036837  0.4075733843043099
  0.2390547239498750  0.3906645228036837  0.4075733843043099
  0.3390547239498750  0.3906645228036837  0.4075733843043099
  0.4390547239498750  0.3906645228036837  0.4075733843043099
  0.5390547239498750  0.3906645228036837  0.4075733843043099
  0.6390547239498749  0.3906645228036837  0.4075733843043099
  0.7390547239498749  0.3906645228036837  0.4075733843043099
  0.8390547239498750  0.3906645228036837  0.4075733843043099
  0.9390547239498750  0.3906645228036837  0.4075733843043099
  0.0390547239498750  0.5156645228036838  0.4075733843043099
  0.1390547239498750  0.5156645228036838  0.4075733843043099
  0.2390547239498750  0.5156645228036838  0.4075733843043099
  0.3390547239498749  0.5156645228036838  0.4075733843043099
  0.4390547239498750  0.5156645228036838  0.4075733843043099
  0.5390547239498750  0.5156645228036838  0.4075733843043099
  0.6390547239498749  0.5156645228036838  0.4075733843043099
  0.7390547239498749  0.5156645228036838  0.4075733843043099
  0.8390547239498749  0.5156645228036838  0.4075733843043099
  0.9390547239498750  0.5156645228036838  0.4075733843043099
  0.0390547239498750  0.6406645228036838  0.4075733843043099
  0.1390547239498750  0.6406645228036838  0.4075733843043099
  0.2390547239498750  0.6406645228036838  0.4075733843043099
  0.3390547239498751  0.6406645228036838  0.4075733843043099
  0.4390547239498750  0.6406645228036838  0.4075733843043099
  0.5390547239498750  0.6406645228036838  0.4075733843043099
  0.6390547239498749  0.6406645228036838  0.4075733843043099
  0.7390547239498749  0.6406645228036838  0.4075733843043099
  0.8390547239498749  0.6406645228036838  0.4075733843043099
  0.9390547239498750  0.6406645228036838  0.4075733843043099
  0.0390547239498750  0.7656645228036838  0.4075733843043099
  0.1390547239498750  0.7656645228036838  0.4075733843043099
  0.2390547239498750  0.7656645228036838  0.4075733843043099
  0.3390547239498750  0.7656645228036838  0.4075733843043099
  0.4390547239498749  0.7656645228036838  0.4075733843043099
  0.5390547239498749  0.7656645228036838  0.4075733843043099
  0.6390547239498748  0.7656645228036838  0.4075733843043099
  0.7390547239498748  0.7656645228036838  0.4075733843043099
  0.8390547239498749  0.7656645228036838  0.4075733843043099
  0.9390547239498750  0.7656645228036838  0.4075733843043099
  0.0390547239498749  0.8906645228036838  0.4075733843043099
  0.1390547239498750  0.8906645228036838  0.4075733843043099
  0.2390547239498750  0.8906645228036838  0.4075733843043099
  0.3390547239498750  0.8906645228036838  0.4075733843043099
  0.4390547239498750  0.8906645228036838  0.4075733843043099
  0.5390547239498750  0.8906645228036838  0.4075733843043099
  0.6390547239498748  0.8906645228036838  0.4075733843043099
  0.7390547239498748  0.8906645228036838  0.4075733843043099
  0.8390547239498747  0.8906645228036838  0.4075733843043099
  0.9390547239498750  0.8906645228036838  0.4075733843043099
  0.0684091729822750  0.0672786194048650  0.3563998703220700
  0.1684091729822750  0.0672786194048650  0.3563998703220700
  0.2684091729822750  0.0672786194048650  0.3563998703220700
  0.3684091729822750  0.0672786194048650  0.3563998703220700
  0.4684091729822750  0.0672786194048650  0.3563998703220700
  0.5684091729822750  0.0672786194048650  0.3563998703220700
  0.6684091729822751  0.0672786194048650  0.3563998703220700
  0.7684091729822751  0.0672786194048650  0.3563998703220700
  0.8684091729822750  0.0672786194048650  0.3563998703220700
  0.9684091729822750  0.0672786194048650  0.3563998703220700
  0.0684091729822750  0.1922786194048650  0.3563998703220700
  0.1684091729822750  0.1922786194048650  0.3563998703220700
  0.2684091729822750  0.1922786194048650  0.3563998703220700
  0.3684091729822750  0.1922786194048650  0.3563998703220700
  0.4684091729822749  0.1922786194048650  0.3563998703220700
  0.5684091729822749  0.1922786194048650  0.3563998703220700
  0.6684091729822750  0.1922786194048650  0.3563998703220700
  0.7684091729822750  0.1922786194048650  0.3563998703220700
  0.8684091729822749  0.1922786194048650  0.3563998703220700
  0.9684091729822750  0.1922786194048650  0.3563998703220700
  0.0684091729822750  0.3172786194048650  0.3563998703220700
  0.1684091729822750  0.3172786194048650  0.3563998703220700
  0.2684091729822750  0.3172786194048650  0.3563998703220700
  0.3684091729822750  0.3172786194048650  0.3563998703220700
  0.4684091729822750  0.3172786194048650  0.3563998703220700
  0.5684091729822750  0.3172786194048650  0.3563998703220700
  0.6684091729822751  0.3172786194048650  0.3563998703220700
  0.7684091729822751  0.3172786194048650  0.3563998703220700
  0.8684091729822749  0.3172786194048650  0.3563998703220700
  0.9684091729822748  0.3172786194048650  0.3563998703220700
  0.0684091729822750  0.4422786194048650  0.3563998703220700
  0.1684091729822750  0.4422786194048650  0.3563998703220700
  0.2684091729822750  0.4422786194048650  0.3563998703220700
  0.3684091729822751  0.4422786194048650  0.3563998703220700
  0.4684091729822751  0.4422786194048650  0.3563998703220700
  0.5684091729822750  0.4422786194048650  0.3563998703220700
  0.6684091729822750  0.4422786194048650  0.3563998703220700
  0.7684091729822748  0.4422786194048650  0.3563998703220700
  0.8684091729822749  0.4422786194048650  0.3563998703220700
  0.9684091729822748  0.4422786194048650  0.3563998703220700
  0.0684091729822749  0.5672786194048650  0.3563998703220700
  0.1684091729822750  0.5672786194048650  0.3563998703220700
  0.2684091729822750  0.5672786194048650  0.3563998703220700
  0.3684091729822750  0.5672786194048650  0.3563998703220700
  0.4684091729822750  0.5672786194048650  0.3563998703220700
  0.5684091729822750  0.5672786194048650  0.3563998703220700
  0.6684091729822751  0.5672786194048650  0.3563998703220700
  0.7684091729822752  0.5672786194048650  0.3563998703220700
  0.8684091729822750  0.5672786194048650  0.3563998703220700
  0.9684091729822751  0.5672786194048650  0.3563998703220700
  0.0684091729822750  0.6922786194048650  0.3563998703220700
  0.1684091729822750  0.6922786194048650  0.3563998703220700
  0.2684091729822751  0.6922786194048650  0.3563998703220700
  0.3684091729822750  0.6922786194048650  0.3563998703220700
  0.4684091729822750  0.6922786194048650  0.3563998703220700
  0.5684091729822750  0.6922786194048650  0.3563998703220700
  0.6684091729822751  0.6922786194048650  0.3563998703220700
  0.7684091729822752  0.6922786194048650  0.3563998703220700
  0.8684091729822750  0.6922786194048650  0.3563998703220700
  0.9684091729822751  0.6922786194048650  0.3563998703220700
  0.0684091729822749  0.8172786194048650  0.3563998703220700
  0.1684091729822750  0.8172786194048650  0.3563998703220700
  0.2684091729822750  0.8172786194048650  0.3563998703220700
  0.3684091729822750  0.8172786194048650  0.3563998703220700
  0.4684091729822750  0.8172786194048650  0.3563998703220700
  0.5684091729822750  0.8172786194048650  0.3563998703220700
  0.6684091729822751  0.8172786194048650  0.3563998703220700
  0.7684091729822752  0.8172786194048650  0.3563998703220700
  0.8684091729822750  0.8172786194048650  0.3563998703220700
  0.9684091729822751  0.8172786194048650  0.3563998703220700
  0.0684091729822750  0.9422786194048650  0.3563998703220700
  0.1684091729822750  0.9422786194048650  0.3563998703220700
  0.2684091729822750  0.9422786194048650  0.3563998703220700
  0.3684091729822750  0.9422786194048650  0.3563998703220700
  0.4684091729822750  0.9422786194048650  0.3563998703220700
  0.5684091729822749  0.9422786194048650  0.3563998703220700
  0.6684091729822751  0.9422786194048650  0.3563998703220700
  0.7684091729822750  0.9422786194048650  0.3563998703220700
  0.8684091729822750  0.9422786194048650  0.3563998703220700
  0.9684091729822749  0.9422786194048650  0.3563998703220700
  0.0109407727737710  0.0836673114982800  0.6436217783747100
  0.1109407727737710  0.0836673114982800  0.6436217783747100
  0.2109407727737710  0.0836673114982800  0.6436217783747100
  0.3109407727737710  0.0836673114982800  0.6436217783747100
  0.4109407727737711  0.0836673114982800  0.6436217783747100
  0.5109407727737710  0.0836673114982800  0.6436217783747100
  0.6109407727737710  0.0836673114982800  0.6436217783747100
  0.7109407727737711  0.0836673114982800  0.6436217783747100
  0.8109407727737710  0.0836673114982800  0.6436217783747100
  0.9109407727737709  0.0836673114982800  0.6436217783747100
  0.0109407727737710  0.2086673114982800  0.6436217783747100
  0.1109407727737710  0.2086673114982800  0.6436217783747100
  0.2109407727737710  0.2086673114982800  0.6436217783747100
  0.3109407727737710  0.2086673114982800  0.6436217783747100
  0.4109407727737711  0.2086673114982800  0.6436217783747100
  0.5109407727737710  0.2086673114982800  0.6436217783747100
  0.6109407727737710  0.2086673114982800  0.6436217783747100
  0.7109407727737711  0.2086673114982800  0.6436217783747100
  0.8109407727737710  0.2086673114982800  0.6436217783747100
  0.9109407727737709  0.2086673114982800  0.6436217783747100
  0.0109407727737710  0.3336673114982800  0.6436217783747100
  0.1109407727737710  0.3336673114982800  0.6436217783747100
  0.2109407727737710  0.3336673114982800  0.6436217783747100
  0.3109407727737710  0.3336673114982800  0.6436217783747100
  0.4109407727737710  0.3336673114982800  0.6436217783747100
  0.5109407727737710  0.3336673114982800  0.6436217783747100
  0.6109407727737710  0.3336673114982800  0.6436217783747100
  0.7109407727737711  0.3336673114982800  0.6436217783747100
  0.8109407727737710  0.3336673114982800  0.6436217783747100
  0.9109407727737709  0.3336673114982800  0.6436217783747100
  0.0109407727737710  0.4586673114982800  0.6436217783747100
  0.1109407727737710  0.4586673114982800  0.6436217783747100
  0.2109407727737710  0.4586673114982800  0.6436217783747100
  0.3109407727737710  0.4586673114982800  0.6436217783747100
  0.4109407727737711  0.4586673114982800  0.6436217783747100
  0.5109407727737710  0.4586673114982800  0.6436217783747100
  0.6109407727737710  0.4586673114982800  0.6436217783747100
  0.7109407727737711  0.4586673114982800  0.6436217783747100
  0.8109407727737709  0.4586673114982800  0.6436217783747100
  0.9109407727737709  0.4586673114982800  0.6436217783747100
  0.0109407727737710  0.5836673114982800  0.6436217783747100
  0.1109407727737709  0.5836673114982800  0.6436217783747100
  0.2109407727737710  0.5836673114982800  0.6436217783747100
  0.3109407727737710  0.5836673114982800  0.6436217783747100
  0.4109407727737711  0.5836673114982800  0.6436217783747100
  0.5109407727737710  0.5836673114982800  0.6436217783747100
  0.6109407727737710  0.5836673114982800  0.6436217783747100
  0.7109407727737711  0.5836673114982800  0.6436217783747100
  0.8109407727737709  0.5836673114982800  0.6436217783747100
  0.9109407727737707  0.5836673114982800  0.6436217783747100
  0.0109407727737709  0.7086673114982800  0.6436217783747100
  0.1109407727737710  0.7086673114982800  0.6436217783747100
  0.2109407727737710  0.7086673114982800  0.6436217783747100
  0.3109407727737710  0.7086673114982800  0.6436217783747100
  0.4109407727737709  0.7086673114982800  0.6436217783747100
  0.5109407727737709  0.7086673114982800  0.6436217783747100
  0.6109407727737709  0.7086673114982800  0.6436217783747100
  0.7109407727737710  0.7086673114982800  0.6436217783747100
  0.8109407727737711  0.7086673114982800  0.6436217783747100
  0.9109407727737709  0.7086673114982800  0.6436217783747100
  0.0109407727737710  0.8336673114982800  0.6436217783747100
  0.1109407727737709  0.8336673114982800  0.6436217783747100
  0.2109407727737710  0.8336673114982800  0.6436217783747100
  0.3109407727737710  0.8336673114982800  0.6436217783747100
  0.4109407727737709  0.8336673114982800  0.6436217783747100
  0.5109407727737709  0.8336673114982800  0.6436217783747100
  0.6109407727737710  0.8336673114982800  0.6436217783747100
  0.7109407727737710  0.8336673114982800  0.6436217783747100
  0.8109407727737709  0.8336673114982800  0.6436217783747100
  0.9109407727737709  0.8336673114982800  0.6436217783747100
  0.0109407727737709  0.9586673114982801  0.6436217783747100
  0.1109407727737709  0.9586673114982801  0.6436217783747100
  0.2109407727737710  0.9586673114982801  0.6436217783747100
  0.3109407727737710  0.9586673114982801  0.6436217783747100
  0.4109407727737710  0.9586673114982801  0.6436217783747100
  0.5109407727737709  0.9586673114982801  0.6436217783747100
  0.6109407727737709  0.9586673114982801  0.6436217783747100
  0.7109407727737710  0.9586673114982801  0.6436217783747100
  0.8109407727737709  0.9586673114982801  0.6436217783747100
  0.9109407727737709  0.9586673114982801  0.6436217783747100
  0.0402952217941320  0.0102814081171825  0.5924482644423300
  0.1402952217941320  0.0102814081171825  0.5924482644423300
  0.2402952217941320  0.0102814081171825  0.5924482644423300
  0.3402952217941320  0.0102814081171825  0.5924482644423300
  0.4402952217941321  0.0102814081171825  0.5924482644423300
  0.5402952217941320  0.0102814081171825  0.5924482644423300
  0.6402952217941320  0.0102814081171825  0.5924482644423300
  0.7402952217941321  0.0102814081171825  0.5924482644423300
  0.8402952217941320  0.0102814081171825  0.5924482644423300
  0.9402952217941319  0.0102814081171825  0.5924482644423300
  0.0402952217941320  0.1352814081171825  0.5924482644423300
  0.1402952217941320  0.1352814081171825  0.5924482644423300
  0.2402952217941320  0.1352814081171825  0.5924482644423300
  0.3402952217941320  0.1352814081171825  0.5924482644423300
  0.4402952217941321  0.1352814081171825  0.5924482644423300
  0.5402952217941320  0.1352814081171825  0.5924482644423300
  0.6402952217941320  0.1352814081171825  0.5924482644423300
  0.7402952217941321  0.1352814081171825  0.5924482644423300
  0.8402952217941320  0.1352814081171825  0.5924482644423300
  0.9402952217941318  0.1352814081171825  0.5924482644423300
  0.0402952217941320  0.2602814081171825  0.5924482644423300
  0.1402952217941320  0.2602814081171825  0.5924482644423300
  0.2402952217941320  0.2602814081171825  0.5924482644423300
  0.3402952217941320  0.2602814081171825  0.5924482644423300
  0.4402952217941321  0.2602814081171825  0.5924482644423300
  0.5402952217941320  0.2602814081171825  0.5924482644423300
  0.6402952217941320  0.2602814081171825  0.5924482644423300
  0.7402952217941321  0.2602814081171825  0.5924482644423300
  0.8402952217941319  0.2602814081171825  0.5924482644423300
  0.9402952217941318  0.2602814081171825  0.5924482644423300
  0.0402952217941320  0.3852814081171825  0.5924482644423300
  0.1402952217941320  0.3852814081171825  0.5924482644423300
  0.2402952217941320  0.3852814081171825  0.5924482644423300
  0.3402952217941320  0.3852814081171825  0.5924482644423300
  0.4402952217941321  0.3852814081171825  0.5924482644423300
  0.5402952217941320  0.3852814081171825  0.5924482644423300
  0.6402952217941320  0.3852814081171825  0.5924482644423300
  0.7402952217941320  0.3852814081171825  0.5924482644423300
  0.8402952217941320  0.3852814081171825  0.5924482644423300
  0.9402952217941318  0.3852814081171825  0.5924482644423300
  0.0402952217941320  0.5102814081171825  0.5924482644423300
  0.1402952217941320  0.5102814081171825  0.5924482644423300
  0.2402952217941320  0.5102814081171825  0.5924482644423300
  0.3402952217941320  0.5102814081171825  0.5924482644423300
  0.4402952217941320  0.5102814081171825  0.5924482644423300
  0.5402952217941320  0.5102814081171825  0.5924482644423300
  0.6402952217941320  0.5102814081171825  0.5924482644423300
  0.7402952217941321  0.5102814081171825  0.5924482644423300
  0.8402952217941321  0.5102814081171825  0.5924482644423300
  0.9402952217941319  0.5102814081171825  0.5924482644423300
  0.0402952217941319  0.6352814081171825  0.5924482644423300
  0.1402952217941320  0.6352814081171825  0.5924482644423300
  0.2402952217941320  0.6352814081171825  0.5924482644423300
  0.3402952217941320  0.6352814081171825  0.5924482644423300
  0.4402952217941321  0.6352814081171825  0.5924482644423300
  0.5402952217941321  0.6352814081171825  0.5924482644423300
  0.6402952217941321  0.6352814081171825  0.5924482644423300
  0.7402952217941321  0.6352814081171825  0.5924482644423300
  0.8402952217941321  0.6352814081171825  0.5924482644423300
  0.9402952217941317  0.6352814081171825  0.5924482644423300
  0.0402952217941320  0.7602814081171825  0.5924482644423300
  0.1402952217941320  0.7602814081171825  0.5924482644423300
  0.2402952217941320  0.7602814081171825  0.5924482644423300
  0.3402952217941320  0.7602814081171825  0.5924482644423300
  0.4402952217941321  0.7602814081171825  0.5924482644423300
  0.5402952217941320  0.7602814081171825  0.5924482644423300
  0.6402952217941320  0.7602814081171825  0.5924482644423300
  0.7402952217941320  0.7602814081171825  0.5924482644423300
  0.8402952217941321  0.7602814081171825  0.5924482644423300
  0.9402952217941317  0.7602814081171825  0.5924482644423300
  0.0402952217941320  0.8852814081171825  0.5924482644423300
  0.1402952217941320  0.8852814081171825  0.5924482644423300
  0.2402952217941320  0.8852814081171825  0.5924482644423300
  0.3402952217941321  0.8852814081171825  0.5924482644423300
  0.4402952217941321  0.8852814081171825  0.5924482644423300
  0.5402952217941320  0.8852814081171825  0.5924482644423300
  0.6402952217941320  0.8852814081171825  0.5924482644423300
  0.7402952217941322  0.8852814081171825  0.5924482644423300
  0.8402952217941319  0.8852814081171825  0.5924482644423300
  0.9402952217941319  0.8852814081171825  0.5924482644423300
  0.0676774828477360  0.0668255570460700  0.5778109184832200
  0.1676774828477360  0.0668255570460700  0.5778109184832200
  0.2676774828477360  0.0668255570460700  0.5778109184832200
  0.3676774828477360  0.0668255570460700  0.5778109184832200
  0.4676774828477359  0.0668255570460700  0.5778109184832200
  0.5676774828477360  0.0668255570460700  0.5778109184832200
  0.6676774828477360  0.0668255570460700  0.5778109184832200
  0.7676774828477360  0.0668255570460700  0.5778109184832200
  0.8676774828477360  0.0668255570460700  0.5778109184832200
  0.9676774828477360  0.0668255570460700  0.5778109184832200
  0.0676774828477360  0.1918255570460700  0.5778109184832200
  0.1676774828477360  0.1918255570460700  0.5778109184832200
  0.2676774828477360  0.1918255570460700  0.5778109184832200
  0.3676774828477360  0.1918255570460700  0.5778109184832200
  0.4676774828477359  0.1918255570460700  0.5778109184832200
  0.5676774828477360  0.1918255570460700  0.5778109184832200
  0.6676774828477360  0.1918255570460700  0.5778109184832200
  0.7676774828477360  0.1918255570460700  0.5778109184832200
  0.8676774828477360  0.1918255570460700  0.5778109184832200
  0.9676774828477360  0.1918255570460700  0.5778109184832200
  0.0676774828477360  0.3168255570460700  0.5778109184832200
  0.1676774828477360  0.3168255570460700  0.5778109184832200
  0.2676774828477360  0.3168255570460700  0.5778109184832200
  0.3676774828477360  0.3168255570460700  0.5778109184832200
  0.4676774828477360  0.3168255570460700  0.5778109184832200
  0.5676774828477360  0.3168255570460700  0.5778109184832200
  0.6676774828477360  0.3168255570460700  0.5778109184832200
  0.7676774828477360  0.3168255570460700  0.5778109184832200
  0.8676774828477360  0.3168255570460700  0.5778109184832200
  0.9676774828477360  0.3168255570460700  0.5778109184832200
  0.0676774828477360  0.4418255570460700  0.5778109184832200
  0.1676774828477360  0.4418255570460700  0.5778109184832200
  0.2676774828477360  0.4418255570460700  0.5778109184832200
  0.3676774828477360  0.4418255570460700  0.5778109184832200
  0.4676774828477359  0.4418255570460700  0.5778109184832200
  0.5676774828477359  0.4418255570460700  0.5778109184832200
  0.6676774828477359  0.4418255570460700  0.5778109184832200
  0.7676774828477360  0.4418255570460700  0.5778109184832200
  0.8676774828477359  0.4418255570460700  0.5778109184832200
  0.9676774828477360  0.4418255570460700  0.5778109184832200
  0.0676774828477360  0.5668255570460700  0.5778109184832200
  0.1676774828477360  0.5668255570460700  0.5778109184832200
  0.2676774828477361  0.5668255570460700  0.5778109184832200
  0.3676774828477360  0.5668255570460700  0.5778109184832200
  0.4676774828477359  0.5668255570460700  0.5778109184832200
  0.5676774828477360  0.5668255570460700  0.5778109184832200
  0.6676774828477360  0.5668255570460700  0.5778109184832200
  0.7676774828477361  0.5668255570460700  0.5778109184832200
  0.8676774828477360  0.5668255570460700  0.5778109184832200
  0.9676774828477359  0.5668255570460700  0.5778109184832200
  0.0676774828477360  0.6918255570460700  0.5778109184832200
  0.1676774828477360  0.6918255570460700  0.5778109184832200
  0.2676774828477360  0.6918255570460700  0.5778109184832200
  0.3676774828477359  0.6918255570460700  0.5778109184832200
  0.4676774828477358  0.6918255570460700  0.5778109184832200
  0.5676774828477359  0.6918255570460700  0.5778109184832200
  0.6676774828477360  0.6918255570460700  0.5778109184832200
  0.7676774828477360  0.6918255570460700  0.5778109184832200
  0.8676774828477360  0.6918255570460700  0.5778109184832200
  0.9676774828477359  0.6918255570460700  0.5778109184832200
  0.0676774828477360  0.8168255570460699  0.5778109184832200
  0.1676774828477360  0.8168255570460699  0.5778109184832200
  0.2676774828477360  0.8168255570460699  0.5778109184832200
  0.3676774828477361  0.8168255570460699  0.5778109184832200
  0.4676774828477360  0.8168255570460699  0.5778109184832200
  0.5676774828477360  0.8168255570460699  0.5778109184832200
  0.6676774828477360  0.8168255570460699  0.5778109184832200
  0.7676774828477360  0.8168255570460699  0.5778109184832200
  0.8676774828477358  0.8168255570460699  0.5778109184832200
  0.9676774828477359  0.8168255570460699  0.5778109184832200
  0.0676774828477360  0.9418255570460700  0.5778109184832200
  0.1676774828477359  0.9418255570460700  0.5778109184832200
  0.2676774828477359  0.9418255570460700  0.5778109184832200
  0.3676774828477360  0.9418255570460700  0.5778109184832200
  0.4676774828477359  0.9418255570460700  0.5778109184832200
  0.5676774828477359  0.9418255570460700  0.5778109184832200
  0.6676774828477359  0.9418255570460700  0.5778109184832200
  0.7676774828477360  0.9418255570460700  0.5778109184832200
  0.8676774828477358  0.9418255570460700  0.5778109184832200
  0.9676774828477359  0.9418255570460700  0.5778109184832200
