Phonons of Al2O3 on q-grid

&INPUTPH
  prefix   = 'Al2O3-Bands'
  outdir   = './tmp'
  fildyn   = 'Al2O3.dyn'

  tr2_ph   = 1.0d-14
  ldisp    = .true.
  nq1      = 4
  nq2      = 4
  nq3      = 4

  epsil    = .true.
  trans    = .true.
  recover  = .true.
/
