Al2O3 phonon grid
&inputph
  prefix  = 'Al2O3-Bands',
  outdir  = './tmp',
  fildyn  = 'Al2O3.dyn',
  tr2_ph  = 1.0d-14,

  ldisp = .true.,
  nq1 = 2,
  nq2 = 2,
  nq3 = 2,
/
