Phonons of Al2O3 at Gamma

&INPUTPH
  prefix   = 'Al2O3-Bands'
  outdir   = './tmp'
  fildyn   = 'Al2O3.G.dyn'

  tr2_ph   = 1.0d-14
  epsil    = .false.
  trans    = .true.
  recover  = .false.
/
0.0 0.0 0.0
