Phonopy displacement from POSCAR-008

240 atoms
2 atom types

0.0 20.7187485966523823 xlo xhi
0.0 21.6619978427851194 ylo yhi
0.0 30.0000000000000000 zlo zhi
6.9063901264718801 0.0 0.0 xy xz yz

Masses

1 69.723
2 15.999

Atoms # atomic

1 1 3.2915628951527598 4.2881698062176090 12.1228203567479973
2 1 6.7446876612614890 4.2881698062176090 12.1228203567479973
3 1 10.1978124273702182 4.2881698062176090 12.1228203567479973
4 1 13.6509371934789456 4.2881698062176090 12.1228203567479973
5 1 17.1040619595876819 4.2881698062176090 12.1228203567479973
6 1 20.5571867256964111 4.2881698062176090 12.1228203567479973
7 1 5.0181604267707289 9.7036692669138880 12.1228203567479973
8 1 8.4712851928794581 9.7036692669138880 12.1228203567479973
9 1 11.9244099589881891 9.7036692669138880 12.1228203567479973
10 1 15.3775347250969183 9.7036692669138880 12.1228203567479973
11 1 18.8306594912056511 9.7036692669138880 12.1228203567479973
12 1 22.2837842573143767 9.7036692669138880 12.1228203567479973
13 1 6.7447579583886998 15.1191687276101678 12.1228203567479973
14 1 10.1978827244974291 15.1191687276101678 12.1228203567479973
15 1 13.6510074906061583 15.1191687276101678 12.1228203567479973
16 1 17.1041322567148875 15.1191687276101678 12.1228203567479973
17 1 20.5572570228236202 15.1191687276101678 12.1228203567479973
18 1 24.0103817889323459 15.1191687276101678 12.1228203567479973
19 1 8.4713554900066672 20.5346681883064477 12.1228203567479973
20 1 11.9244802561154017 20.5346681883064477 12.1228203567479973
21 1 15.3776050222241292 20.5346681883064477 12.1228203567479973
22 1 18.8307297883328530 20.5346681883064477 12.1228203567479973
23 1 22.2838545544415858 20.5346681883064477 12.1228203567479973
24 1 25.7369793205503186 20.5346681883064477 12.1228203567479973
25 1 1.5549954244185900 2.2111307017728867 11.2524742547010010
26 1 5.0181201905273207 2.2111307017728867 11.2524742547010010
27 1 8.4712449566360508 2.2111307017728867 11.2524742547010010
28 1 11.9243697227447818 2.2111307017728867 11.2524742547010010
29 1 15.3774944888535128 2.2111307017728867 11.2524742547010010
30 1 18.8306192549622402 2.2111307017728867 11.2524742547010010
31 1 3.2915929560365620 7.6266301624691666 11.2524742547010010
32 1 6.7447177221452908 7.6266301624691666 11.2524742547010010
33 1 10.1978424882540217 7.6266301624691666 11.2524742547010010
34 1 13.6509672543627509 7.6266301624691666 11.2524742547010010
35 1 17.1040920204714837 7.6266301624691666 11.2524742547010010
36 1 20.5572167865802129 7.6266301624691666 11.2524742547010010
37 1 5.0181904876545298 13.0421296231654473 11.2524742547010010
38 1 8.4713152537632617 13.0421296231654473 11.2524742547010010
39 1 11.9244400198719909 13.0421296231654473 11.2524742547010010
40 1 15.3775647859807201 13.0421296231654473 11.2524742547010010
41 1 18.8306895520894493 13.0421296231654473 11.2524742547010010
42 1 22.2838143181981820 13.0421296231654473 11.2524742547010010
43 1 6.7447880192725007 18.4576290838617254 11.2524742547010010
44 1 10.1979127853812308 18.4576290838617254 11.2524742547010010
45 1 13.6510375514899636 18.4576290838617254 11.2524742547010010
46 1 17.1041623175986928 18.4576290838617254 11.2524742547010010
47 1 20.5572870837074220 18.4576290838617254 11.2524742547010010
48 1 24.0104118498161512 18.4576290838617254 11.2524742547010010
49 1 3.2600401779947297 4.3284501573796366 18.7481752062048024
50 1 6.7131649441034584 4.3284501573796366 18.7481752062048024
51 1 10.1662897102121867 4.3284501573796366 18.7481752062048024
52 1 13.6194144763209195 4.3284501573796366 18.7481752062048024
53 1 17.0725392424296487 4.3284501573796366 18.7481752062048024
54 1 20.5256640085383779 4.3284501573796366 18.7481752062048024
55 1 4.9866377096126975 9.7439496180759164 18.7481752062048024
56 1 8.4397624757214267 9.7439496180759164 18.7481752062048024
57 1 11.8928872418301594 9.7439496180759164 18.7481752062048024
58 1 15.3460120079388904 9.7439496180759164 18.7481752062048024
59 1 18.7991367740476178 9.7439496180759164 18.7481752062048024
60 1 22.2522615401563471 9.7439496180759164 18.7481752062048024
61 1 6.7132352412306693 15.1594490787721945 18.7481752062048024
62 1 10.1663600073393958 15.1594490787721945 18.7481752062048024
63 1 13.6194847734481268 15.1594490787721945 18.7481752062048024
64 1 17.0726095395568578 15.1594490787721945 18.7481752062048024
65 1 20.5257343056655870 15.1594490787721945 18.7481752062048024
66 1 23.9788590717743162 15.1594490787721945 18.7481752062048024
67 1 8.4398327728486393 20.5749485394684761 18.7481752062048024
68 1 11.8929575389573685 20.5749485394684761 18.7481752062048024
69 1 15.3460823050660977 20.5749485394684761 18.7481752062048024
70 1 18.7992070711748305 20.5749485394684761 18.7481752062048024
71 1 22.2523318372835597 20.5749485394684761 18.7481752062048024
72 1 25.7054566033922889 20.5749485394684761 18.7481752062048024
73 1 1.5334727073198031 2.2514110537364624 17.8778291036670005
74 1 4.9865974734285343 2.2514110537364624 17.8778291036670005
75 1 8.4397222395372626 2.2514110537364624 17.8778291036670005
76 1 11.8928470056459918 2.2514110537364624 17.8778291036670005
77 1 15.3459717717547246 2.2514110537364624 17.8778291036670005
78 1 18.7990965378634520 2.2514110537364624 17.8778291036670005
79 1 3.2600702389377751 7.6669105144327423 17.8778291036670005
80 1 6.7131950050465043 7.6669105144327423 17.8778291036670005
81 1 10.1663197711552336 7.6669105144327423 17.8778291036670005
82 1 13.6194445372639610 7.6669105144327423 17.8778291036670005
83 1 17.0725693033726884 7.6669105144327423 17.8778291036670005
84 1 20.5256940694814212 7.6669105144327423 17.8778291036670005
85 1 4.9866677705557434 13.0824099751290213 17.8778291036670005
86 1 8.4397925366644735 13.0824099751290213 17.8778291036670005
87 1 11.8929173027732027 13.0824099751290213 17.8778291036670005
88 1 15.3460420688819319 13.0824099751290213 17.8778291036670005
89 1 18.7991668349906647 13.0824099751290213 17.8778291036670005
90 1 22.2522916010993939 13.0824099751290213 17.8778291036670005
91 1 6.7132653021737134 18.4979094358253029 17.8778291036670005
92 1 10.1663900682824444 18.4979094358253029 17.8778291036670005
93 1 13.6195148343911718 18.4979094358253029 17.8778291036670005
94 1 17.0726396004999010 18.4979094358253029 17.8778291036670005
95 1 20.5257643666086338 18.4979094358253029 17.8778291036670005
96 1 23.9788891327173630 18.4979094358253029 17.8778291036670005
97 2 1.5650009463940304 3.6444307148319259 12.6663219055271998
98 2 5.0181257125027594 3.6444307148319259 12.6663219055271998
99 2 8.4712504786114913 3.6444307148319259 12.6663219055271998
100 2 11.9243752447202205 3.6444307148319259 12.6663219055271998
101 2 15.3775000108289461 3.6444307148319259 12.6663219055271998
102 2 18.8306247769376824 3.6444307148319259 12.6663219055271998
103 2 3.2915984780119998 9.0599301755282049 12.6663219055271998
104 2 6.7447232441207294 9.0599301755282049 12.6663219055271998
105 2 10.1978480102294604 9.0599301755282049 12.6663219055271998
106 2 13.6509727763381896 9.0599301755282049 12.6663219055271998
107 2 17.1040975424469188 9.0599301755282049 12.6663219055271998
108 2 20.5572223085556516 9.0599301755282049 12.6663219055271998
109 2 5.0181960096299703 14.4754296362244865 12.6663219055271998
110 2 8.4713207757387003 14.4754296362244865 12.6663219055271998
111 2 11.9244455418474313 14.4754296362244865 12.6663219055271998
112 2 15.3775703079561588 14.4754296362244865 12.6663219055271998
113 2 18.8306950740648880 14.4754296362244865 12.6663219055271998
114 2 22.2838198401736172 14.4754296362244865 12.6663219055271998
115 2 6.7447935412479394 19.8909290969207646 12.6663219055271998
116 2 10.1979183073566695 19.8909290969207646 12.6663219055271998
117 2 13.6510430734654005 19.8909290969207646 12.6663219055271998
118 2 17.1041678395741279 19.8909290969207646 12.6663219055271998
119 2 20.5572926056828571 19.8909290969207646 12.6663219055271998
120 2 24.0104173717915899 19.8909290969207646 12.6663219055271998
121 2 1.5649789563030416 0.6786497183633114 12.2272015291292959
122 2 5.0181037224117713 0.6786497183633114 12.2272015291292959
123 2 8.4712284885205023 0.6786497183633114 12.2272015291292959
124 2 11.9243532546292297 0.6786497183633114 12.2272015291292959
125 2 15.3774780207379607 0.6786497183633114 12.2272015291292959
126 2 18.8306027868466934 0.6786497183633114 12.2272015291292959
127 2 3.2915764879210117 6.0941491790595910 12.2272015291292959
128 2 6.7447012540297404 6.0941491790595910 12.2272015291292959
129 2 10.1978260201384732 6.0941491790595910 12.2272015291292959
130 2 13.6509507862472041 6.0941491790595910 12.2272015291292959
131 2 17.1040755523559334 6.0941491790595910 12.2272015291292959
132 2 20.5572003184646626 6.0941491790595910 12.2272015291292959
133 2 5.0181740195389821 11.5096486397558717 12.2272015291292959
134 2 8.4712987856477113 11.5096486397558717 12.2272015291292959
135 2 11.9244235517564423 11.5096486397558717 12.2272015291292959
136 2 15.3775483178651715 11.5096486397558717 12.2272015291292959
137 2 18.8306730839739025 11.5096486397558717 12.2272015291292959
138 2 22.2837978500826317 11.5096486397558717 12.2272015291292959
139 2 6.7447715511569513 16.9251481004521516 12.2272015291292959
140 2 10.1978963172656805 16.9251481004521516 12.2272015291292959
141 2 13.6510210833744132 16.9251481004521516 12.2272015291292959
142 2 17.1041458494831424 16.9251481004521516 12.2272015291292959
143 2 20.5572706155918716 16.9251481004521516 12.2272015291292959
144 2 24.0103953817006008 16.9251481004521516 12.2272015291292959
145 2 3.2915588801019395 2.9147786168274936 10.6919961096620995
146 2 6.7446836462106674 2.9147786168274936 10.6919961096620995
147 2 10.1978084123194002 2.9147786168274936 10.6919961096620995
148 2 13.6509331784281276 2.9147786168274936 10.6919961096620995
149 2 17.1040579445368586 2.9147786168274936 10.6919961096620995
150 2 20.5571827106455842 2.9147786168274936 10.6919961096620995
151 2 5.0181564117199091 8.3302780775237721 10.6919961096620995
152 2 8.4712811778286365 8.3302780775237721 10.6919961096620995
153 2 11.9244059439373693 8.3302780775237721 10.6919961096620995
154 2 15.3775307100460985 8.3302780775237721 10.6919961096620995
155 2 18.8306554761548242 8.3302780775237721 10.6919961096620995
156 2 22.2837802422635534 8.3302780775237721 10.6919961096620995
157 2 6.7447539433378800 13.7457775382200538 10.6919961096620995
158 2 10.1978787094466092 13.7457775382200538 10.6919961096620995
159 2 13.6510034755553420 13.7457775382200538 10.6919961096620995
160 2 17.1041282416640712 13.7457775382200538 10.6919961096620995
161 2 20.5572530077728004 13.7457775382200538 10.6919961096620995
162 2 24.0103777738815296 13.7457775382200538 10.6919961096620995
163 2 8.4713514749558492 19.1612769989163318 10.6919961096620995
164 2 11.9244762410645784 19.1612769989163318 10.6919961096620995
165 2 15.3776010071733111 19.1612769989163318 10.6919961096620995
166 2 18.8307257732820403 19.1612769989163318 10.6919961096620995
167 2 22.2838505393907695 19.1612769989163318 10.6919961096620995
168 2 25.7369753054994987 19.1612769989163318 10.6919961096620995
169 2 1.5334767223351031 3.6248022423747437 19.3086533512413006
170 2 4.9866014884438323 3.6248022423747437 19.3086533512413006
171 2 8.4397262545525660 3.6248022423747437 19.3086533512413006
172 2 11.8928510206612970 3.6248022423747437 19.3086533512413006
173 2 15.3459757867700262 3.6248022423747437 19.3086533512413006
174 2 18.7991005528787554 3.6248022423747437 19.3086533512413006
175 2 3.2600742539530727 9.0403017030710213 19.3086533512413006
176 2 6.7131990200618041 9.0403017030710213 19.3086533512413006
177 2 10.1663237861705351 9.0403017030710213 19.3086533512413006
178 2 13.6194485522792643 9.0403017030710213 19.3086533512413006
179 2 17.0725733183879953 9.0403017030710213 19.3086533512413006
180 2 20.5256980844967245 9.0403017030710213 19.3086533512413006
181 2 4.9866717855710450 14.4558011637673030 19.3086533512413006
182 2 8.4397965516797733 14.4558011637673030 19.3086533512413006
183 2 11.8929213177885060 14.4558011637673030 19.3086533512413006
184 2 15.3460460838972352 14.4558011637673030 19.3086533512413006
185 2 18.7991708500059644 14.4558011637673030 19.3086533512413006
186 2 22.2522956161146901 14.4558011637673030 19.3086533512413006
187 2 6.7132693171890150 19.8713006244635828 19.3086533512413006
188 2 10.1663940832977442 19.8713006244635828 19.3086533512413006
189 2 13.6195188494064752 19.8713006244635828 19.3086533512413006
190 2 17.0726436155152044 19.8713006244635828 19.3086533512413006
191 2 20.5257683816239336 19.8713006244635828 19.3086533512413006
192 2 23.9788931477326628 19.8713006244635828 19.3086533512413006
193 2 1.5334591143450891 0.4454316809104015 17.7734479332698996
194 2 4.9865838804538196 0.4454316809104015 17.7734479332698996
195 2 8.4397086465625524 0.4454316809104015 17.7734479332698996
196 2 11.8928334126712798 0.4454316809104015 17.7734479332698996
197 2 15.3459581787800090 0.4454316809104015 17.7734479332698996
198 2 18.7990829448887347 0.4454316809104015 17.7734479332698996
199 2 3.2600566459630591 5.8609311416066818 17.7734479332698996
200 2 6.7131814120717905 5.8609311416066818 17.7734479332698996
201 2 10.1663061781805180 5.8609311416066818 17.7734479332698996
202 2 13.6194309442892472 5.8609311416066818 17.7734479332698996
203 2 17.0725557103979781 5.8609311416066818 17.7734479332698996
204 2 20.5256804765067109 5.8609311416066818 17.7734479332698996
205 2 4.9866541775810287 11.2764306023029608 17.7734479332698996
206 2 8.4397789436897597 11.2764306023029608 17.7734479332698996
207 2 11.8929037097984889 11.2764306023029608 17.7734479332698996
208 2 15.3460284759072181 11.2764306023029608 17.7734479332698996
209 2 18.7991532420159473 11.2764306023029608 17.7734479332698996
210 2 22.2522780081246800 11.2764306023029608 17.7734479332698996
211 2 6.7132517091989987 16.6919300629992406 17.7734479332698996
212 2 10.1663764753077288 16.6919300629992406 17.7734479332698996
213 2 13.6195012414164580 16.6919300629992406 17.7734479332698996
214 2 17.0726260075251872 16.6919300629992406 17.7734479332698996
215 2 20.5257507736339164 16.6919300629992406 17.7734479332698996
216 2 23.9788755397426456 16.6919300629992406 17.7734479332698996
217 2 3.2600346560520812 2.8951501451497648 17.3343275544965998
218 2 6.7131594221608122 2.8951501451497648 17.3343275544965998
219 2 10.1662841882695432 2.8951501451497648 17.3343275544965998
220 2 13.6194089543782741 2.8951501451497648 17.3343275544965998
221 2 17.0725337204869980 2.8951501451497648 17.3343275544965998
222 2 20.5256584865957272 2.8951501451497648 17.3343275544965998
223 2 4.9866321876700503 8.3106496058460433 17.3343275544965998
224 2 8.4397569537787831 8.3106496058460433 17.3343275544965998
225 2 11.8928817198875105 8.3106496058460433 17.3343275544965998
226 2 15.3460064859962433 8.3106496058460433 17.3343275544965998
227 2 18.7991312521049707 8.3106496058460433 17.3343275544965998
228 2 22.2522560182136999 8.3106496058460433 17.3343275544965998
229 2 6.7132297192880213 13.7261490665423249 17.3343275544965998
230 2 10.1663544853967522 13.7261490665423249 17.3343275544965998
231 2 13.6194792515054814 13.7261490665423249 17.3343275544965998
232 2 17.0726040176142142 13.7261490665423249 17.3343275544965998
233 2 20.5257287837229434 13.7261490665423249 17.3343275544965998
234 2 23.9788535498316726 13.7261490665423249 17.3343275544965998
235 2 8.4398272509059904 19.1416485272386048 17.3343275544965998
236 2 11.8929520170147214 19.1416485272386048 17.3343275544965998
237 2 15.3460767831234524 19.1416485272386048 17.3343275544965998
238 2 18.7992015492321833 19.1416485272386048 17.3343275544965998
239 2 22.2523263153409161 19.1416485272386048 17.3343275544965998
240 2 25.7054510814496417 19.1416485272386048 17.3343275544965998
