generated by phonopy
   1.0
    41.4374971933047647    0.0000000000000000    0.0000000000000000
    20.7191703794156403   64.9859935283553511    0.0000000000000000
     0.0000000000000000    0.0000000000000000   30.0000000000000000
Ga O
 576  864
Direct
  0.0459580467042699  0.0659860621250108  0.4040940118915999
  0.1297740346705967  0.0659860621250108  0.4040940118915999
  0.2131073680039300  0.0659860621250108  0.4040940118915999
  0.2964407013372632  0.0659860621250108  0.4040940118915999
  0.3797740346705967  0.0659860621250108  0.4040940118915999
  0.4631073680039300  0.0659860621250108  0.4040940118915999
  0.5464407013372632  0.0659860621250108  0.4040940118915999
  0.6297740346705967  0.0659860621250108  0.4040940118915999
  0.7131073680039298  0.0659860621250108  0.4040940118915999
  0.7964407013372630  0.0659860621250108  0.4040940118915999
  0.8797740346705964  0.0659860621250108  0.4040940118915999
  0.9631073680039297  0.0659860621250108  0.4040940118915999
  0.0464407013372633  0.1493193954583442  0.4040940118915999
  0.1297740346705967  0.1493193954583442  0.4040940118915999
  0.2131073680039300  0.1493193954583442  0.4040940118915999
  0.2964407013372633  0.1493193954583442  0.4040940118915999
  0.3797740346705967  0.1493193954583442  0.4040940118915999
  0.4631073680039299  0.1493193954583442  0.4040940118915999
  0.5464407013372633  0.1493193954583442  0.4040940118915999
  0.6297740346705967  0.1493193954583442  0.4040940118915999
  0.7131073680039298  0.1493193954583442  0.4040940118915999
  0.7964407013372630  0.1493193954583442  0.4040940118915999
  0.8797740346705964  0.1493193954583442  0.4040940118915999
  0.9631073680039298  0.1493193954583442  0.4040940118915999
  0.0464407013372633  0.2326527287916775  0.4040940118915999
  0.1297740346705967  0.2326527287916775  0.4040940118915999
  0.2131073680039300  0.2326527287916775  0.4040940118915999
  0.2964407013372633  0.2326527287916775  0.4040940118915999
  0.3797740346705967  0.2326527287916775  0.4040940118915999
  0.4631073680039299  0.2326527287916775  0.4040940118915999
  0.5464407013372633  0.2326527287916775  0.4040940118915999
  0.6297740346705967  0.2326527287916775  0.4040940118915999
  0.7131073680039299  0.2326527287916775  0.4040940118915999
  0.7964407013372632  0.2326527287916775  0.4040940118915999
  0.8797740346705967  0.2326527287916775  0.4040940118915999
  0.9631073680039299  0.2326527287916775  0.4040940118915999
  0.0464407013372633  0.3159860621250108  0.4040940118915999
  0.1297740346705967  0.3159860621250108  0.4040940118915999
  0.2131073680039300  0.3159860621250108  0.4040940118915999
  0.2964407013372632  0.3159860621250108  0.4040940118915999
  0.3797740346705966  0.3159860621250108  0.4040940118915999
  0.4631073680039300  0.3159860621250108  0.4040940118915999
  0.5464407013372632  0.3159860621250108  0.4040940118915999
  0.6297740346705967  0.3159860621250108  0.4040940118915999
  0.7131073680039298  0.3159860621250108  0.4040940118915999
  0.7964407013372631  0.3159860621250108  0.4040940118915999
  0.8797740346705967  0.3159860621250108  0.4040940118915999
  0.9631073680039299  0.3159860621250108  0.4040940118915999
  0.0464407013372633  0.3993193954583442  0.4040940118915999
  0.1297740346705967  0.3993193954583442  0.4040940118915999
  0.2131073680039300  0.3993193954583442  0.4040940118915999
  0.2964407013372633  0.3993193954583442  0.4040940118915999
  0.3797740346705967  0.3993193954583442  0.4040940118915999
  0.4631073680039300  0.3993193954583442  0.4040940118915999
  0.5464407013372633  0.3993193954583442  0.4040940118915999
  0.6297740346705967  0.3993193954583442  0.4040940118915999
  0.7131073680039298  0.3993193954583442  0.4040940118915999
  0.7964407013372631  0.3993193954583442  0.4040940118915999
  0.8797740346705966  0.3993193954583442  0.4040940118915999
  0.9631073680039298  0.3993193954583442  0.4040940118915999
  0.0464407013372633  0.4826527287916775  0.4040940118915999
  0.1297740346705966  0.4826527287916775  0.4040940118915999
  0.2131073680039300  0.4826527287916775  0.4040940118915999
  0.2964407013372632  0.4826527287916775  0.4040940118915999
  0.3797740346705967  0.4826527287916775  0.4040940118915999
  0.4631073680039300  0.4826527287916775  0.4040940118915999
  0.5464407013372633  0.4826527287916775  0.4040940118915999
  0.6297740346705966  0.4826527287916775  0.4040940118915999
  0.7131073680039299  0.4826527287916775  0.4040940118915999
  0.7964407013372631  0.4826527287916775  0.4040940118915999
  0.8797740346705966  0.4826527287916775  0.4040940118915999
  0.9631073680039298  0.4826527287916775  0.4040940118915999
  0.0464407013372634  0.5659860621250107  0.4040940118915999
  0.1297740346705967  0.5659860621250107  0.4040940118915999
  0.2131073680039300  0.5659860621250107  0.4040940118915999
  0.2964407013372634  0.5659860621250107  0.4040940118915999
  0.3797740346705967  0.5659860621250107  0.4040940118915999
  0.4631073680039300  0.5659860621250107  0.4040940118915999
  0.5464407013372633  0.5659860621250107  0.4040940118915999
  0.6297740346705968  0.5659860621250107  0.4040940118915999
  0.7131073680039299  0.5659860621250107  0.4040940118915999
  0.7964407013372631  0.5659860621250107  0.4040940118915999
  0.8797740346705966  0.5659860621250107  0.4040940118915999
  0.9631073680039300  0.5659860621250107  0.4040940118915999
  0.0464407013372634  0.6493193954583441  0.4040940118915999
  0.1297740346705967  0.6493193954583441  0.4040940118915999
  0.2131073680039300  0.6493193954583441  0.4040940118915999
  0.2964407013372633  0.6493193954583441  0.4040940118915999
  0.3797740346705967  0.6493193954583441  0.4040940118915999
  0.4631073680039300  0.6493193954583441  0.4040940118915999
  0.5464407013372634  0.6493193954583441  0.4040940118915999
  0.6297740346705967  0.6493193954583441  0.4040940118915999
  0.7131073680039300  0.6493193954583441  0.4040940118915999
  0.7964407013372631  0.6493193954583441  0.4040940118915999
  0.8797740346705966  0.6493193954583441  0.4040940118915999
  0.9631073680039298  0.6493193954583441  0.4040940118915999
  0.0464407013372634  0.7326527287916774  0.4040940118915999
  0.1297740346705967  0.7326527287916774  0.4040940118915999
  0.2131073680039301  0.7326527287916774  0.4040940118915999
  0.2964407013372634  0.7326527287916774  0.4040940118915999
  0.3797740346705967  0.7326527287916774  0.4040940118915999
  0.4631073680039300  0.7326527287916774  0.4040940118915999
  0.5464407013372633  0.7326527287916774  0.4040940118915999
  0.6297740346705966  0.7326527287916774  0.4040940118915999
  0.7131073680039298  0.7326527287916774  0.4040940118915999
  0.7964407013372631  0.7326527287916774  0.4040940118915999
  0.8797740346705966  0.7326527287916774  0.4040940118915999
  0.9631073680039298  0.7326527287916774  0.4040940118915999
  0.0464407013372634  0.8159860621250107  0.4040940118915999
  0.1297740346705967  0.8159860621250107  0.4040940118915999
  0.2131073680039301  0.8159860621250107  0.4040940118915999
  0.2964407013372634  0.8159860621250107  0.4040940118915999
  0.3797740346705967  0.8159860621250107  0.4040940118915999
  0.4631073680039301  0.8159860621250107  0.4040940118915999
  0.5464407013372633  0.8159860621250107  0.4040940118915999
  0.6297740346705967  0.8159860621250107  0.4040940118915999
  0.7131073680039299  0.8159860621250107  0.4040940118915999
  0.7964407013372630  0.8159860621250107  0.4040940118915999
  0.8797740346705964  0.8159860621250107  0.4040940118915999
  0.9631073680039297  0.8159860621250107  0.4040940118915999
  0.0464407013372635  0.8993193954583441  0.4040940118915999
  0.1297740346705968  0.8993193954583441  0.4040940118915999
  0.2131073680039300  0.8993193954583441  0.4040940118915999
  0.2964407013372633  0.8993193954583441  0.4040940118915999
  0.3797740346705968  0.8993193954583441  0.4040940118915999
  0.4631073680039300  0.8993193954583441  0.4040940118915999
  0.5464407013372633  0.8993193954583441  0.4040940118915999
  0.6297740346705968  0.8993193954583441  0.4040940118915999
  0.7131073680039300  0.8993193954583441  0.4040940118915999
  0.7964407013372633  0.8993193954583441  0.4040940118915999
  0.8797740346705968  0.8993193954583441  0.4040940118915999
  0.9631073680039300  0.8993193954583441  0.4040940118915999
  0.0464407013372635  0.9826527287916774  0.4040940118915999
  0.1297740346705968  0.9826527287916774  0.4040940118915999
  0.2131073680039301  0.9826527287916774  0.4040940118915999
  0.2964407013372634  0.9826527287916774  0.4040940118915999
  0.3797740346705967  0.9826527287916774  0.4040940118915999
  0.4631073680039300  0.9826527287916774  0.4040940118915999
  0.5464407013372633  0.9826527287916774  0.4040940118915999
  0.6297740346705968  0.9826527287916774  0.4040940118915999
  0.7131073680039298  0.9826527287916774  0.4040940118915999
  0.7964407013372631  0.9826527287916774  0.4040940118915999
  0.8797740346705966  0.9826527287916774  0.4040940118915999
  0.9631073680039298  0.9826527287916774  0.4040940118915999
  0.0207549046794242  0.0340247272023025  0.3750824751567000
  0.1040882380127575  0.0340247272023025  0.3750824751567000
  0.1874215713460908  0.0340247272023025  0.3750824751567000
  0.2707549046794241  0.0340247272023025  0.3750824751567000
  0.3540882380127575  0.0340247272023025  0.3750824751567000
  0.4374215713460908  0.0340247272023025  0.3750824751567000
  0.5207549046794242  0.0340247272023025  0.3750824751567000
  0.6040882380127575  0.0340247272023025  0.3750824751567000
  0.6874215713460907  0.0340247272023025  0.3750824751567000
  0.7707549046794241  0.0340247272023025  0.3750824751567000
  0.8540882380127574  0.0340247272023025  0.3750824751567000
  0.9374215713460907  0.0340247272023025  0.3750824751567000
  0.0207549046794242  0.1173580605356358  0.3750824751567000
  0.1040882380127575  0.1173580605356358  0.3750824751567000
  0.1874215713460909  0.1173580605356358  0.3750824751567000
  0.2707549046794241  0.1173580605356358  0.3750824751567000
  0.3540882380127575  0.1173580605356358  0.3750824751567000
  0.4374215713460908  0.1173580605356358  0.3750824751567000
  0.5207549046794242  0.1173580605356358  0.3750824751567000
  0.6040882380127575  0.1173580605356358  0.3750824751567000
  0.6874215713460907  0.1173580605356358  0.3750824751567000
  0.7707549046794240  0.1173580605356358  0.3750824751567000
  0.8540882380127574  0.1173580605356358  0.3750824751567000
  0.9374215713460906  0.1173580605356358  0.3750824751567000
  0.0207549046794242  0.2006913938689692  0.3750824751567000
  0.1040882380127575  0.2006913938689692  0.3750824751567000
  0.1874215713460908  0.2006913938689692  0.3750824751567000
  0.2707549046794242  0.2006913938689692  0.3750824751567000
  0.3540882380127575  0.2006913938689692  0.3750824751567000
  0.4374215713460908  0.2006913938689692  0.3750824751567000
  0.5207549046794242  0.2006913938689692  0.3750824751567000
  0.6040882380127575  0.2006913938689692  0.3750824751567000
  0.6874215713460907  0.2006913938689692  0.3750824751567000
  0.7707549046794240  0.2006913938689692  0.3750824751567000
  0.8540882380127574  0.2006913938689692  0.3750824751567000
  0.9374215713460907  0.2006913938689692  0.3750824751567000
  0.0207549046794242  0.2840247272023024  0.3750824751567000
  0.1040882380127575  0.2840247272023024  0.3750824751567000
  0.1874215713460909  0.2840247272023024  0.3750824751567000
  0.2707549046794241  0.2840247272023024  0.3750824751567000
  0.3540882380127575  0.2840247272023024  0.3750824751567000
  0.4374215713460908  0.2840247272023024  0.3750824751567000
  0.5207549046794242  0.2840247272023024  0.3750824751567000
  0.6040882380127575  0.2840247272023024  0.3750824751567000
  0.6874215713460907  0.2840247272023024  0.3750824751567000
  0.7707549046794241  0.2840247272023024  0.3750824751567000
  0.8540882380127574  0.2840247272023024  0.3750824751567000
  0.9374215713460906  0.2840247272023024  0.3750824751567000
  0.0207549046794242  0.3673580605356357  0.3750824751567000
  0.1040882380127575  0.3673580605356357  0.3750824751567000
  0.1874215713460909  0.3673580605356357  0.3750824751567000
  0.2707549046794242  0.3673580605356357  0.3750824751567000
  0.3540882380127575  0.3673580605356357  0.3750824751567000
  0.4374215713460908  0.3673580605356357  0.3750824751567000
  0.5207549046794242  0.3673580605356357  0.3750824751567000
  0.6040882380127574  0.3673580605356357  0.3750824751567000
  0.6874215713460907  0.3673580605356357  0.3750824751567000
  0.7707549046794241  0.3673580605356357  0.3750824751567000
  0.8540882380127574  0.3673580605356357  0.3750824751567000
  0.9374215713460908  0.3673580605356357  0.3750824751567000
  0.0207549046794242  0.4506913938689691  0.3750824751567000
  0.1040882380127575  0.4506913938689691  0.3750824751567000
  0.1874215713460909  0.4506913938689691  0.3750824751567000
  0.2707549046794242  0.4506913938689691  0.3750824751567000
  0.3540882380127576  0.4506913938689691  0.3750824751567000
  0.4374215713460908  0.4506913938689691  0.3750824751567000
  0.5207549046794243  0.4506913938689691  0.3750824751567000
  0.6040882380127574  0.4506913938689691  0.3750824751567000
  0.6874215713460907  0.4506913938689691  0.3750824751567000
  0.7707549046794242  0.4506913938689691  0.3750824751567000
  0.8540882380127575  0.4506913938689691  0.3750824751567000
  0.9374215713460907  0.4506913938689691  0.3750824751567000
  0.0207549046794242  0.5340247272023024  0.3750824751567000
  0.1040882380127575  0.5340247272023024  0.3750824751567000
  0.1874215713460909  0.5340247272023024  0.3750824751567000
  0.2707549046794241  0.5340247272023024  0.3750824751567000
  0.3540882380127575  0.5340247272023024  0.3750824751567000
  0.4374215713460908  0.5340247272023024  0.3750824751567000
  0.5207549046794243  0.5340247272023024  0.3750824751567000
  0.6040882380127575  0.5340247272023024  0.3750824751567000
  0.6874215713460907  0.5340247272023024  0.3750824751567000
  0.7707549046794241  0.5340247272023024  0.3750824751567000
  0.8540882380127576  0.5340247272023024  0.3750824751567000
  0.9374215713460908  0.5340247272023024  0.3750824751567000
  0.0207549046794242  0.6173580605356358  0.3750824751567000
  0.1040882380127575  0.6173580605356358  0.3750824751567000
  0.1874215713460909  0.6173580605356358  0.3750824751567000
  0.2707549046794241  0.6173580605356358  0.3750824751567000
  0.3540882380127576  0.6173580605356358  0.3750824751567000
  0.4374215713460908  0.6173580605356358  0.3750824751567000
  0.5207549046794242  0.6173580605356358  0.3750824751567000
  0.6040882380127574  0.6173580605356358  0.3750824751567000
  0.6874215713460906  0.6173580605356358  0.3750824751567000
  0.7707549046794241  0.6173580605356358  0.3750824751567000
  0.8540882380127574  0.6173580605356358  0.3750824751567000
  0.9374215713460906  0.6173580605356358  0.3750824751567000
  0.0207549046794242  0.7006913938689689  0.3750824751567000
  0.1040882380127575  0.7006913938689689  0.3750824751567000
  0.1874215713460909  0.7006913938689689  0.3750824751567000
  0.2707549046794242  0.7006913938689689  0.3750824751567000
  0.3540882380127576  0.7006913938689689  0.3750824751567000
  0.4374215713460907  0.7006913938689689  0.3750824751567000
  0.5207549046794242  0.7006913938689689  0.3750824751567000
  0.6040882380127574  0.7006913938689689  0.3750824751567000
  0.6874215713460907  0.7006913938689689  0.3750824751567000
  0.7707549046794242  0.7006913938689689  0.3750824751567000
  0.8540882380127575  0.7006913938689689  0.3750824751567000
  0.9374215713460907  0.7006913938689689  0.3750824751567000
  0.0207549046794243  0.7840247272023023  0.3750824751567000
  0.1040882380127575  0.7840247272023023  0.3750824751567000
  0.1874215713460909  0.7840247272023023  0.3750824751567000
  0.2707549046794243  0.7840247272023023  0.3750824751567000
  0.3540882380127575  0.7840247272023023  0.3750824751567000
  0.4374215713460909  0.7840247272023023  0.3750824751567000
  0.5207549046794243  0.7840247272023023  0.3750824751567000
  0.6040882380127576  0.7840247272023023  0.3750824751567000
  0.6874215713460908  0.7840247272023023  0.3750824751567000
  0.7707549046794241  0.7840247272023023  0.3750824751567000
  0.8540882380127576  0.7840247272023023  0.3750824751567000
  0.9374215713460908  0.7840247272023023  0.3750824751567000
  0.0207549046794243  0.8673580605356356  0.3750824751567000
  0.1040882380127575  0.8673580605356356  0.3750824751567000
  0.1874215713460909  0.8673580605356356  0.3750824751567000
  0.2707549046794241  0.8673580605356356  0.3750824751567000
  0.3540882380127575  0.8673580605356356  0.3750824751567000
  0.4374215713460908  0.8673580605356356  0.3750824751567000
  0.5207549046794243  0.8673580605356356  0.3750824751567000
  0.6040882380127575  0.8673580605356356  0.3750824751567000
  0.6874215713460907  0.8673580605356356  0.3750824751567000
  0.7707549046794242  0.8673580605356356  0.3750824751567000
  0.8540882380127575  0.8673580605356356  0.3750824751567000
  0.9374215713460907  0.8673580605356356  0.3750824751567000
  0.0207549046794243  0.9506913938689689  0.3750824751567000
  0.1040882380127576  0.9506913938689689  0.3750824751567000
  0.1874215713460909  0.9506913938689689  0.3750824751567000
  0.2707549046794242  0.9506913938689689  0.3750824751567000
  0.3540882380127576  0.9506913938689689  0.3750824751567000
  0.4374215713460909  0.9506913938689689  0.3750824751567000
  0.5207549046794242  0.9506913938689689  0.3750824751567000
  0.6040882380127575  0.9506913938689689  0.3750824751567000
  0.6874215713460907  0.9506913938689689  0.3750824751567000
  0.7707549046794242  0.9506913938689689  0.3750824751567000
  0.8540882380127575  0.9506913938689689  0.3750824751567000
  0.9374215713460907  0.9506913938689689  0.3750824751567000
  0.0453700501170908  0.0666058933990292  0.6249391735401600
  0.1287033834504241  0.0666058933990292  0.6249391735401600
  0.2120367167837575  0.0666058933990292  0.6249391735401600
  0.2953700501170908  0.0666058933990292  0.6249391735401600
  0.3787033834504241  0.0666058933990292  0.6249391735401600
  0.4620367167837574  0.0666058933990292  0.6249391735401600
  0.5453700501170908  0.0666058933990292  0.6249391735401600
  0.6287033834504240  0.0666058933990292  0.6249391735401600
  0.7120367167837574  0.0666058933990292  0.6249391735401600
  0.7953700501170906  0.0666058933990292  0.6249391735401600
  0.8787033834504241  0.0666058933990292  0.6249391735401600
  0.9620367167837572  0.0666058933990292  0.6249391735401600
  0.0453700501170908  0.1499392267323625  0.6249391735401600
  0.1287033834504241  0.1499392267323625  0.6249391735401600
  0.2120367167837575  0.1499392267323625  0.6249391735401600
  0.2953700501170908  0.1499392267323625  0.6249391735401600
  0.3787033834504241  0.1499392267323625  0.6249391735401600
  0.4620367167837574  0.1499392267323625  0.6249391735401600
  0.5453700501170907  0.1499392267323625  0.6249391735401600
  0.6287033834504240  0.1499392267323625  0.6249391735401600
  0.7120367167837572  0.1499392267323625  0.6249391735401600
  0.7953700501170905  0.1499392267323625  0.6249391735401600
  0.8787033834504240  0.1499392267323625  0.6249391735401600
  0.9620367167837572  0.1499392267323625  0.6249391735401600
  0.0453700501170909  0.2332725600656958  0.6249391735401600
  0.1287033834504241  0.2332725600656958  0.6249391735401600
  0.2120367167837575  0.2332725600656958  0.6249391735401600
  0.2953700501170908  0.2332725600656958  0.6249391735401600
  0.3787033834504241  0.2332725600656958  0.6249391735401600
  0.4620367167837574  0.2332725600656958  0.6249391735401600
  0.5453700501170907  0.2332725600656958  0.6249391735401600
  0.6287033834504240  0.2332725600656958  0.6249391735401600
  0.7120367167837572  0.2332725600656958  0.6249391735401600
  0.7953700501170906  0.2332725600656958  0.6249391735401600
  0.8787033834504241  0.2332725600656958  0.6249391735401600
  0.9620367167837571  0.2332725600656958  0.6249391735401600
  0.0453700501170909  0.3166058933990291  0.6249391735401600
  0.1287033834504241  0.3166058933990291  0.6249391735401600
  0.2120367167837575  0.3166058933990291  0.6249391735401600
  0.2953700501170909  0.3166058933990291  0.6249391735401600
  0.3787033834504242  0.3166058933990291  0.6249391735401600
  0.4620367167837575  0.3166058933990291  0.6249391735401600
  0.5453700501170908  0.3166058933990291  0.6249391735401600
  0.6287033834504240  0.3166058933990291  0.6249391735401600
  0.7120367167837574  0.3166058933990291  0.6249391735401600
  0.7953700501170906  0.3166058933990291  0.6249391735401600
  0.8787033834504240  0.3166058933990291  0.6249391735401600
  0.9620367167837572  0.3166058933990291  0.6249391735401600
  0.0453700501170909  0.3999392267323624  0.6249391735401600
  0.1287033834504241  0.3999392267323624  0.6249391735401600
  0.2120367167837576  0.3999392267323624  0.6249391735401600
  0.2953700501170908  0.3999392267323624  0.6249391735401600
  0.3787033834504241  0.3999392267323624  0.6249391735401600
  0.4620367167837574  0.3999392267323624  0.6249391735401600
  0.5453700501170908  0.3999392267323624  0.6249391735401600
  0.6287033834504241  0.3999392267323624  0.6249391735401600
  0.7120367167837574  0.3999392267323624  0.6249391735401600
  0.7953700501170907  0.3999392267323624  0.6249391735401600
  0.8787033834504242  0.3999392267323624  0.6249391735401600
  0.9620367167837572  0.3999392267323624  0.6249391735401600
  0.0453700501170909  0.4832725600656957  0.6249391735401600
  0.1287033834504242  0.4832725600656957  0.6249391735401600
  0.2120367167837575  0.4832725600656957  0.6249391735401600
  0.2953700501170908  0.4832725600656957  0.6249391735401600
  0.3787033834504241  0.4832725600656957  0.6249391735401600
  0.4620367167837575  0.4832725600656957  0.6249391735401600
  0.5453700501170908  0.4832725600656957  0.6249391735401600
  0.6287033834504241  0.4832725600656957  0.6249391735401600
  0.7120367167837575  0.4832725600656957  0.6249391735401600
  0.7953700501170906  0.4832725600656957  0.6249391735401600
  0.8787033834504241  0.4832725600656957  0.6249391735401600
  0.9620367167837574  0.4832725600656957  0.6249391735401600
  0.0453700501170908  0.5666058933990291  0.6249391735401600
  0.1287033834504241  0.5666058933990291  0.6249391735401600
  0.2120367167837575  0.5666058933990291  0.6249391735401600
  0.2953700501170908  0.5666058933990291  0.6249391735401600
  0.3787033834504241  0.5666058933990291  0.6249391735401600
  0.4620367167837574  0.5666058933990291  0.6249391735401600
  0.5453700501170908  0.5666058933990291  0.6249391735401600
  0.6287033834504241  0.5666058933990291  0.6249391735401600
  0.7120367167837575  0.5666058933990291  0.6249391735401600
  0.7953700501170907  0.5666058933990291  0.6249391735401600
  0.8787033834504242  0.5666058933990291  0.6249391735401600
  0.9620367167837572  0.5666058933990291  0.6249391735401600
  0.0453700501170909  0.6499392267323625  0.6249391735401600
  0.1287033834504241  0.6499392267323625  0.6249391735401600
  0.2120367167837575  0.6499392267323625  0.6249391735401600
  0.2953700501170908  0.6499392267323625  0.6249391735401600
  0.3787033834504242  0.6499392267323625  0.6249391735401600
  0.4620367167837575  0.6499392267323625  0.6249391735401600
  0.5453700501170907  0.6499392267323625  0.6249391735401600
  0.6287033834504241  0.6499392267323625  0.6249391735401600
  0.7120367167837575  0.6499392267323625  0.6249391735401600
  0.7953700501170907  0.6499392267323625  0.6249391735401600
  0.8787033834504242  0.6499392267323625  0.6249391735401600
  0.9620367167837572  0.6499392267323625  0.6249391735401600
  0.0453700501170909  0.7332725600656957  0.6249391735401600
  0.1287033834504242  0.7332725600656957  0.6249391735401600
  0.2120367167837575  0.7332725600656957  0.6249391735401600
  0.2953700501170908  0.7332725600656957  0.6249391735401600
  0.3787033834504242  0.7332725600656957  0.6249391735401600
  0.4620367167837575  0.7332725600656957  0.6249391735401600
  0.5453700501170908  0.7332725600656957  0.6249391735401600
  0.6287033834504241  0.7332725600656957  0.6249391735401600
  0.7120367167837574  0.7332725600656957  0.6249391735401600
  0.7953700501170906  0.7332725600656957  0.6249391735401600
  0.8787033834504241  0.7332725600656957  0.6249391735401600
  0.9620367167837574  0.7332725600656957  0.6249391735401600
  0.0453700501170909  0.8166058933990291  0.6249391735401600
  0.1287033834504241  0.8166058933990291  0.6249391735401600
  0.2120367167837575  0.8166058933990291  0.6249391735401600
  0.2953700501170909  0.8166058933990291  0.6249391735401600
  0.3787033834504241  0.8166058933990291  0.6249391735401600
  0.4620367167837574  0.8166058933990291  0.6249391735401600
  0.5453700501170908  0.8166058933990291  0.6249391735401600
  0.6287033834504241  0.8166058933990291  0.6249391735401600
  0.7120367167837574  0.8166058933990291  0.6249391735401600
  0.7953700501170906  0.8166058933990291  0.6249391735401600
  0.8787033834504241  0.8166058933990291  0.6249391735401600
  0.9620367167837571  0.8166058933990291  0.6249391735401600
  0.0453700501170909  0.8999392267323625  0.6249391735401600
  0.1287033834504242  0.8999392267323625  0.6249391735401600
  0.2120367167837576  0.8999392267323625  0.6249391735401600
  0.2953700501170909  0.8999392267323625  0.6249391735401600
  0.3787033834504241  0.8999392267323625  0.6249391735401600
  0.4620367167837575  0.8999392267323625  0.6249391735401600
  0.5453700501170909  0.8999392267323625  0.6249391735401600
  0.6287033834504240  0.8999392267323625  0.6249391735401600
  0.7120367167837572  0.8999392267323625  0.6249391735401600
  0.7953700501170907  0.8999392267323625  0.6249391735401600
  0.8787033834504240  0.8999392267323625  0.6249391735401600
  0.9620367167837572  0.8999392267323625  0.6249391735401600
  0.0453700501170908  0.9832725600656957  0.6249391735401600
  0.1287033834504242  0.9832725600656957  0.6249391735401600
  0.2120367167837576  0.9832725600656957  0.6249391735401600
  0.2953700501170908  0.9832725600656957  0.6249391735401600
  0.3787033834504241  0.9832725600656957  0.6249391735401600
  0.4620367167837575  0.9832725600656957  0.6249391735401600
  0.5453700501170908  0.9832725600656957  0.6249391735401600
  0.6287033834504241  0.9832725600656957  0.6249391735401600
  0.7120367167837574  0.9832725600656957  0.6249391735401600
  0.7953700501170906  0.9832725600656957  0.6249391735401600
  0.8787033834504241  0.9832725600656957  0.6249391735401600
  0.9620367167837574  0.9832725600656957  0.6249391735401600
  0.0196842534545142  0.0346445584886550  0.5959276367889000
  0.1030175867878475  0.0346445584886550  0.5959276367889000
  0.1863509201211808  0.0346445584886550  0.5959276367889000
  0.2696842534545141  0.0346445584886550  0.5959276367889000
  0.3530175867878474  0.0346445584886550  0.5959276367889000
  0.4363509201211808  0.0346445584886550  0.5959276367889000
  0.5196842534545142  0.0346445584886550  0.5959276367889000
  0.6030175867878474  0.0346445584886550  0.5959276367889000
  0.6863509201211808  0.0346445584886550  0.5959276367889000
  0.7696842534545142  0.0346445584886550  0.5959276367889000
  0.8530175867878476  0.0346445584886550  0.5959276367889000
  0.9363509201211808  0.0346445584886550  0.5959276367889000
  0.0196842534545142  0.1179778918219883  0.5959276367889000
  0.1030175867878475  0.1179778918219883  0.5959276367889000
  0.1863509201211808  0.1179778918219883  0.5959276367889000
  0.2696842534545141  0.1179778918219883  0.5959276367889000
  0.3530175867878474  0.1179778918219883  0.5959276367889000
  0.4363509201211808  0.1179778918219883  0.5959276367889000
  0.5196842534545141  0.1179778918219883  0.5959276367889000
  0.6030175867878473  0.1179778918219883  0.5959276367889000
  0.6863509201211807  0.1179778918219883  0.5959276367889000
  0.7696842534545141  0.1179778918219883  0.5959276367889000
  0.8530175867878474  0.1179778918219883  0.5959276367889000
  0.9363509201211807  0.1179778918219883  0.5959276367889000
  0.0196842534545142  0.2013112251553216  0.5959276367889000
  0.1030175867878475  0.2013112251553216  0.5959276367889000
  0.1863509201211808  0.2013112251553216  0.5959276367889000
  0.2696842534545141  0.2013112251553216  0.5959276367889000
  0.3530175867878475  0.2013112251553216  0.5959276367889000
  0.4363509201211808  0.2013112251553216  0.5959276367889000
  0.5196842534545141  0.2013112251553216  0.5959276367889000
  0.6030175867878473  0.2013112251553216  0.5959276367889000
  0.6863509201211808  0.2013112251553216  0.5959276367889000
  0.7696842534545142  0.2013112251553216  0.5959276367889000
  0.8530175867878474  0.2013112251553216  0.5959276367889000
  0.9363509201211807  0.2013112251553216  0.5959276367889000
  0.0196842534545142  0.2846445584886550  0.5959276367889000
  0.1030175867878475  0.2846445584886550  0.5959276367889000
  0.1863509201211808  0.2846445584886550  0.5959276367889000
  0.2696842534545141  0.2846445584886550  0.5959276367889000
  0.3530175867878474  0.2846445584886550  0.5959276367889000
  0.4363509201211808  0.2846445584886550  0.5959276367889000
  0.5196842534545141  0.2846445584886550  0.5959276367889000
  0.6030175867878474  0.2846445584886550  0.5959276367889000
  0.6863509201211809  0.2846445584886550  0.5959276367889000
  0.7696842534545142  0.2846445584886550  0.5959276367889000
  0.8530175867878474  0.2846445584886550  0.5959276367889000
  0.9363509201211808  0.2846445584886550  0.5959276367889000
  0.0196842534545142  0.3679778918219883  0.5959276367889000
  0.1030175867878475  0.3679778918219883  0.5959276367889000
  0.1863509201211808  0.3679778918219883  0.5959276367889000
  0.2696842534545142  0.3679778918219883  0.5959276367889000
  0.3530175867878475  0.3679778918219883  0.5959276367889000
  0.4363509201211809  0.3679778918219883  0.5959276367889000
  0.5196842534545141  0.3679778918219883  0.5959276367889000
  0.6030175867878473  0.3679778918219883  0.5959276367889000
  0.6863509201211808  0.3679778918219883  0.5959276367889000
  0.7696842534545141  0.3679778918219883  0.5959276367889000
  0.8530175867878473  0.3679778918219883  0.5959276367889000
  0.9363509201211806  0.3679778918219883  0.5959276367889000
  0.0196842534545142  0.4513112251553216  0.5959276367889000
  0.1030175867878476  0.4513112251553216  0.5959276367889000
  0.1863509201211809  0.4513112251553216  0.5959276367889000
  0.2696842534545141  0.4513112251553216  0.5959276367889000
  0.3530175867878474  0.4513112251553216  0.5959276367889000
  0.4363509201211808  0.4513112251553216  0.5959276367889000
  0.5196842534545142  0.4513112251553216  0.5959276367889000
  0.6030175867878473  0.4513112251553216  0.5959276367889000
  0.6863509201211808  0.4513112251553216  0.5959276367889000
  0.7696842534545141  0.4513112251553216  0.5959276367889000
  0.8530175867878474  0.4513112251553216  0.5959276367889000
  0.9363509201211807  0.4513112251553216  0.5959276367889000
  0.0196842534545142  0.5346445584886550  0.5959276367889000
  0.1030175867878475  0.5346445584886550  0.5959276367889000
  0.1863509201211808  0.5346445584886550  0.5959276367889000
  0.2696842534545141  0.5346445584886550  0.5959276367889000
  0.3530175867878475  0.5346445584886550  0.5959276367889000
  0.4363509201211808  0.5346445584886550  0.5959276367889000
  0.5196842534545142  0.5346445584886550  0.5959276367889000
  0.6030175867878474  0.5346445584886550  0.5959276367889000
  0.6863509201211807  0.5346445584886550  0.5959276367889000
  0.7696842534545142  0.5346445584886550  0.5959276367889000
  0.8530175867878474  0.5346445584886550  0.5959276367889000
  0.9363509201211807  0.5346445584886550  0.5959276367889000
  0.0196842534545142  0.6179778918219883  0.5959276367889000
  0.1030175867878475  0.6179778918219883  0.5959276367889000
  0.1863509201211809  0.6179778918219883  0.5959276367889000
  0.2696842534545141  0.6179778918219883  0.5959276367889000
  0.3530175867878475  0.6179778918219883  0.5959276367889000
  0.4363509201211809  0.6179778918219883  0.5959276367889000
  0.5196842534545142  0.6179778918219883  0.5959276367889000
  0.6030175867878474  0.6179778918219883  0.5959276367889000
  0.6863509201211808  0.6179778918219883  0.5959276367889000
  0.7696842534545143  0.6179778918219883  0.5959276367889000
  0.8530175867878476  0.6179778918219883  0.5959276367889000
  0.9363509201211808  0.6179778918219883  0.5959276367889000
  0.0196842534545142  0.7013112251553216  0.5959276367889000
  0.1030175867878476  0.7013112251553216  0.5959276367889000
  0.1863509201211809  0.7013112251553216  0.5959276367889000
  0.2696842534545142  0.7013112251553216  0.5959276367889000
  0.3530175867878476  0.7013112251553216  0.5959276367889000
  0.4363509201211809  0.7013112251553216  0.5959276367889000
  0.5196842534545142  0.7013112251553216  0.5959276367889000
  0.6030175867878474  0.7013112251553216  0.5959276367889000
  0.6863509201211807  0.7013112251553216  0.5959276367889000
  0.7696842534545142  0.7013112251553216  0.5959276367889000
  0.8530175867878477  0.7013112251553216  0.5959276367889000
  0.9363509201211809  0.7013112251553216  0.5959276367889000
  0.0196842534545143  0.7846445584886550  0.5959276367889000
  0.1030175867878475  0.7846445584886550  0.5959276367889000
  0.1863509201211808  0.7846445584886550  0.5959276367889000
  0.2696842534545141  0.7846445584886550  0.5959276367889000
  0.3530175867878475  0.7846445584886550  0.5959276367889000
  0.4363509201211809  0.7846445584886550  0.5959276367889000
  0.5196842534545141  0.7846445584886550  0.5959276367889000
  0.6030175867878474  0.7846445584886550  0.5959276367889000
  0.6863509201211807  0.7846445584886550  0.5959276367889000
  0.7696842534545142  0.7846445584886550  0.5959276367889000
  0.8530175867878474  0.7846445584886550  0.5959276367889000
  0.9363509201211807  0.7846445584886550  0.5959276367889000
  0.0196842534545142  0.8679778918219883  0.5959276367889000
  0.1030175867878476  0.8679778918219883  0.5959276367889000
  0.1863509201211808  0.8679778918219883  0.5959276367889000
  0.2696842534545142  0.8679778918219883  0.5959276367889000
  0.3530175867878476  0.8679778918219883  0.5959276367889000
  0.4363509201211809  0.8679778918219883  0.5959276367889000
  0.5196842534545141  0.8679778918219883  0.5959276367889000
  0.6030175867878473  0.8679778918219883  0.5959276367889000
  0.6863509201211808  0.8679778918219883  0.5959276367889000
  0.7696842534545143  0.8679778918219883  0.5959276367889000
  0.8530175867878476  0.8679778918219883  0.5959276367889000
  0.9363509201211808  0.8679778918219883  0.5959276367889000
  0.0196842534545142  0.9513112251553216  0.5959276367889000
  0.1030175867878475  0.9513112251553216  0.5959276367889000
  0.1863509201211808  0.9513112251553216  0.5959276367889000
  0.2696842534545141  0.9513112251553216  0.5959276367889000
  0.3530175867878475  0.9513112251553216  0.5959276367889000
  0.4363509201211808  0.9513112251553216  0.5959276367889000
  0.5196842534545142  0.9513112251553216  0.5959276367889000
  0.6030175867878474  0.9513112251553216  0.5959276367889000
  0.6863509201211809  0.9513112251553216  0.5959276367889000
  0.7696842534545142  0.9513112251553216  0.5959276367889000
  0.8530175867878474  0.9513112251553216  0.5959276367889000
  0.9363509201211809  0.9513112251553216  0.5959276367889000
  0.0097270524178133  0.0560802492500442  0.4222107301842400
  0.0930603857511467  0.0560802492500442  0.4222107301842400
  0.1763937190844800  0.0560802492500442  0.4222107301842400
  0.2597270524178133  0.0560802492500442  0.4222107301842400
  0.3430603857511466  0.0560802492500442  0.4222107301842400
  0.4263937190844800  0.0560802492500442  0.4222107301842400
  0.5097270524178131  0.0560802492500442  0.4222107301842400
  0.5930603857511465  0.0560802492500442  0.4222107301842400
  0.6763937190844800  0.0560802492500442  0.4222107301842400
  0.7597270524178131  0.0560802492500442  0.4222107301842400
  0.8430603857511466  0.0560802492500442  0.4222107301842400
  0.9263937190844799  0.0560802492500442  0.4222107301842400
  0.0097270524178133  0.1394135825833775  0.4222107301842400
  0.0930603857511467  0.1394135825833775  0.4222107301842400
  0.1763937190844800  0.1394135825833775  0.4222107301842400
  0.2597270524178133  0.1394135825833775  0.4222107301842400
  0.3430603857511466  0.1394135825833775  0.4222107301842400
  0.4263937190844800  0.1394135825833775  0.4222107301842400
  0.5097270524178132  0.1394135825833775  0.4222107301842400
  0.5930603857511466  0.1394135825833775  0.4222107301842400
  0.6763937190844800  0.1394135825833775  0.4222107301842400
  0.7597270524178131  0.1394135825833775  0.4222107301842400
  0.8430603857511466  0.1394135825833775  0.4222107301842400
  0.9263937190844800  0.1394135825833775  0.4222107301842400
  0.0097270524178133  0.2227469159167108  0.4222107301842400
  0.0930603857511467  0.2227469159167108  0.4222107301842400
  0.1763937190844800  0.2227469159167108  0.4222107301842400
  0.2597270524178132  0.2227469159167108  0.4222107301842400
  0.3430603857511466  0.2227469159167108  0.4222107301842400
  0.4263937190844799  0.2227469159167108  0.4222107301842400
  0.5097270524178132  0.2227469159167108  0.4222107301842400
  0.5930603857511466  0.2227469159167108  0.4222107301842400
  0.6763937190844801  0.2227469159167108  0.4222107301842400
  0.7597270524178132  0.2227469159167108  0.4222107301842400
  0.8430603857511467  0.2227469159167108  0.4222107301842400
  0.9263937190844799  0.2227469159167108  0.4222107301842400
  0.0097270524178134  0.3060802492500442  0.4222107301842400
  0.0930603857511467  0.3060802492500442  0.4222107301842400
  0.1763937190844800  0.3060802492500442  0.4222107301842400
  0.2597270524178133  0.3060802492500442  0.4222107301842400
  0.3430603857511466  0.3060802492500442  0.4222107301842400
  0.4263937190844800  0.3060802492500442  0.4222107301842400
  0.5097270524178132  0.3060802492500442  0.4222107301842400
  0.5930603857511466  0.3060802492500442  0.4222107301842400
  0.6763937190844800  0.3060802492500442  0.4222107301842400
  0.7597270524178131  0.3060802492500442  0.4222107301842400
  0.8430603857511466  0.3060802492500442  0.4222107301842400
  0.9263937190844799  0.3060802492500442  0.4222107301842400
  0.0097270524178133  0.3894135825833774  0.4222107301842400
  0.0930603857511467  0.3894135825833774  0.4222107301842400
  0.1763937190844800  0.3894135825833774  0.4222107301842400
  0.2597270524178132  0.3894135825833774  0.4222107301842400
  0.3430603857511465  0.3894135825833774  0.4222107301842400
  0.4263937190844800  0.3894135825833774  0.4222107301842400
  0.5097270524178131  0.3894135825833774  0.4222107301842400
  0.5930603857511465  0.3894135825833774  0.4222107301842400
  0.6763937190844800  0.3894135825833774  0.4222107301842400
  0.7597270524178131  0.3894135825833774  0.4222107301842400
  0.8430603857511467  0.3894135825833774  0.4222107301842400
  0.9263937190844800  0.3894135825833774  0.4222107301842400
  0.0097270524178133  0.4727469159167108  0.4222107301842400
  0.0930603857511467  0.4727469159167108  0.4222107301842400
  0.1763937190844801  0.4727469159167108  0.4222107301842400
  0.2597270524178133  0.4727469159167108  0.4222107301842400
  0.3430603857511467  0.4727469159167108  0.4222107301842400
  0.4263937190844800  0.4727469159167108  0.4222107301842400
  0.5097270524178132  0.4727469159167108  0.4222107301842400
  0.5930603857511466  0.4727469159167108  0.4222107301842400
  0.6763937190844801  0.4727469159167108  0.4222107301842400
  0.7597270524178131  0.4727469159167108  0.4222107301842400
  0.8430603857511466  0.4727469159167108  0.4222107301842400
  0.9263937190844799  0.4727469159167108  0.4222107301842400
  0.0097270524178134  0.5560802492500441  0.4222107301842400
  0.0930603857511467  0.5560802492500441  0.4222107301842400
  0.1763937190844799  0.5560802492500441  0.4222107301842400
  0.2597270524178133  0.5560802492500441  0.4222107301842400
  0.3430603857511467  0.5560802492500441  0.4222107301842400
  0.4263937190844800  0.5560802492500441  0.4222107301842400
  0.5097270524178132  0.5560802492500441  0.4222107301842400
  0.5930603857511466  0.5560802492500441  0.4222107301842400
  0.6763937190844801  0.5560802492500441  0.4222107301842400
  0.7597270524178132  0.5560802492500441  0.4222107301842400
  0.8430603857511467  0.5560802492500441  0.4222107301842400
  0.9263937190844800  0.5560802492500441  0.4222107301842400
  0.0097270524178134  0.6394135825833774  0.4222107301842400
  0.0930603857511467  0.6394135825833774  0.4222107301842400
  0.1763937190844800  0.6394135825833774  0.4222107301842400
  0.2597270524178134  0.6394135825833774  0.4222107301842400
  0.3430603857511466  0.6394135825833774  0.4222107301842400
  0.4263937190844800  0.6394135825833774  0.4222107301842400
  0.5097270524178132  0.6394135825833774  0.4222107301842400
  0.5930603857511467  0.6394135825833774  0.4222107301842400
  0.6763937190844800  0.6394135825833774  0.4222107301842400
  0.7597270524178132  0.6394135825833774  0.4222107301842400
  0.8430603857511467  0.6394135825833774  0.4222107301842400
  0.9263937190844800  0.6394135825833774  0.4222107301842400
  0.0097270524178134  0.7227469159167108  0.4222107301842400
  0.0930603857511467  0.7227469159167108  0.4222107301842400
  0.1763937190844799  0.7227469159167108  0.4222107301842400
  0.2597270524178134  0.7227469159167108  0.4222107301842400
  0.3430603857511467  0.7227469159167108  0.4222107301842400
  0.4263937190844800  0.7227469159167108  0.4222107301842400
  0.5097270524178132  0.7227469159167108  0.4222107301842400
  0.5930603857511467  0.7227469159167108  0.4222107301842400
  0.6763937190844801  0.7227469159167108  0.4222107301842400
  0.7597270524178134  0.7227469159167108  0.4222107301842400
  0.8430603857511468  0.7227469159167108  0.4222107301842400
  0.9263937190844801  0.7227469159167108  0.4222107301842400
  0.0097270524178134  0.8060802492500441  0.4222107301842400
  0.0930603857511467  0.8060802492500441  0.4222107301842400
  0.1763937190844800  0.8060802492500441  0.4222107301842400
  0.2597270524178133  0.8060802492500441  0.4222107301842400
  0.3430603857511466  0.8060802492500441  0.4222107301842400
  0.4263937190844800  0.8060802492500441  0.4222107301842400
  0.5097270524178131  0.8060802492500441  0.4222107301842400
  0.5930603857511466  0.8060802492500441  0.4222107301842400
  0.6763937190844799  0.8060802492500441  0.4222107301842400
  0.7597270524178131  0.8060802492500441  0.4222107301842400
  0.8430603857511466  0.8060802492500441  0.4222107301842400
  0.9263937190844801  0.8060802492500441  0.4222107301842400
  0.0097270524178133  0.8894135825833774  0.4222107301842400
  0.0930603857511467  0.8894135825833774  0.4222107301842400
  0.1763937190844801  0.8894135825833774  0.4222107301842400
  0.2597270524178134  0.8894135825833774  0.4222107301842400
  0.3430603857511466  0.8894135825833774  0.4222107301842400
  0.4263937190844801  0.8894135825833774  0.4222107301842400
  0.5097270524178131  0.8894135825833774  0.4222107301842400
  0.5930603857511467  0.8894135825833774  0.4222107301842400
  0.6763937190844800  0.8894135825833774  0.4222107301842400
  0.7597270524178132  0.8894135825833774  0.4222107301842400
  0.8430603857511467  0.8894135825833774  0.4222107301842400
  0.9263937190844800  0.8894135825833774  0.4222107301842400
  0.0097270524178134  0.9727469159167108  0.4222107301842400
  0.0930603857511468  0.9727469159167108  0.4222107301842400
  0.1763937190844800  0.9727469159167108  0.4222107301842400
  0.2597270524178133  0.9727469159167108  0.4222107301842400
  0.3430603857511467  0.9727469159167108  0.4222107301842400
  0.4263937190844800  0.9727469159167108  0.4222107301842400
  0.5097270524178132  0.9727469159167108  0.4222107301842400
  0.5930603857511465  0.9727469159167108  0.4222107301842400
  0.6763937190844800  0.9727469159167108  0.4222107301842400
  0.7597270524178132  0.9727469159167108  0.4222107301842400
  0.8430603857511467  0.9727469159167108  0.4222107301842400
  0.9263937190844800  0.9727469159167108  0.4222107301842400
  0.0325456032915625  0.0104430152024558  0.4075733843043099
  0.1158789366248958  0.0104430152024558  0.4075733843043099
  0.1992122699582292  0.0104430152024558  0.4075733843043099
  0.2825456032915624  0.0104430152024558  0.4075733843043099
  0.3658789366248958  0.0104430152024558  0.4075733843043099
  0.4492122699582291  0.0104430152024558  0.4075733843043099
  0.5325456032915625  0.0104430152024558  0.4075733843043099
  0.6158789366248959  0.0104430152024558  0.4075733843043099
  0.6992122699582290  0.0104430152024558  0.4075733843043099
  0.7825456032915624  0.0104430152024558  0.4075733843043099
  0.8658789366248958  0.0104430152024558  0.4075733843043099
  0.9492122699582290  0.0104430152024558  0.4075733843043099
  0.0325456032915625  0.0937763485357892  0.4075733843043099
  0.1158789366248958  0.0937763485357892  0.4075733843043099
  0.1992122699582292  0.0937763485357892  0.4075733843043099
  0.2825456032915625  0.0937763485357892  0.4075733843043099
  0.3658789366248958  0.0937763485357892  0.4075733843043099
  0.4492122699582292  0.0937763485357892  0.4075733843043099
  0.5325456032915625  0.0937763485357892  0.4075733843043099
  0.6158789366248958  0.0937763485357892  0.4075733843043099
  0.6992122699582289  0.0937763485357892  0.4075733843043099
  0.7825456032915624  0.0937763485357892  0.4075733843043099
  0.8658789366248957  0.0937763485357892  0.4075733843043099
  0.9492122699582289  0.0937763485357892  0.4075733843043099
  0.0325456032915625  0.1771096818691225  0.4075733843043099
  0.1158789366248958  0.1771096818691225  0.4075733843043099
  0.1992122699582292  0.1771096818691225  0.4075733843043099
  0.2825456032915625  0.1771096818691225  0.4075733843043099
  0.3658789366248958  0.1771096818691225  0.4075733843043099
  0.4492122699582292  0.1771096818691225  0.4075733843043099
  0.5325456032915625  0.1771096818691225  0.4075733843043099
  0.6158789366248958  0.1771096818691225  0.4075733843043099
  0.6992122699582290  0.1771096818691225  0.4075733843043099
  0.7825456032915624  0.1771096818691225  0.4075733843043099
  0.8658789366248957  0.1771096818691225  0.4075733843043099
  0.9492122699582290  0.1771096818691225  0.4075733843043099
  0.0325456032915625  0.2604430152024558  0.4075733843043099
  0.1158789366248958  0.2604430152024558  0.4075733843043099
  0.1992122699582292  0.2604430152024558  0.4075733843043099
  0.2825456032915625  0.2604430152024558  0.4075733843043099
  0.3658789366248958  0.2604430152024558  0.4075733843043099
  0.4492122699582291  0.2604430152024558  0.4075733843043099
  0.5325456032915625  0.2604430152024558  0.4075733843043099
  0.6158789366248958  0.2604430152024558  0.4075733843043099
  0.6992122699582292  0.2604430152024558  0.4075733843043099
  0.7825456032915624  0.2604430152024558  0.4075733843043099
  0.8658789366248957  0.2604430152024558  0.4075733843043099
  0.9492122699582289  0.2604430152024558  0.4075733843043099
  0.0325456032915625  0.3437763485357891  0.4075733843043099
  0.1158789366248958  0.3437763485357891  0.4075733843043099
  0.1992122699582292  0.3437763485357891  0.4075733843043099
  0.2825456032915625  0.3437763485357891  0.4075733843043099
  0.3658789366248958  0.3437763485357891  0.4075733843043099
  0.4492122699582292  0.3437763485357891  0.4075733843043099
  0.5325456032915625  0.3437763485357891  0.4075733843043099
  0.6158789366248958  0.3437763485357891  0.4075733843043099
  0.6992122699582290  0.3437763485357891  0.4075733843043099
  0.7825456032915623  0.3437763485357891  0.4075733843043099
  0.8658789366248957  0.3437763485357891  0.4075733843043099
  0.9492122699582289  0.3437763485357891  0.4075733843043099
  0.0325456032915625  0.4271096818691225  0.4075733843043099
  0.1158789366248958  0.4271096818691225  0.4075733843043099
  0.1992122699582291  0.4271096818691225  0.4075733843043099
  0.2825456032915625  0.4271096818691225  0.4075733843043099
  0.3658789366248959  0.4271096818691225  0.4075733843043099
  0.4492122699582292  0.4271096818691225  0.4075733843043099
  0.5325456032915625  0.4271096818691225  0.4075733843043099
  0.6158789366248958  0.4271096818691225  0.4075733843043099
  0.6992122699582290  0.4271096818691225  0.4075733843043099
  0.7825456032915624  0.4271096818691225  0.4075733843043099
  0.8658789366248956  0.4271096818691225  0.4075733843043099
  0.9492122699582290  0.4271096818691225  0.4075733843043099
  0.0325456032915625  0.5104430152024558  0.4075733843043099
  0.1158789366248958  0.5104430152024558  0.4075733843043099
  0.1992122699582292  0.5104430152024558  0.4075733843043099
  0.2825456032915626  0.5104430152024558  0.4075733843043099
  0.3658789366248958  0.5104430152024558  0.4075733843043099
  0.4492122699582291  0.5104430152024558  0.4075733843043099
  0.5325456032915626  0.5104430152024558  0.4075733843043099
  0.6158789366248960  0.5104430152024558  0.4075733843043099
  0.6992122699582290  0.5104430152024558  0.4075733843043099
  0.7825456032915626  0.5104430152024558  0.4075733843043099
  0.8658789366248959  0.5104430152024558  0.4075733843043099
  0.9492122699582292  0.5104430152024558  0.4075733843043099
  0.0325456032915626  0.5937763485357892  0.4075733843043099
  0.1158789366248958  0.5937763485357892  0.4075733843043099
  0.1992122699582292  0.5937763485357892  0.4075733843043099
  0.2825456032915625  0.5937763485357892  0.4075733843043099
  0.3658789366248959  0.5937763485357892  0.4075733843043099
  0.4492122699582292  0.5937763485357892  0.4075733843043099
  0.5325456032915625  0.5937763485357892  0.4075733843043099
  0.6158789366248959  0.5937763485357892  0.4075733843043099
  0.6992122699582290  0.5937763485357892  0.4075733843043099
  0.7825456032915624  0.5937763485357892  0.4075733843043099
  0.8658789366248957  0.5937763485357892  0.4075733843043099
  0.9492122699582292  0.5937763485357892  0.4075733843043099
  0.0325456032915625  0.6771096818691225  0.4075733843043099
  0.1158789366248958  0.6771096818691225  0.4075733843043099
  0.1992122699582293  0.6771096818691225  0.4075733843043099
  0.2825456032915625  0.6771096818691225  0.4075733843043099
  0.3658789366248958  0.6771096818691225  0.4075733843043099
  0.4492122699582292  0.6771096818691225  0.4075733843043099
  0.5325456032915626  0.6771096818691225  0.4075733843043099
  0.6158789366248959  0.6771096818691225  0.4075733843043099
  0.6992122699582290  0.6771096818691225  0.4075733843043099
  0.7825456032915625  0.6771096818691225  0.4075733843043099
  0.8658789366248958  0.6771096818691225  0.4075733843043099
  0.9492122699582290  0.6771096818691225  0.4075733843043099
  0.0325456032915626  0.7604430152024558  0.4075733843043099
  0.1158789366248959  0.7604430152024558  0.4075733843043099
  0.1992122699582292  0.7604430152024558  0.4075733843043099
  0.2825456032915625  0.7604430152024558  0.4075733843043099
  0.3658789366248958  0.7604430152024558  0.4075733843043099
  0.4492122699582291  0.7604430152024558  0.4075733843043099
  0.5325456032915625  0.7604430152024558  0.4075733843043099
  0.6158789366248958  0.7604430152024558  0.4075733843043099
  0.6992122699582290  0.7604430152024558  0.4075733843043099
  0.7825456032915625  0.7604430152024558  0.4075733843043099
  0.8658789366248958  0.7604430152024558  0.4075733843043099
  0.9492122699582290  0.7604430152024558  0.4075733843043099
  0.0325456032915626  0.8437763485357892  0.4075733843043099
  0.1158789366248959  0.8437763485357892  0.4075733843043099
  0.1992122699582292  0.8437763485357892  0.4075733843043099
  0.2825456032915625  0.8437763485357892  0.4075733843043099
  0.3658789366248959  0.8437763485357892  0.4075733843043099
  0.4492122699582293  0.8437763485357892  0.4075733843043099
  0.5325456032915625  0.8437763485357892  0.4075733843043099
  0.6158789366248959  0.8437763485357892  0.4075733843043099
  0.6992122699582292  0.8437763485357892  0.4075733843043099
  0.7825456032915624  0.8437763485357892  0.4075733843043099
  0.8658789366248957  0.8437763485357892  0.4075733843043099
  0.9492122699582292  0.8437763485357892  0.4075733843043099
  0.0325456032915626  0.9271096818691223  0.4075733843043099
  0.1158789366248959  0.9271096818691223  0.4075733843043099
  0.1992122699582292  0.9271096818691223  0.4075733843043099
  0.2825456032915626  0.9271096818691223  0.4075733843043099
  0.3658789366248960  0.9271096818691223  0.4075733843043099
  0.4492122699582293  0.9271096818691223  0.4075733843043099
  0.5325456032915625  0.9271096818691223  0.4075733843043099
  0.6158789366248958  0.9271096818691223  0.4075733843043099
  0.6992122699582293  0.9271096818691223  0.4075733843043099
  0.7825456032915625  0.9271096818691223  0.4075733843043099
  0.8658789366248958  0.9271096818691223  0.4075733843043099
  0.9492122699582290  0.9271096818691223  0.4075733843043099
  0.0570076441518958  0.0448524129365767  0.3563998703220700
  0.1403409774852292  0.0448524129365767  0.3563998703220700
  0.2236743108185625  0.0448524129365767  0.3563998703220700
  0.3070076441518958  0.0448524129365767  0.3563998703220700
  0.3903409774852291  0.0448524129365767  0.3563998703220700
  0.4736743108185624  0.0448524129365767  0.3563998703220700
  0.5570076441518959  0.0448524129365767  0.3563998703220700
  0.6403409774852291  0.0448524129365767  0.3563998703220700
  0.7236743108185625  0.0448524129365767  0.3563998703220700
  0.8070076441518959  0.0448524129365767  0.3563998703220700
  0.8903409774852290  0.0448524129365767  0.3563998703220700
  0.9736743108185625  0.0448524129365767  0.3563998703220700
  0.0570076441518958  0.1281857462699100  0.3563998703220700
  0.1403409774852291  0.1281857462699100  0.3563998703220700
  0.2236743108185625  0.1281857462699100  0.3563998703220700
  0.3070076441518959  0.1281857462699100  0.3563998703220700
  0.3903409774852291  0.1281857462699100  0.3563998703220700
  0.4736743108185624  0.1281857462699100  0.3563998703220700
  0.5570076441518957  0.1281857462699100  0.3563998703220700
  0.6403409774852290  0.1281857462699100  0.3563998703220700
  0.7236743108185624  0.1281857462699100  0.3563998703220700
  0.8070076441518959  0.1281857462699100  0.3563998703220700
  0.8903409774852290  0.1281857462699100  0.3563998703220700
  0.9736743108185625  0.1281857462699100  0.3563998703220700
  0.0570076441518958  0.2115190796032433  0.3563998703220700
  0.1403409774852292  0.2115190796032433  0.3563998703220700
  0.2236743108185625  0.2115190796032433  0.3563998703220700
  0.3070076441518959  0.2115190796032433  0.3563998703220700
  0.3903409774852292  0.2115190796032433  0.3563998703220700
  0.4736743108185625  0.2115190796032433  0.3563998703220700
  0.5570076441518959  0.2115190796032433  0.3563998703220700
  0.6403409774852291  0.2115190796032433  0.3563998703220700
  0.7236743108185624  0.2115190796032433  0.3563998703220700
  0.8070076441518959  0.2115190796032433  0.3563998703220700
  0.8903409774852290  0.2115190796032433  0.3563998703220700
  0.9736743108185624  0.2115190796032433  0.3563998703220700
  0.0570076441518959  0.2948524129365767  0.3563998703220700
  0.1403409774852292  0.2948524129365767  0.3563998703220700
  0.2236743108185625  0.2948524129365767  0.3563998703220700
  0.3070076441518959  0.2948524129365767  0.3563998703220700
  0.3903409774852292  0.2948524129365767  0.3563998703220700
  0.4736743108185624  0.2948524129365767  0.3563998703220700
  0.5570076441518957  0.2948524129365767  0.3563998703220700
  0.6403409774852290  0.2948524129365767  0.3563998703220700
  0.7236743108185623  0.2948524129365767  0.3563998703220700
  0.8070076441518957  0.2948524129365767  0.3563998703220700
  0.8903409774852289  0.2948524129365767  0.3563998703220700
  0.9736743108185624  0.2948524129365767  0.3563998703220700
  0.0570076441518958  0.3781857462699100  0.3563998703220700
  0.1403409774852291  0.3781857462699100  0.3563998703220700
  0.2236743108185626  0.3781857462699100  0.3563998703220700
  0.3070076441518958  0.3781857462699100  0.3563998703220700
  0.3903409774852291  0.3781857462699100  0.3563998703220700
  0.4736743108185624  0.3781857462699100  0.3563998703220700
  0.5570076441518959  0.3781857462699100  0.3563998703220700
  0.6403409774852290  0.3781857462699100  0.3563998703220700
  0.7236743108185623  0.3781857462699100  0.3563998703220700
  0.8070076441518957  0.3781857462699100  0.3563998703220700
  0.8903409774852290  0.3781857462699100  0.3563998703220700
  0.9736743108185625  0.3781857462699100  0.3563998703220700
  0.0570076441518959  0.4615190796032433  0.3563998703220700
  0.1403409774852292  0.4615190796032433  0.3563998703220700
  0.2236743108185625  0.4615190796032433  0.3563998703220700
  0.3070076441518958  0.4615190796032433  0.3563998703220700
  0.3903409774852291  0.4615190796032433  0.3563998703220700
  0.4736743108185624  0.4615190796032433  0.3563998703220700
  0.5570076441518960  0.4615190796032433  0.3563998703220700
  0.6403409774852292  0.4615190796032433  0.3563998703220700
  0.7236743108185625  0.4615190796032433  0.3563998703220700
  0.8070076441518961  0.4615190796032433  0.3563998703220700
  0.8903409774852291  0.4615190796032433  0.3563998703220700
  0.9736743108185626  0.4615190796032433  0.3563998703220700
  0.0570076441518958  0.5448524129365766  0.3563998703220700
  0.1403409774852291  0.5448524129365766  0.3563998703220700
  0.2236743108185625  0.5448524129365766  0.3563998703220700
  0.3070076441518958  0.5448524129365766  0.3563998703220700
  0.3903409774852291  0.5448524129365766  0.3563998703220700
  0.4736743108185624  0.5448524129365766  0.3563998703220700
  0.5570076441518960  0.5448524129365766  0.3563998703220700
  0.6403409774852292  0.5448524129365766  0.3563998703220700
  0.7236743108185626  0.5448524129365766  0.3563998703220700
  0.8070076441518960  0.5448524129365766  0.3563998703220700
  0.8903409774852292  0.5448524129365766  0.3563998703220700
  0.9736743108185627  0.5448524129365766  0.3563998703220700
  0.0570076441518959  0.6281857462699100  0.3563998703220700
  0.1403409774852292  0.6281857462699100  0.3563998703220700
  0.2236743108185626  0.6281857462699100  0.3563998703220700
  0.3070076441518959  0.6281857462699100  0.3563998703220700
  0.3903409774852291  0.6281857462699100  0.3563998703220700
  0.4736743108185624  0.6281857462699100  0.3563998703220700
  0.5570076441518959  0.6281857462699100  0.3563998703220700
  0.6403409774852291  0.6281857462699100  0.3563998703220700
  0.7236743108185625  0.6281857462699100  0.3563998703220700
  0.8070076441518960  0.6281857462699100  0.3563998703220700
  0.8903409774852290  0.6281857462699100  0.3563998703220700
  0.9736743108185625  0.6281857462699100  0.3563998703220700
  0.0570076441518958  0.7115190796032432  0.3563998703220700
  0.1403409774852292  0.7115190796032432  0.3563998703220700
  0.2236743108185625  0.7115190796032432  0.3563998703220700
  0.3070076441518959  0.7115190796032432  0.3563998703220700
  0.3903409774852291  0.7115190796032432  0.3563998703220700
  0.4736743108185624  0.7115190796032432  0.3563998703220700
  0.5570076441518959  0.7115190796032432  0.3563998703220700
  0.6403409774852292  0.7115190796032432  0.3563998703220700
  0.7236743108185624  0.7115190796032432  0.3563998703220700
  0.8070076441518959  0.7115190796032432  0.3563998703220700
  0.8903409774852291  0.7115190796032432  0.3563998703220700
  0.9736743108185626  0.7115190796032432  0.3563998703220700
  0.0570076441518958  0.7948524129365766  0.3563998703220700
  0.1403409774852292  0.7948524129365766  0.3563998703220700
  0.2236743108185625  0.7948524129365766  0.3563998703220700
  0.3070076441518959  0.7948524129365766  0.3563998703220700
  0.3903409774852291  0.7948524129365766  0.3563998703220700
  0.4736743108185624  0.7948524129365766  0.3563998703220700
  0.5570076441518957  0.7948524129365766  0.3563998703220700
  0.6403409774852291  0.7948524129365766  0.3563998703220700
  0.7236743108185624  0.7948524129365766  0.3563998703220700
  0.8070076441518959  0.7948524129365766  0.3563998703220700
  0.8903409774852289  0.7948524129365766  0.3563998703220700
  0.9736743108185624  0.7948524129365766  0.3563998703220700
  0.0570076441518959  0.8781857462699099  0.3563998703220700
  0.1403409774852292  0.8781857462699099  0.3563998703220700
  0.2236743108185625  0.8781857462699099  0.3563998703220700
  0.3070076441518959  0.8781857462699099  0.3563998703220700
  0.3903409774852291  0.8781857462699099  0.3563998703220700
  0.4736743108185624  0.8781857462699099  0.3563998703220700
  0.5570076441518959  0.8781857462699099  0.3563998703220700
  0.6403409774852292  0.8781857462699099  0.3563998703220700
  0.7236743108185625  0.8781857462699099  0.3563998703220700
  0.8070076441518960  0.8781857462699099  0.3563998703220700
  0.8903409774852290  0.8781857462699099  0.3563998703220700
  0.9736743108185625  0.8781857462699099  0.3563998703220700
  0.0570076441518958  0.9615190796032432  0.3563998703220700
  0.1403409774852292  0.9615190796032432  0.3563998703220700
  0.2236743108185626  0.9615190796032432  0.3563998703220700
  0.3070076441518960  0.9615190796032432  0.3563998703220700
  0.3903409774852292  0.9615190796032432  0.3563998703220700
  0.4736743108185626  0.9615190796032432  0.3563998703220700
  0.5570076441518959  0.9615190796032432  0.3563998703220700
  0.6403409774852291  0.9615190796032432  0.3563998703220700
  0.7236743108185624  0.9615190796032432  0.3563998703220700
  0.8070076441518959  0.9615190796032432  0.3563998703220700
  0.8903409774852291  0.9615190796032432  0.3563998703220700
  0.9736743108185626  0.9615190796032432  0.3563998703220700
  0.0091173106448092  0.0557782076655200  0.6436217783747100
  0.0924506439781425  0.0557782076655200  0.6436217783747100
  0.1757839773114758  0.0557782076655200  0.6436217783747100
  0.2591173106448092  0.0557782076655200  0.6436217783747100
  0.3424506439781425  0.0557782076655200  0.6436217783747100
  0.4257839773114758  0.0557782076655200  0.6436217783747100
  0.5091173106448090  0.0557782076655200  0.6436217783747100
  0.5924506439781424  0.0557782076655200  0.6436217783747100
  0.6757839773114758  0.0557782076655200  0.6436217783747100
  0.7591173106448089  0.0557782076655200  0.6436217783747100
  0.8424506439781423  0.0557782076655200  0.6436217783747100
  0.9257839773114758  0.0557782076655200  0.6436217783747100
  0.0091173106448092  0.1391115409988533  0.6436217783747100
  0.0924506439781425  0.1391115409988533  0.6436217783747100
  0.1757839773114758  0.1391115409988533  0.6436217783747100
  0.2591173106448091  0.1391115409988533  0.6436217783747100
  0.3424506439781425  0.1391115409988533  0.6436217783747100
  0.4257839773114758  0.1391115409988533  0.6436217783747100
  0.5091173106448090  0.1391115409988533  0.6436217783747100
  0.5924506439781425  0.1391115409988533  0.6436217783747100
  0.6757839773114758  0.1391115409988533  0.6436217783747100
  0.7591173106448090  0.1391115409988533  0.6436217783747100
  0.8424506439781423  0.1391115409988533  0.6436217783747100
  0.9257839773114758  0.1391115409988533  0.6436217783747100
  0.0091173106448092  0.2224448743321867  0.6436217783747100
  0.0924506439781425  0.2224448743321867  0.6436217783747100
  0.1757839773114759  0.2224448743321867  0.6436217783747100
  0.2591173106448091  0.2224448743321867  0.6436217783747100
  0.3424506439781425  0.2224448743321867  0.6436217783747100
  0.4257839773114757  0.2224448743321867  0.6436217783747100
  0.5091173106448091  0.2224448743321867  0.6436217783747100
  0.5924506439781425  0.2224448743321867  0.6436217783747100
  0.6757839773114759  0.2224448743321867  0.6436217783747100
  0.7591173106448090  0.2224448743321867  0.6436217783747100
  0.8424506439781423  0.2224448743321867  0.6436217783747100
  0.9257839773114759  0.2224448743321867  0.6436217783747100
  0.0091173106448092  0.3057782076655200  0.6436217783747100
  0.0924506439781425  0.3057782076655200  0.6436217783747100
  0.1757839773114759  0.3057782076655200  0.6436217783747100
  0.2591173106448091  0.3057782076655200  0.6436217783747100
  0.3424506439781425  0.3057782076655200  0.6436217783747100
  0.4257839773114758  0.3057782076655200  0.6436217783747100
  0.5091173106448091  0.3057782076655200  0.6436217783747100
  0.5924506439781425  0.3057782076655200  0.6436217783747100
  0.6757839773114758  0.3057782076655200  0.6436217783747100
  0.7591173106448089  0.3057782076655200  0.6436217783747100
  0.8424506439781422  0.3057782076655200  0.6436217783747100
  0.9257839773114757  0.3057782076655200  0.6436217783747100
  0.0091173106448092  0.3891115409988533  0.6436217783747100
  0.0924506439781425  0.3891115409988533  0.6436217783747100
  0.1757839773114758  0.3891115409988533  0.6436217783747100
  0.2591173106448091  0.3891115409988533  0.6436217783747100
  0.3424506439781425  0.3891115409988533  0.6436217783747100
  0.4257839773114759  0.3891115409988533  0.6436217783747100
  0.5091173106448091  0.3891115409988533  0.6436217783747100
  0.5924506439781425  0.3891115409988533  0.6436217783747100
  0.6757839773114758  0.3891115409988533  0.6436217783747100
  0.7591173106448089  0.3891115409988533  0.6436217783747100
  0.8424506439781423  0.3891115409988533  0.6436217783747100
  0.9257839773114758  0.3891115409988533  0.6436217783747100
  0.0091173106448092  0.4724448743321866  0.6436217783747100
  0.0924506439781425  0.4724448743321866  0.6436217783747100
  0.1757839773114758  0.4724448743321866  0.6436217783747100
  0.2591173106448091  0.4724448743321866  0.6436217783747100
  0.3424506439781425  0.4724448743321866  0.6436217783747100
  0.4257839773114758  0.4724448743321866  0.6436217783747100
  0.5091173106448091  0.4724448743321866  0.6436217783747100
  0.5924506439781425  0.4724448743321866  0.6436217783747100
  0.6757839773114759  0.4724448743321866  0.6436217783747100
  0.7591173106448090  0.4724448743321866  0.6436217783747100
  0.8424506439781422  0.4724448743321866  0.6436217783747100
  0.9257839773114757  0.4724448743321866  0.6436217783747100
  0.0091173106448092  0.5557782076655199  0.6436217783747100
  0.0924506439781425  0.5557782076655199  0.6436217783747100
  0.1757839773114759  0.5557782076655199  0.6436217783747100
  0.2591173106448092  0.5557782076655199  0.6436217783747100
  0.3424506439781426  0.5557782076655199  0.6436217783747100
  0.4257839773114758  0.5557782076655199  0.6436217783747100
  0.5091173106448091  0.5557782076655199  0.6436217783747100
  0.5924506439781425  0.5557782076655199  0.6436217783747100
  0.6757839773114758  0.5557782076655199  0.6436217783747100
  0.7591173106448091  0.5557782076655199  0.6436217783747100
  0.8424506439781424  0.5557782076655199  0.6436217783747100
  0.9257839773114759  0.5557782076655199  0.6436217783747100
  0.0091173106448092  0.6391115409988531  0.6436217783747100
  0.0924506439781425  0.6391115409988531  0.6436217783747100
  0.1757839773114759  0.6391115409988531  0.6436217783747100
  0.2591173106448093  0.6391115409988531  0.6436217783747100
  0.3424506439781425  0.6391115409988531  0.6436217783747100
  0.4257839773114758  0.6391115409988531  0.6436217783747100
  0.5091173106448091  0.6391115409988531  0.6436217783747100
  0.5924506439781425  0.6391115409988531  0.6436217783747100
  0.6757839773114758  0.6391115409988531  0.6436217783747100
  0.7591173106448090  0.6391115409988531  0.6436217783747100
  0.8424506439781423  0.6391115409988531  0.6436217783747100
  0.9257839773114758  0.6391115409988531  0.6436217783747100
  0.0091173106448092  0.7224448743321865  0.6436217783747100
  0.0924506439781425  0.7224448743321865  0.6436217783747100
  0.1757839773114759  0.7224448743321865  0.6436217783747100
  0.2591173106448092  0.7224448743321865  0.6436217783747100
  0.3424506439781426  0.7224448743321865  0.6436217783747100
  0.4257839773114758  0.7224448743321865  0.6436217783747100
  0.5091173106448093  0.7224448743321865  0.6436217783747100
  0.5924506439781425  0.7224448743321865  0.6436217783747100
  0.6757839773114759  0.7224448743321865  0.6436217783747100
  0.7591173106448091  0.7224448743321865  0.6436217783747100
  0.8424506439781424  0.7224448743321865  0.6436217783747100
  0.9257839773114759  0.7224448743321865  0.6436217783747100
  0.0091173106448093  0.8057782076655199  0.6436217783747100
  0.0924506439781426  0.8057782076655199  0.6436217783747100
  0.1757839773114759  0.8057782076655199  0.6436217783747100
  0.2591173106448093  0.8057782076655199  0.6436217783747100
  0.3424506439781425  0.8057782076655199  0.6436217783747100
  0.4257839773114759  0.8057782076655199  0.6436217783747100
  0.5091173106448091  0.8057782076655199  0.6436217783747100
  0.5924506439781426  0.8057782076655199  0.6436217783747100
  0.6757839773114759  0.8057782076655199  0.6436217783747100
  0.7591173106448091  0.8057782076655199  0.6436217783747100
  0.8424506439781424  0.8057782076655199  0.6436217783747100
  0.9257839773114759  0.8057782076655199  0.6436217783747100
  0.0091173106448093  0.8891115409988531  0.6436217783747100
  0.0924506439781426  0.8891115409988531  0.6436217783747100
  0.1757839773114759  0.8891115409988531  0.6436217783747100
  0.2591173106448091  0.8891115409988531  0.6436217783747100
  0.3424506439781425  0.8891115409988531  0.6436217783747100
  0.4257839773114759  0.8891115409988531  0.6436217783747100
  0.5091173106448091  0.8891115409988531  0.6436217783747100
  0.5924506439781425  0.8891115409988531  0.6436217783747100
  0.6757839773114758  0.8891115409988531  0.6436217783747100
  0.7591173106448090  0.8891115409988531  0.6436217783747100
  0.8424506439781423  0.8891115409988531  0.6436217783747100
  0.9257839773114758  0.8891115409988531  0.6436217783747100
  0.0091173106448093  0.9724448743321865  0.6436217783747100
  0.0924506439781426  0.9724448743321865  0.6436217783747100
  0.1757839773114759  0.9724448743321865  0.6436217783747100
  0.2591173106448092  0.9724448743321865  0.6436217783747100
  0.3424506439781426  0.9724448743321865  0.6436217783747100
  0.4257839773114758  0.9724448743321865  0.6436217783747100
  0.5091173106448091  0.9724448743321865  0.6436217783747100
  0.5924506439781426  0.9724448743321865  0.6436217783747100
  0.6757839773114759  0.9724448743321865  0.6436217783747100
  0.7591173106448091  0.9724448743321865  0.6436217783747100
  0.8424506439781424  0.9724448743321865  0.6436217783747100
  0.9257839773114759  0.9724448743321865  0.6436217783747100
  0.0335793514951100  0.0068542720781217  0.5924482644423300
  0.1169126848284433  0.0068542720781217  0.5924482644423300
  0.2002460181617767  0.0068542720781217  0.5924482644423300
  0.2835793514951100  0.0068542720781217  0.5924482644423300
  0.3669126848284433  0.0068542720781217  0.5924482644423300
  0.4502460181617766  0.0068542720781217  0.5924482644423300
  0.5335793514951098  0.0068542720781217  0.5924482644423300
  0.6169126848284432  0.0068542720781217  0.5924482644423300
  0.7002460181617765  0.0068542720781217  0.5924482644423300
  0.7835793514951099  0.0068542720781217  0.5924482644423300
  0.8669126848284432  0.0068542720781217  0.5924482644423300
  0.9502460181617765  0.0068542720781217  0.5924482644423300
  0.0335793514951100  0.0901876054114550  0.5924482644423300
  0.1169126848284433  0.0901876054114550  0.5924482644423300
  0.2002460181617766  0.0901876054114550  0.5924482644423300
  0.2835793514951099  0.0901876054114550  0.5924482644423300
  0.3669126848284432  0.0901876054114550  0.5924482644423300
  0.4502460181617766  0.0901876054114550  0.5924482644423300
  0.5335793514951099  0.0901876054114550  0.5924482644423300
  0.6169126848284433  0.0901876054114550  0.5924482644423300
  0.7002460181617766  0.0901876054114550  0.5924482644423300
  0.7835793514951099  0.0901876054114550  0.5924482644423300
  0.8669126848284432  0.0901876054114550  0.5924482644423300
  0.9502460181617766  0.0901876054114550  0.5924482644423300
  0.0335793514951100  0.1735209387447883  0.5924482644423300
  0.1169126848284433  0.1735209387447883  0.5924482644423300
  0.2002460181617766  0.1735209387447883  0.5924482644423300
  0.2835793514951100  0.1735209387447883  0.5924482644423300
  0.3669126848284433  0.1735209387447883  0.5924482644423300
  0.4502460181617767  0.1735209387447883  0.5924482644423300
  0.5335793514951099  0.1735209387447883  0.5924482644423300
  0.6169126848284433  0.1735209387447883  0.5924482644423300
  0.7002460181617765  0.1735209387447883  0.5924482644423300
  0.7835793514951099  0.1735209387447883  0.5924482644423300
  0.8669126848284433  0.1735209387447883  0.5924482644423300
  0.9502460181617766  0.1735209387447883  0.5924482644423300
  0.0335793514951100  0.2568542720781216  0.5924482644423300
  0.1169126848284433  0.2568542720781216  0.5924482644423300
  0.2002460181617767  0.2568542720781216  0.5924482644423300
  0.2835793514951099  0.2568542720781216  0.5924482644423300
  0.3669126848284432  0.2568542720781216  0.5924482644423300
  0.4502460181617766  0.2568542720781216  0.5924482644423300
  0.5335793514951099  0.2568542720781216  0.5924482644423300
  0.6169126848284433  0.2568542720781216  0.5924482644423300
  0.7002460181617765  0.2568542720781216  0.5924482644423300
  0.7835793514951098  0.2568542720781216  0.5924482644423300
  0.8669126848284432  0.2568542720781216  0.5924482644423300
  0.9502460181617766  0.2568542720781216  0.5924482644423300
  0.0335793514951100  0.3401876054114550  0.5924482644423300
  0.1169126848284433  0.3401876054114550  0.5924482644423300
  0.2002460181617767  0.3401876054114550  0.5924482644423300
  0.2835793514951100  0.3401876054114550  0.5924482644423300
  0.3669126848284433  0.3401876054114550  0.5924482644423300
  0.4502460181617766  0.3401876054114550  0.5924482644423300
  0.5335793514951099  0.3401876054114550  0.5924482644423300
  0.6169126848284433  0.3401876054114550  0.5924482644423300
  0.7002460181617766  0.3401876054114550  0.5924482644423300
  0.7835793514951099  0.3401876054114550  0.5924482644423300
  0.8669126848284432  0.3401876054114550  0.5924482644423300
  0.9502460181617765  0.3401876054114550  0.5924482644423300
  0.0335793514951100  0.4235209387447883  0.5924482644423300
  0.1169126848284434  0.4235209387447883  0.5924482644423300
  0.2002460181617767  0.4235209387447883  0.5924482644423300
  0.2835793514951100  0.4235209387447883  0.5924482644423300
  0.3669126848284432  0.4235209387447883  0.5924482644423300
  0.4502460181617766  0.4235209387447883  0.5924482644423300
  0.5335793514951099  0.4235209387447883  0.5924482644423300
  0.6169126848284433  0.4235209387447883  0.5924482644423300
  0.7002460181617767  0.4235209387447883  0.5924482644423300
  0.7835793514951099  0.4235209387447883  0.5924482644423300
  0.8669126848284433  0.4235209387447883  0.5924482644423300
  0.9502460181617766  0.4235209387447883  0.5924482644423300
  0.0335793514951101  0.5068542720781215  0.5924482644423300
  0.1169126848284434  0.5068542720781215  0.5924482644423300
  0.2002460181617767  0.5068542720781215  0.5924482644423300
  0.2835793514951100  0.5068542720781215  0.5924482644423300
  0.3669126848284434  0.5068542720781215  0.5924482644423300
  0.4502460181617767  0.5068542720781215  0.5924482644423300
  0.5335793514951100  0.5068542720781215  0.5924482644423300
  0.6169126848284433  0.5068542720781215  0.5924482644423300
  0.7002460181617767  0.5068542720781215  0.5924482644423300
  0.7835793514951099  0.5068542720781215  0.5924482644423300
  0.8669126848284432  0.5068542720781215  0.5924482644423300
  0.9502460181617765  0.5068542720781215  0.5924482644423300
  0.0335793514951101  0.5901876054114549  0.5924482644423300
  0.1169126848284434  0.5901876054114549  0.5924482644423300
  0.2002460181617768  0.5901876054114549  0.5924482644423300
  0.2835793514951100  0.5901876054114549  0.5924482644423300
  0.3669126848284434  0.5901876054114549  0.5924482644423300
  0.4502460181617767  0.5901876054114549  0.5924482644423300
  0.5335793514951099  0.5901876054114549  0.5924482644423300
  0.6169126848284434  0.5901876054114549  0.5924482644423300
  0.7002460181617766  0.5901876054114549  0.5924482644423300
  0.7835793514951099  0.5901876054114549  0.5924482644423300
  0.8669126848284434  0.5901876054114549  0.5924482644423300
  0.9502460181617767  0.5901876054114549  0.5924482644423300
  0.0335793514951100  0.6735209387447881  0.5924482644423300
  0.1169126848284434  0.6735209387447881  0.5924482644423300
  0.2002460181617767  0.6735209387447881  0.5924482644423300
  0.2835793514951100  0.6735209387447881  0.5924482644423300
  0.3669126848284433  0.6735209387447881  0.5924482644423300
  0.4502460181617767  0.6735209387447881  0.5924482644423300
  0.5335793514951100  0.6735209387447881  0.5924482644423300
  0.6169126848284433  0.6735209387447881  0.5924482644423300
  0.7002460181617766  0.6735209387447881  0.5924482644423300
  0.7835793514951098  0.6735209387447881  0.5924482644423300
  0.8669126848284431  0.6735209387447881  0.5924482644423300
  0.9502460181617766  0.6735209387447881  0.5924482644423300
  0.0335793514951101  0.7568542720781215  0.5924482644423300
  0.1169126848284433  0.7568542720781215  0.5924482644423300
  0.2002460181617767  0.7568542720781215  0.5924482644423300
  0.2835793514951101  0.7568542720781215  0.5924482644423300
  0.3669126848284434  0.7568542720781215  0.5924482644423300
  0.4502460181617766  0.7568542720781215  0.5924482644423300
  0.5335793514951099  0.7568542720781215  0.5924482644423300
  0.6169126848284434  0.7568542720781215  0.5924482644423300
  0.7002460181617766  0.7568542720781215  0.5924482644423300
  0.7835793514951100  0.7568542720781215  0.5924482644423300
  0.8669126848284433  0.7568542720781215  0.5924482644423300
  0.9502460181617766  0.7568542720781215  0.5924482644423300
  0.0335793514951101  0.8401876054114549  0.5924482644423300
  0.1169126848284434  0.8401876054114549  0.5924482644423300
  0.2002460181617768  0.8401876054114549  0.5924482644423300
  0.2835793514951100  0.8401876054114549  0.5924482644423300
  0.3669126848284433  0.8401876054114549  0.5924482644423300
  0.4502460181617767  0.8401876054114549  0.5924482644423300
  0.5335793514951099  0.8401876054114549  0.5924482644423300
  0.6169126848284434  0.8401876054114549  0.5924482644423300
  0.7002460181617765  0.8401876054114549  0.5924482644423300
  0.7835793514951099  0.8401876054114549  0.5924482644423300
  0.8669126848284434  0.8401876054114549  0.5924482644423300
  0.9502460181617767  0.8401876054114549  0.5924482644423300
  0.0335793514951100  0.9235209387447881  0.5924482644423300
  0.1169126848284434  0.9235209387447881  0.5924482644423300
  0.2002460181617768  0.9235209387447881  0.5924482644423300
  0.2835793514951100  0.9235209387447881  0.5924482644423300
  0.3669126848284433  0.9235209387447881  0.5924482644423300
  0.4502460181617767  0.9235209387447881  0.5924482644423300
  0.5335793514951099  0.9235209387447881  0.5924482644423300
  0.6169126848284435  0.9235209387447881  0.5924482644423300
  0.7002460181617766  0.9235209387447881  0.5924482644423300
  0.7835793514951100  0.9235209387447881  0.5924482644423300
  0.8669126848284433  0.9235209387447881  0.5924482644423300
  0.9502460181617766  0.9235209387447881  0.5924482644423300
  0.0563979023731133  0.0445503713640467  0.5778109184832200
  0.1397312357064466  0.0445503713640467  0.5778109184832200
  0.2230645690397800  0.0445503713640467  0.5778109184832200
  0.3063979023731133  0.0445503713640467  0.5778109184832200
  0.3897312357064466  0.0445503713640467  0.5778109184832200
  0.4730645690397799  0.0445503713640467  0.5778109184832200
  0.5563979023731133  0.0445503713640467  0.5778109184832200
  0.6397312357064466  0.0445503713640467  0.5778109184832200
  0.7230645690397799  0.0445503713640467  0.5778109184832200
  0.8063979023731133  0.0445503713640467  0.5778109184832200
  0.8897312357064466  0.0445503713640467  0.5778109184832200
  0.9730645690397799  0.0445503713640467  0.5778109184832200
  0.0563979023731133  0.1278837046973800  0.5778109184832200
  0.1397312357064467  0.1278837046973800  0.5778109184832200
  0.2230645690397800  0.1278837046973800  0.5778109184832200
  0.3063979023731133  0.1278837046973800  0.5778109184832200
  0.3897312357064466  0.1278837046973800  0.5778109184832200
  0.4730645690397799  0.1278837046973800  0.5778109184832200
  0.5563979023731133  0.1278837046973800  0.5778109184832200
  0.6397312357064466  0.1278837046973800  0.5778109184832200
  0.7230645690397798  0.1278837046973800  0.5778109184832200
  0.8063979023731133  0.1278837046973800  0.5778109184832200
  0.8897312357064465  0.1278837046973800  0.5778109184832200
  0.9730645690397798  0.1278837046973800  0.5778109184832200
  0.0563979023731133  0.2112170380307133  0.5778109184832200
  0.1397312357064467  0.2112170380307133  0.5778109184832200
  0.2230645690397800  0.2112170380307133  0.5778109184832200
  0.3063979023731134  0.2112170380307133  0.5778109184832200
  0.3897312357064467  0.2112170380307133  0.5778109184832200
  0.4730645690397800  0.2112170380307133  0.5778109184832200
  0.5563979023731133  0.2112170380307133  0.5778109184832200
  0.6397312357064466  0.2112170380307133  0.5778109184832200
  0.7230645690397798  0.2112170380307133  0.5778109184832200
  0.8063979023731133  0.2112170380307133  0.5778109184832200
  0.8897312357064465  0.2112170380307133  0.5778109184832200
  0.9730645690397799  0.2112170380307133  0.5778109184832200
  0.0563979023731133  0.2945503713640467  0.5778109184832200
  0.1397312357064466  0.2945503713640467  0.5778109184832200
  0.2230645690397800  0.2945503713640467  0.5778109184832200
  0.3063979023731133  0.2945503713640467  0.5778109184832200
  0.3897312357064467  0.2945503713640467  0.5778109184832200
  0.4730645690397799  0.2945503713640467  0.5778109184832200
  0.5563979023731133  0.2945503713640467  0.5778109184832200
  0.6397312357064466  0.2945503713640467  0.5778109184832200
  0.7230645690397798  0.2945503713640467  0.5778109184832200
  0.8063979023731133  0.2945503713640467  0.5778109184832200
  0.8897312357064465  0.2945503713640467  0.5778109184832200
  0.9730645690397798  0.2945503713640467  0.5778109184832200
  0.0563979023731133  0.3778837046973800  0.5778109184832200
  0.1397312357064467  0.3778837046973800  0.5778109184832200
  0.2230645690397800  0.3778837046973800  0.5778109184832200
  0.3063979023731133  0.3778837046973800  0.5778109184832200
  0.3897312357064466  0.3778837046973800  0.5778109184832200
  0.4730645690397799  0.3778837046973800  0.5778109184832200
  0.5563979023731132  0.3778837046973800  0.5778109184832200
  0.6397312357064466  0.3778837046973800  0.5778109184832200
  0.7230645690397799  0.3778837046973800  0.5778109184832200
  0.8063979023731132  0.3778837046973800  0.5778109184832200
  0.8897312357064465  0.3778837046973800  0.5778109184832200
  0.9730645690397798  0.3778837046973800  0.5778109184832200
  0.0563979023731134  0.4612170380307133  0.5778109184832200
  0.1397312357064467  0.4612170380307133  0.5778109184832200
  0.2230645690397801  0.4612170380307133  0.5778109184832200
  0.3063979023731134  0.4612170380307133  0.5778109184832200
  0.3897312357064466  0.4612170380307133  0.5778109184832200
  0.4730645690397799  0.4612170380307133  0.5778109184832200
  0.5563979023731133  0.4612170380307133  0.5778109184832200
  0.6397312357064466  0.4612170380307133  0.5778109184832200
  0.7230645690397799  0.4612170380307133  0.5778109184832200
  0.8063979023731132  0.4612170380307133  0.5778109184832200
  0.8897312357064464  0.4612170380307133  0.5778109184832200
  0.9730645690397799  0.4612170380307133  0.5778109184832200
  0.0563979023731134  0.5445503713640466  0.5778109184832200
  0.1397312357064467  0.5445503713640466  0.5778109184832200
  0.2230645690397800  0.5445503713640466  0.5778109184832200
  0.3063979023731133  0.5445503713640466  0.5778109184832200
  0.3897312357064466  0.5445503713640466  0.5778109184832200
  0.4730645690397799  0.5445503713640466  0.5778109184832200
  0.5563979023731133  0.5445503713640466  0.5778109184832200
  0.6397312357064465  0.5445503713640466  0.5778109184832200
  0.7230645690397798  0.5445503713640466  0.5778109184832200
  0.8063979023731132  0.5445503713640466  0.5778109184832200
  0.8897312357064464  0.5445503713640466  0.5778109184832200
  0.9730645690397797  0.5445503713640466  0.5778109184832200
  0.0563979023731134  0.6278837046973800  0.5778109184832200
  0.1397312357064467  0.6278837046973800  0.5778109184832200
  0.2230645690397800  0.6278837046973800  0.5778109184832200
  0.3063979023731134  0.6278837046973800  0.5778109184832200
  0.3897312357064466  0.6278837046973800  0.5778109184832200
  0.4730645690397800  0.6278837046973800  0.5778109184832200
  0.5563979023731133  0.6278837046973800  0.5778109184832200
  0.6397312357064465  0.6278837046973800  0.5778109184832200
  0.7230645690397798  0.6278837046973800  0.5778109184832200
  0.8063979023731133  0.6278837046973800  0.5778109184832200
  0.8897312357064465  0.6278837046973800  0.5778109184832200
  0.9730645690397798  0.6278837046973800  0.5778109184832200
  0.0563979023731133  0.7112170380307133  0.5778109184832200
  0.1397312357064467  0.7112170380307133  0.5778109184832200
  0.2230645690397800  0.7112170380307133  0.5778109184832200
  0.3063979023731133  0.7112170380307133  0.5778109184832200
  0.3897312357064466  0.7112170380307133  0.5778109184832200
  0.4730645690397799  0.7112170380307133  0.5778109184832200
  0.5563979023731132  0.7112170380307133  0.5778109184832200
  0.6397312357064466  0.7112170380307133  0.5778109184832200
  0.7230645690397798  0.7112170380307133  0.5778109184832200
  0.8063979023731133  0.7112170380307133  0.5778109184832200
  0.8897312357064465  0.7112170380307133  0.5778109184832200
  0.9730645690397798  0.7112170380307133  0.5778109184832200
  0.0563979023731133  0.7945503713640467  0.5778109184832200
  0.1397312357064467  0.7945503713640467  0.5778109184832200
  0.2230645690397800  0.7945503713640467  0.5778109184832200
  0.3063979023731134  0.7945503713640467  0.5778109184832200
  0.3897312357064466  0.7945503713640467  0.5778109184832200
  0.4730645690397799  0.7945503713640467  0.5778109184832200
  0.5563979023731132  0.7945503713640467  0.5778109184832200
  0.6397312357064466  0.7945503713640467  0.5778109184832200
  0.7230645690397799  0.7945503713640467  0.5778109184832200
  0.8063979023731134  0.7945503713640467  0.5778109184832200
  0.8897312357064466  0.7945503713640467  0.5778109184832200
  0.9730645690397799  0.7945503713640467  0.5778109184832200
  0.0563979023731134  0.8778837046973800  0.5778109184832200
  0.1397312357064467  0.8778837046973800  0.5778109184832200
  0.2230645690397800  0.8778837046973800  0.5778109184832200
  0.3063979023731133  0.8778837046973800  0.5778109184832200
  0.3897312357064466  0.8778837046973800  0.5778109184832200
  0.4730645690397798  0.8778837046973800  0.5778109184832200
  0.5563979023731133  0.8778837046973800  0.5778109184832200
  0.6397312357064467  0.8778837046973800  0.5778109184832200
  0.7230645690397798  0.8778837046973800  0.5778109184832200
  0.8063979023731133  0.8778837046973800  0.5778109184832200
  0.8897312357064465  0.8778837046973800  0.5778109184832200
  0.9730645690397800  0.8778837046973800  0.5778109184832200
  0.0563979023731134  0.9612170380307133  0.5778109184832200
  0.1397312357064467  0.9612170380307133  0.5778109184832200
  0.2230645690397800  0.9612170380307133  0.5778109184832200
  0.3063979023731134  0.9612170380307133  0.5778109184832200
  0.3897312357064467  0.9612170380307133  0.5778109184832200
  0.4730645690397800  0.9612170380307133  0.5778109184832200
  0.5563979023731133  0.9612170380307133  0.5778109184832200
  0.6397312357064465  0.9612170380307133  0.5778109184832200
  0.7230645690397800  0.9612170380307133  0.5778109184832200
  0.8063979023731133  0.9612170380307133  0.5778109184832200
  0.8897312357064465  0.9612170380307133  0.5778109184832200
  0.9730645690397798  0.9612170380307133  0.5778109184832200
