ITEM: TIMESTEP
0
ITEM: NUMBER OF ATOMS
4000
ITEM: BOX BOUNDS xy xz yz pp pp pp
0.0000000000000000e+00 1.0359444595453400e+02 3.4531950632359397e+01
0.0000000000000000e+00 1.0830998921392560e+02 0.0000000000000000e+00
0.0000000000000000e+00 3.0000000000000000e+01 0.0000000000000000e+00
ITEM: ATOMS id type fx fy fz
1 1 0.383738 0.0487436 0.00223967
2 1 -0.0215374 -0.0116996 0.00947159
3 1 -0.00286397 0.000508527 2.42352e-05
4 1 -3.23541e-10 2.09135e-08 3.13912e-09
5 1 -3.23459e-10 2.09135e-08 3.13914e-09
6 1 -3.23595e-10 2.09135e-08 3.13913e-09
7 1 -3.2358e-10 2.09135e-08 3.13913e-09
8 1 -3.23603e-10 2.09135e-08 3.13913e-09
9 1 -3.23261e-10 2.09135e-08 3.13912e-09
10 1 -3.23337e-10 2.09135e-08 3.13914e-09
11 1 -3.23154e-10 2.09135e-08 3.13915e-09
12 1 -3.23447e-10 2.09135e-08 3.13913e-09
13 1 -3.23278e-10 2.09135e-08 3.13912e-09
14 1 -3.23385e-10 2.09135e-08 3.13915e-09
15 1 -3.23248e-10 2.09135e-08 3.13913e-09
16 1 -3.23362e-10 2.09135e-08 3.13911e-09
17 1 -3.23301e-10 2.09135e-08 3.13913e-09
18 1 -3.2342e-10 2.09135e-08 3.13914e-09
19 1 -0.00271561 -0.000524673 -1.36066e-05
20 1 -0.0203079 0.0112891 -0.00978691
21 1 -0.000152172 -0.000440426 9.13819e-05
22 1 3.02474e-05 5.97293e-05 -2.17387e-06
23 1 -3.23457e-10 2.09135e-08 3.13914e-09
24 1 -3.23477e-10 2.09135e-08 3.13914e-09
25 1 -3.23436e-10 2.09135e-08 3.13914e-09
26 1 -3.2348e-10 2.09135e-08 3.13913e-09
27 1 -3.23462e-10 2.09135e-08 3.13913e-09
28 1 -3.23461e-10 2.09135e-08 3.13914e-09
29 1 -3.23442e-10 2.09135e-08 3.13914e-09
30 1 -3.23286e-10 2.09135e-08 3.13913e-09
31 1 -3.23165e-10 2.09135e-08 3.13917e-09
32 1 -3.2346e-10 2.09135e-08 3.13914e-09
33 1 -3.23316e-10 2.09135e-08 3.13914e-09
34 1 -3.23438e-10 2.09135e-08 3.13915e-09
35 1 -3.23318e-10 2.09135e-08 3.13916e-09
36 1 -3.23418e-10 2.09135e-08 3.13909e-09
37 1 -3.23362e-10 2.09134e-08 3.13913e-09
38 1 -3.23245e-10 2.09135e-08 3.13915e-09
39 1 3.02803e-05 -6.05399e-05 2.75782e-06
40 1 -0.000159597 0.000453434 -8.63879e-05
41 1 -3.23354e-10 2.09135e-08 3.13914e-09
42 1 -3.23479e-10 2.09135e-08 3.13913e-09
43 1 -3.2332e-10 2.09135e-08 3.13914e-09
44 1 -3.23576e-10 2.09134e-08 3.13913e-09
45 1 -3.23535e-10 2.09134e-08 3.13913e-09
46 1 -3.2345e-10 2.09134e-08 3.13913e-09
47 1 -3.23441e-10 2.09135e-08 3.13914e-09
48 1 -3.2341e-10 2.09135e-08 3.13915e-09
49 1 -3.23378e-10 2.09135e-08 3.13913e-09
50 1 -3.23463e-10 2.09135e-08 3.13912e-09
51 1 -3.23468e-10 2.09135e-08 3.13916e-09
52 1 -3.23228e-10 2.09135e-08 3.13911e-09
53 1 -3.23512e-10 2.09134e-08 3.13913e-09
54 1 -3.23174e-10 2.09135e-08 3.13913e-09
55 1 -3.23483e-10 2.09135e-08 3.13916e-09
56 1 -3.23161e-10 2.09135e-08 3.13911e-09
57 1 -3.23645e-10 2.09134e-08 3.13911e-09
58 1 -3.23574e-10 2.09135e-08 3.13912e-09
59 1 -3.23607e-10 2.09135e-08 3.13914e-09
60 1 -3.234e-10 2.09134e-08 3.13917e-09
61 1 -3.23379e-10 2.09136e-08 3.13917e-09
62 1 -3.23448e-10 2.09136e-08 3.13915e-09
63 1 -3.23416e-10 2.09136e-08 3.13913e-09
64 1 -3.2347e-10 2.09136e-08 3.13914e-09
65 1 -3.23412e-10 2.09136e-08 3.13916e-09
66 1 -3.23359e-10 2.09136e-08 3.13914e-09
67 1 -3.23368e-10 2.09136e-08 3.13916e-09
68 1 -3.23502e-10 2.09136e-08 3.13916e-09
69 1 -3.23364e-10 2.09136e-08 3.13915e-09
70 1 -3.23588e-10 2.09136e-08 3.13915e-09
71 1 -3.23446e-10 2.09136e-08 3.13917e-09
72 1 -3.23666e-10 2.09136e-08 3.13913e-09
73 1 -3.23642e-10 2.09135e-08 3.13912e-09
74 1 -3.23163e-10 2.09136e-08 3.13917e-09
75 1 -3.23587e-10 2.09135e-08 3.13914e-09
76 1 -3.23157e-10 2.09136e-08 3.13915e-09
77 1 -3.23593e-10 2.09135e-08 3.13913e-09
78 1 -3.2347e-10 2.09136e-08 3.13915e-09
79 1 -3.23452e-10 2.09136e-08 3.13915e-09
80 1 -3.23284e-10 2.09135e-08 3.13918e-09
81 1 -3.23435e-10 2.09135e-08 3.13913e-09
82 1 -3.23456e-10 2.09135e-08 3.13912e-09
83 1 -3.23432e-10 2.09135e-08 3.13913e-09
84 1 -3.23455e-10 2.09135e-08 3.13913e-09
85 1 -3.23583e-10 2.09135e-08 3.13913e-09
86 1 -3.23562e-10 2.09135e-08 3.13912e-09
87 1 -3.23552e-10 2.09135e-08 3.13913e-09
88 1 -3.23523e-10 2.09135e-08 3.13915e-09
89 1 -3.23352e-10 2.09135e-08 3.13913e-09
90 1 -3.23702e-10 2.09135e-08 3.13907e-09
91 1 -3.23443e-10 2.09134e-08 3.13917e-09
92 1 -3.23759e-10 2.09135e-08 3.1391e-09
93 1 -3.23584e-10 2.09134e-08 3.13914e-09
94 1 -3.23707e-10 2.09135e-08 3.13912e-09
95 1 -3.23548e-10 2.09134e-08 3.13915e-09
96 1 -3.23683e-10 2.09135e-08 3.13909e-09
97 1 -3.23427e-10 2.09134e-08 3.13919e-09
98 1 -3.23569e-10 2.09135e-08 3.13908e-09
99 1 -3.23629e-10 2.09135e-08 3.13912e-09
100 1 -3.23088e-10 2.09133e-08 3.13918e-09
101 1 -3.23407e-10 2.09137e-08 3.13914e-09
102 1 -3.23393e-10 2.09138e-08 3.13915e-09
103 1 -3.23394e-10 2.09137e-08 3.13918e-09
104 1 -3.23402e-10 2.09137e-08 3.13915e-09
105 1 -3.23372e-10 2.09138e-08 3.13916e-09
106 1 -3.23394e-10 2.09137e-08 3.13916e-09
107 1 -3.23402e-10 2.09137e-08 3.13915e-09
108 1 -3.23507e-10 2.09138e-08 3.13918e-09
109 1 -3.23345e-10 2.09138e-08 3.13915e-09
110 1 -3.2363e-10 2.09138e-08 3.1391e-09
111 1 -3.23361e-10 2.09137e-08 3.13923e-09
112 1 -3.23652e-10 2.09138e-08 3.13909e-09
113 1 -3.23483e-10 2.09137e-08 3.13918e-09
114 1 -3.23459e-10 2.09138e-08 3.13917e-09
115 1 -3.2335e-10 2.09138e-08 3.13919e-09
116 1 -3.23434e-10 2.09137e-08 3.13911e-09
117 1 -3.23206e-10 2.09138e-08 3.13915e-09
118 1 -3.23218e-10 2.09138e-08 3.13919e-09
119 1 -3.23469e-10 2.09137e-08 3.13915e-09
120 1 -3.2327e-10 2.09137e-08 3.13919e-09
121 1 -3.23449e-10 2.09135e-08 3.13916e-09
122 1 -3.23525e-10 2.09135e-08 3.13917e-09
123 1 -3.23633e-10 2.09135e-08 3.13916e-09
124 1 -3.23606e-10 2.09135e-08 3.13915e-09
125 1 -3.23606e-10 2.09135e-08 3.13915e-09
126 1 -3.23468e-10 2.09135e-08 3.13914e-09
127 1 -3.23655e-10 2.09135e-08 3.13913e-09
128 1 -3.23372e-10 2.09135e-08 3.13917e-09
129 1 -3.23328e-10 2.09135e-08 3.13916e-09
130 1 -3.23474e-10 2.09135e-08 3.13913e-09
131 1 -3.23277e-10 2.09136e-08 3.13921e-09
132 1 -3.23451e-10 2.09135e-08 3.13912e-09
133 1 -3.23303e-10 2.09135e-08 3.1392e-09
134 1 -3.23436e-10 2.09135e-08 3.13913e-09
135 1 -3.23301e-10 2.09136e-08 3.13921e-09
136 1 -3.23514e-10 2.09134e-08 3.13911e-09
137 1 -3.23457e-10 2.09135e-08 3.13915e-09
138 1 -3.23457e-10 2.09135e-08 3.13917e-09
139 1 -3.23443e-10 2.09135e-08 3.13913e-09
140 1 -3.23295e-10 2.09134e-08 3.13922e-09
141 1 -3.23439e-10 2.09132e-08 3.1391e-09
142 1 -3.23488e-10 2.09132e-08 3.13911e-09
143 1 -3.23587e-10 2.09132e-08 3.1391e-09
144 1 -3.23543e-10 2.09132e-08 3.13909e-09
145 1 -3.23555e-10 2.09132e-08 3.13912e-09
146 1 -3.2348e-10 2.09132e-08 3.1391e-09
147 1 -3.23489e-10 2.09132e-08 3.1391e-09
148 1 -3.23411e-10 2.09133e-08 3.13913e-09
149 1 -3.23574e-10 2.09132e-08 3.13911e-09
150 1 -3.23292e-10 2.09133e-08 3.13912e-09
151 1 -3.23255e-10 2.09132e-08 3.13912e-09
152 1 -3.23228e-10 2.09133e-08 3.13912e-09
153 1 -3.23476e-10 2.09131e-08 3.13906e-09
154 1 -3.23177e-10 2.09133e-08 3.13916e-09
155 1 -3.23435e-10 2.09132e-08 3.13912e-09
156 1 -3.23414e-10 2.09132e-08 3.13907e-09
157 1 -3.23379e-10 2.09132e-08 3.13912e-09
158 1 -3.23387e-10 2.09133e-08 3.1391e-09
159 1 -3.23538e-10 2.09133e-08 3.13909e-09
160 1 -3.23516e-10 2.09132e-08 3.13913e-09
161 1 -3.23477e-10 2.0913e-08 3.13909e-09
162 1 -3.23507e-10 2.0913e-08 3.13911e-09
163 1 -3.23507e-10 2.09131e-08 3.13911e-09
164 1 -3.23574e-10 2.0913e-08 3.1391e-09
165 1 -3.2364e-10 2.0913e-08 3.13911e-09
166 1 -3.23526e-10 2.0913e-08 3.13907e-09
167 1 -3.23495e-10 2.0913e-08 3.13909e-09
168 1 -3.23407e-10 2.09131e-08 3.13911e-09
169 1 -3.23569e-10 2.0913e-08 3.13911e-09
170 1 -3.23417e-10 2.09131e-08 3.13909e-09
171 1 -3.23578e-10 2.09131e-08 3.13914e-09
172 1 -3.23449e-10 2.0913e-08 3.13907e-09
173 1 -3.23408e-10 2.0913e-08 3.13908e-09
174 1 -3.23375e-10 2.09131e-08 3.13912e-09
175 1 -3.23507e-10 2.0913e-08 3.13912e-09
176 1 -3.23571e-10 2.0913e-08 3.13907e-09
177 1 -3.23532e-10 2.0913e-08 3.13909e-09
178 1 -3.23447e-10 2.09131e-08 3.13912e-09
179 1 -3.2346e-10 2.0913e-08 3.13912e-09
180 1 -3.23171e-10 2.09129e-08 3.13915e-09
181 1 -3.23576e-10 2.09133e-08 3.13916e-09
182 1 -3.23764e-10 2.09133e-08 3.13915e-09
183 1 -3.23538e-10 2.09133e-08 3.13914e-09
184 1 -3.23658e-10 2.09133e-08 3.13913e-09
185 1 -3.23749e-10 2.09133e-08 3.13917e-09
186 1 -3.23745e-10 2.09133e-08 3.13912e-09
187 1 -3.23596e-10 2.09133e-08 3.13916e-09
188 1 -3.23641e-10 2.09133e-08 3.13914e-09
189 1 -3.23699e-10 2.09133e-08 3.13913e-09
190 1 -3.23496e-10 2.09133e-08 3.13915e-09
191 1 -3.23444e-10 2.09133e-08 3.13917e-09
192 1 -3.23777e-10 2.09133e-08 3.13914e-09
193 1 -3.23437e-10 2.09133e-08 3.13912e-09
194 1 -3.2366e-10 2.09133e-08 3.13918e-09
195 1 -3.23524e-10 2.09133e-08 3.13913e-09
196 1 -3.23488e-10 2.09133e-08 3.13914e-09
197 1 -3.23446e-10 2.09133e-08 3.13913e-09
198 1 -3.23527e-10 2.09133e-08 3.13914e-09
199 1 -3.23606e-10 2.09133e-08 3.13914e-09
200 1 -3.23266e-10 2.09133e-08 3.13916e-09
201 1 -3.23236e-10 2.09133e-08 3.13912e-09
202 1 -3.23298e-10 2.09133e-08 3.13912e-09
203 1 -3.2319e-10 2.09133e-08 3.1391e-09
204 1 -3.23336e-10 2.09133e-08 3.13913e-09
205 1 -3.23357e-10 2.09133e-08 3.13915e-09
206 1 -3.23159e-10 2.09133e-08 3.1391e-09
207 1 -3.23068e-10 2.09133e-08 3.1391e-09
208 1 -3.23068e-10 2.09133e-08 3.13913e-09
209 1 -3.23009e-10 2.09133e-08 3.13911e-09
210 1 -3.2314e-10 2.09132e-08 3.13906e-09
211 1 -3.23241e-10 2.09134e-08 3.13917e-09
212 1 -3.23121e-10 2.09132e-08 3.13908e-09
213 1 -3.23396e-10 2.09133e-08 3.13917e-09
214 1 -3.23505e-10 2.09133e-08 3.13911e-09
215 1 -3.23198e-10 2.09133e-08 3.13912e-09
216 1 -3.23562e-10 2.09133e-08 3.13909e-09
217 1 -3.23241e-10 2.09132e-08 3.13911e-09
218 1 -3.23441e-10 2.09133e-08 3.13912e-09
219 1 -3.23158e-10 2.09133e-08 3.13913e-09
220 1 -3.23396e-10 2.09132e-08 3.13911e-09
221 1 -3.23592e-10 2.09138e-08 3.13916e-09
222 1 -3.23448e-10 2.09138e-08 3.13915e-09
223 1 -3.23463e-10 2.09138e-08 3.13915e-09
224 1 -3.23572e-10 2.09137e-08 3.13914e-09
225 1 -3.23507e-10 2.09139e-08 3.13918e-09
226 1 -3.23408e-10 2.09138e-08 3.13911e-09
227 1 -3.2356e-10 2.09138e-08 3.13915e-09
228 1 -3.23514e-10 2.09138e-08 3.13915e-09
229 1 -3.23368e-10 2.09139e-08 3.13921e-09
230 1 -3.2365e-10 2.09138e-08 3.13908e-09
231 1 -3.23381e-10 2.09138e-08 3.13922e-09
232 1 -3.2327e-10 2.09138e-08 3.13911e-09
233 1 -3.23627e-10 2.09137e-08 3.13915e-09
234 1 -3.23493e-10 2.09138e-08 3.13916e-09
235 1 -3.23214e-10 2.09138e-08 3.13914e-09
236 1 -3.23472e-10 2.09138e-08 3.13918e-09
237 1 -3.23486e-10 2.09137e-08 3.13907e-09
238 1 -3.23491e-10 2.09138e-08 3.13919e-09
239 1 -3.23104e-10 2.09138e-08 3.1392e-09
240 1 -3.23115e-10 2.09138e-08 3.13918e-09
241 1 -3.23459e-10 2.09136e-08 3.13919e-09
242 1 -3.23467e-10 2.09137e-08 3.13918e-09
243 1 -3.23469e-10 2.09136e-08 3.13915e-09
244 1 -3.23444e-10 2.09136e-08 3.13918e-09
245 1 -3.23523e-10 2.09136e-08 3.13916e-09
246 1 -3.23489e-10 2.09136e-08 3.13917e-09
247 1 -3.23479e-10 2.09136e-08 3.13916e-09
248 1 -3.23494e-10 2.09136e-08 3.13916e-09
249 1 -3.23487e-10 2.09136e-08 3.13917e-09
250 1 -3.23479e-10 2.09136e-08 3.13916e-09
251 1 -3.23417e-10 2.09136e-08 3.13919e-09
252 1 -3.23544e-10 2.09136e-08 3.13916e-09
253 1 -3.23613e-10 2.09136e-08 3.13916e-09
254 1 -3.2324e-10 2.09137e-08 3.1392e-09
255 1 -3.23629e-10 2.09136e-08 3.13915e-09
256 1 -3.23712e-10 2.09136e-08 3.13915e-09
257 1 -3.23299e-10 2.09136e-08 3.13915e-09
258 1 -3.23245e-10 2.09136e-08 3.13918e-09
259 1 -3.23516e-10 2.09136e-08 3.13917e-09
260 1 -3.23254e-10 2.09136e-08 3.13916e-09
261 1 -3.23531e-10 2.09134e-08 3.13912e-09
262 1 -3.23608e-10 2.09134e-08 3.13911e-09
263 1 -3.23454e-10 2.09134e-08 3.13909e-09
264 1 -3.23443e-10 2.09134e-08 3.13911e-09
265 1 -3.2352e-10 2.09133e-08 3.13911e-09
266 1 -3.23476e-10 2.09134e-08 3.13912e-09
267 1 -3.23549e-10 2.09134e-08 3.13911e-09
268 1 -3.2357e-10 2.09134e-08 3.13917e-09
269 1 -3.23535e-10 2.09134e-08 3.13911e-09
270 1 -3.23541e-10 2.09134e-08 3.1391e-09
271 1 -3.23088e-10 2.09134e-08 3.1391e-09
272 1 -3.23626e-10 2.09133e-08 3.13912e-09
273 1 -3.23469e-10 2.09134e-08 3.13913e-09
274 1 -3.23461e-10 2.09133e-08 3.13909e-09
275 1 -3.23355e-10 2.09134e-08 3.13917e-09
276 1 -3.23619e-10 2.09134e-08 3.1391e-09
277 1 -3.23884e-10 2.09133e-08 3.13907e-09
278 1 -3.23607e-10 2.09134e-08 3.13915e-09
279 1 -3.23803e-10 2.09134e-08 3.13921e-09
280 1 -3.23549e-10 2.09134e-08 3.13908e-09
281 1 -3.23626e-10 2.09129e-08 3.13908e-09
282 1 -3.23532e-10 2.09129e-08 3.13913e-09
283 1 -3.23465e-10 2.09129e-08 3.13904e-09
284 1 -3.23592e-10 2.09129e-08 3.1391e-09
285 1 -3.23513e-10 2.09129e-08 3.13909e-09
286 1 -3.23605e-10 2.09129e-08 3.13907e-09
287 1 -3.23498e-10 2.09129e-08 3.1391e-09
288 1 -3.23778e-10 2.09129e-08 3.13908e-09
289 1 -3.23638e-10 2.09129e-08 3.13908e-09
290 1 -3.23576e-10 2.09129e-08 3.13911e-09
291 1 -3.23582e-10 2.09129e-08 3.13906e-09
292 1 -3.23835e-10 2.09128e-08 3.13909e-09
293 1 -3.23351e-10 2.09129e-08 3.1391e-09
294 1 -3.23605e-10 2.09129e-08 3.13908e-09
295 1 -3.23672e-10 2.09129e-08 3.13905e-09
296 1 -3.23398e-10 2.09129e-08 3.13909e-09
297 1 -3.2331e-10 2.09128e-08 3.13908e-09
298 1 -3.23575e-10 2.09129e-08 3.13908e-09
299 1 -3.23579e-10 2.09129e-08 3.13912e-09
300 1 -3.23445e-10 2.0913e-08 3.13905e-09
301 1 -3.23306e-10 2.09133e-08 3.13912e-09
302 1 -3.2304e-10 2.09133e-08 3.13913e-09
303 1 -3.2298e-10 2.09133e-08 3.13914e-09
304 1 -3.22982e-10 2.09133e-08 3.13913e-09
305 1 -3.23118e-10 2.09133e-08 3.13915e-09
306 1 -3.2311e-10 2.09133e-08 3.13913e-09
307 1 -3.23103e-10 2.09133e-08 3.13914e-09
308 1 -3.23103e-10 2.09133e-08 3.13915e-09
309 1 -3.23113e-10 2.09133e-08 3.13914e-09
310 1 -3.22962e-10 2.09133e-08 3.13911e-09
311 1 -3.22951e-10 2.09134e-08 3.13919e-09
312 1 -3.23225e-10 2.09132e-08 3.13911e-09
313 1 -3.23449e-10 2.09133e-08 3.13914e-09
314 1 -3.23163e-10 2.09133e-08 3.13917e-09
315 1 -3.23473e-10 2.09133e-08 3.13915e-09
316 1 -3.23164e-10 2.09133e-08 3.13911e-09
317 1 -3.23419e-10 2.09133e-08 3.13913e-09
318 1 -3.22831e-10 2.09133e-08 3.13917e-09
319 1 -3.23921e-10 2.09133e-08 3.13918e-09
320 1 -3.22849e-10 2.09134e-08 3.13912e-09
321 1 -3.23574e-10 2.09135e-08 3.13921e-09
322 1 -3.23623e-10 2.09135e-08 3.13916e-09
323 1 -3.23574e-10 2.09135e-08 3.13913e-09
324 1 -3.23385e-10 2.09135e-08 3.13917e-09
325 1 -3.23652e-10 2.09135e-08 3.1391e-09
326 1 -3.23517e-10 2.09135e-08 3.13917e-09
327 1 -3.23801e-10 2.09135e-08 3.13915e-09
328 1 -3.23542e-10 2.09136e-08 3.13921e-09
329 1 -3.23591e-10 2.09135e-08 3.13916e-09
330 1 -3.23643e-10 2.09135e-08 3.13912e-09
331 1 -3.23518e-10 2.09135e-08 3.13921e-09
332 1 -3.23328e-10 2.09135e-08 3.13913e-09
333 1 -3.23323e-10 2.09136e-08 3.13919e-09
334 1 -3.23307e-10 2.09135e-08 3.1391e-09
335 1 -3.23024e-10 2.09136e-08 3.13922e-09
336 1 -3.23284e-10 2.09134e-08 3.13914e-09
337 1 -3.23507e-10 2.09135e-08 3.13914e-09
338 1 -3.23181e-10 2.09135e-08 3.13916e-09
339 1 -3.23519e-10 2.09136e-08 3.13924e-09
340 1 -3.23262e-10 2.09135e-08 3.13915e-09
341 1 -3.23526e-10 2.0913e-08 3.13904e-09
342 1 -3.23476e-10 2.09131e-08 3.13907e-09
343 1 -3.2347e-10 2.09131e-08 3.13908e-09
344 1 -3.23608e-10 2.09131e-08 3.13907e-09
345 1 -3.23387e-10 2.0913e-08 3.1391e-09
346 1 -3.23613e-10 2.09131e-08 3.13909e-09
347 1 -3.23341e-10 2.0913e-08 3.13903e-09
348 1 -3.2343e-10 2.09131e-08 3.13911e-09
349 1 -3.23485e-10 2.09131e-08 3.13907e-09
350 1 -3.23426e-10 2.0913e-08 3.13903e-09
351 1 -3.23444e-10 2.09131e-08 3.1391e-09
352 1 -3.23451e-10 2.0913e-08 3.13904e-09
353 1 -3.23345e-10 2.0913e-08 3.1391e-09
354 1 -3.23623e-10 2.09131e-08 3.13906e-09
355 1 -3.23409e-10 2.09131e-08 3.13907e-09
356 1 -3.23381e-10 2.0913e-08 3.13904e-09
357 1 -3.2354e-10 2.0913e-08 3.1391e-09
358 1 -3.23556e-10 2.09131e-08 3.13908e-09
359 1 -3.23851e-10 2.09131e-08 3.1391e-09
360 1 -3.23561e-10 2.09131e-08 3.13908e-09
361 1 -3.23658e-10 2.09138e-08 3.13914e-09
362 1 -3.23804e-10 2.09138e-08 3.13913e-09
363 1 -3.23589e-10 2.09138e-08 3.13917e-09
364 1 -3.23707e-10 2.09138e-08 3.13913e-09
365 1 -3.23531e-10 2.09138e-08 3.13915e-09
366 1 -3.23792e-10 2.09137e-08 3.13911e-09
367 1 -3.2349e-10 2.09139e-08 3.1392e-09
368 1 -3.23822e-10 2.09138e-08 3.13915e-09
369 1 -3.23522e-10 2.09138e-08 3.13913e-09
370 1 -3.23491e-10 2.09137e-08 3.1391e-09
371 1 -3.2338e-10 2.09138e-08 3.1392e-09
372 1 -3.23496e-10 2.09138e-08 3.13912e-09
373 1 -3.23705e-10 2.09137e-08 3.13911e-09
374 1 -3.23257e-10 2.09139e-08 3.13919e-09
375 1 -3.23323e-10 2.09138e-08 3.13919e-09
376 1 -3.23312e-10 2.09137e-08 3.1391e-09
377 1 -3.23777e-10 2.09137e-08 3.13913e-09
378 1 -3.23508e-10 2.09138e-08 3.13917e-09
379 1 -3.23544e-10 2.09139e-08 3.13922e-09
380 1 -3.23555e-10 2.09137e-08 3.13913e-09
381 1 -0.00018642 0.00115238 -0.00022439
382 1 -2.91055e-05 -0.00109826 0.000243105
383 1 3.00801e-05 -2.14075e-05 1.4383e-06
384 1 -3.23045e-10 2.09135e-08 3.13912e-09
385 1 -3.23073e-10 2.09135e-08 3.13914e-09
386 1 -3.2291e-10 2.09135e-08 3.13916e-09
387 1 -3.22936e-10 2.09135e-08 3.13915e-09
388 1 -3.22948e-10 2.09135e-08 3.13913e-09
389 1 -3.22908e-10 2.09135e-08 3.13914e-09
390 1 -3.23342e-10 2.09135e-08 3.13909e-09
391 1 -3.23301e-10 2.09135e-08 3.13919e-09
392 1 -3.2309e-10 2.09136e-08 3.13913e-09
393 1 -3.23385e-10 2.09134e-08 3.13917e-09
394 1 -3.23023e-10 2.09135e-08 3.13913e-09
395 1 -3.23276e-10 2.09134e-08 3.13913e-09
396 1 -3.22891e-10 2.09135e-08 3.13918e-09
397 1 -3.23687e-10 2.09135e-08 3.1391e-09
398 1 -3.22922e-10 2.09136e-08 3.13915e-09
399 1 -3.23265e-10 2.09135e-08 3.13913e-09
400 1 4.34224e-06 5.83421e-06 -2.19158e-06
401 1 -0.0231189 -0.0441722 -0.0339525
402 1 -0.0222304 0.0427872 0.0333107
403 1 -0.00201788 0.000476983 -4.8068e-05
404 1 1.20824e-10 -4.40012e-08 -4.4857e-08
405 1 1.20801e-10 -4.40012e-08 -4.4857e-08
406 1 1.20847e-10 -4.40012e-08 -4.4857e-08
407 1 1.20808e-10 -4.40012e-08 -4.4857e-08
408 1 1.20804e-10 -4.40012e-08 -4.4857e-08
409 1 1.20859e-10 -4.40013e-08 -4.4857e-08
410 1 1.20784e-10 -4.40012e-08 -4.4857e-08
411 1 1.20826e-10 -4.40012e-08 -4.4857e-08
412 1 1.20949e-10 -4.40012e-08 -4.4857e-08
413 1 1.20767e-10 -4.40013e-08 -4.4857e-08
414 1 1.20673e-10 -4.40012e-08 -4.4857e-08
415 1 1.20805e-10 -4.40013e-08 -4.4857e-08
416 1 1.20813e-10 -4.40012e-08 -4.4857e-08
417 1 1.2084e-10 -4.40012e-08 -4.4857e-08
418 1 1.20732e-10 -4.40012e-08 -4.4857e-08
419 1 1.20779e-10 -4.40012e-08 -4.4857e-08
420 1 -0.00236605 -0.000525679 0.000236896
421 1 -0.000765541 3.87424e-05 7.90264e-06
422 1 0.00119546 -0.000341889 0.000490716
423 1 -0.00043442 -0.000190948 0.00013035
424 1 1.20808e-10 -4.40012e-08 -4.4857e-08
425 1 1.208e-10 -4.40012e-08 -4.4857e-08
426 1 1.20769e-10 -4.40012e-08 -4.4857e-08
427 1 1.20676e-10 -4.40012e-08 -4.4857e-08
428 1 1.2071e-10 -4.40012e-08 -4.4857e-08
429 1 1.20818e-10 -4.40012e-08 -4.4857e-08
430 1 1.20819e-10 -4.40012e-08 -4.4857e-08
431 1 1.20818e-10 -4.40012e-08 -4.4857e-08
432 1 1.21043e-10 -4.40012e-08 -4.4857e-08
433 1 1.20703e-10 -4.40013e-08 -4.4857e-08
434 1 1.20619e-10 -4.40012e-08 -4.4857e-08
435 1 1.20739e-10 -4.40013e-08 -4.4857e-08
436 1 1.20841e-10 -4.40011e-08 -4.4857e-08
437 1 1.20825e-10 -4.40012e-08 -4.4857e-08
438 1 1.20733e-10 -4.40012e-08 -4.4857e-08
439 1 -0.000513496 0.000224623 -0.000155509
440 1 0.000932518 0.00139553 -0.00110901
441 1 6.76978e-10 2.66507e-07 -8.52753e-09
442 1 1.20796e-10 -4.40012e-08 -4.4857e-08
443 1 1.20775e-10 -4.40012e-08 -4.4857e-08
444 1 1.20897e-10 -4.40012e-08 -4.4857e-08
445 1 1.2087e-10 -4.40012e-08 -4.4857e-08
446 1 1.20805e-10 -4.40012e-08 -4.4857e-08
447 1 1.20696e-10 -4.40012e-08 -4.4857e-08
448 1 1.20704e-10 -4.40012e-08 -4.4857e-08
449 1 1.20813e-10 -4.40012e-08 -4.4857e-08
450 1 1.20803e-10 -4.40012e-08 -4.4857e-08
451 1 1.20811e-10 -4.40012e-08 -4.4857e-08
452 1 1.21027e-10 -4.40013e-08 -4.4857e-08
453 1 1.2065e-10 -4.40012e-08 -4.4857e-08
454 1 1.20595e-10 -4.40012e-08 -4.48571e-08
455 1 1.20696e-10 -4.40012e-08 -4.48569e-08
456 1 1.20799e-10 -4.40012e-08 -4.48571e-08
457 1 1.21007e-10 -4.40011e-08 -4.4857e-08
458 1 1.20805e-10 -4.40012e-08 -4.4857e-08
459 1 1.20809e-10 -4.40012e-08 -4.4857e-08
460 1 -4.35639e-10 -3.61283e-07 -8.32037e-08
461 1 1.20799e-10 -4.40011e-08 -4.4857e-08
462 1 1.2083e-10 -4.40011e-08 -4.4857e-08
463 1 1.20858e-10 -4.40011e-08 -4.4857e-08
464 1 1.20748e-10 -4.40011e-08 -4.4857e-08
465 1 1.20809e-10 -4.40011e-08 -4.4857e-08
466 1 1.20906e-10 -4.40011e-08 -4.4857e-08
467 1 1.20759e-10 -4.40012e-08 -4.4857e-08
468 1 1.20741e-10 -4.40011e-08 -4.4857e-08
469 1 1.20839e-10 -4.40012e-08 -4.4857e-08
470 1 1.20821e-10 -4.40011e-08 -4.4857e-08
471 1 1.20942e-10 -4.40011e-08 -4.4857e-08
472 1 1.20874e-10 -4.40012e-08 -4.4857e-08
473 1 1.2081e-10 -4.40011e-08 -4.48571e-08
474 1 1.20484e-10 -4.40012e-08 -4.48571e-08
475 1 1.20825e-10 -4.40011e-08 -4.4857e-08
476 1 1.20682e-10 -4.40012e-08 -4.4857e-08
477 1 1.20938e-10 -4.4001e-08 -4.4857e-08
478 1 1.20789e-10 -4.40011e-08 -4.4857e-08
479 1 1.2082e-10 -4.40011e-08 -4.4857e-08
480 1 1.20866e-10 -4.40011e-08 -4.48571e-08
481 1 1.20812e-10 -4.40012e-08 -4.48569e-08
482 1 1.20812e-10 -4.40012e-08 -4.4857e-08
483 1 1.20816e-10 -4.40012e-08 -4.4857e-08
484 1 1.2085e-10 -4.40012e-08 -4.4857e-08
485 1 1.20805e-10 -4.40012e-08 -4.4857e-08
486 1 1.2085e-10 -4.40012e-08 -4.4857e-08
487 1 1.20757e-10 -4.40012e-08 -4.4857e-08
488 1 1.20783e-10 -4.40012e-08 -4.4857e-08
489 1 1.20886e-10 -4.40012e-08 -4.4857e-08
490 1 1.20871e-10 -4.40011e-08 -4.4857e-08
491 1 1.20774e-10 -4.40012e-08 -4.4857e-08
492 1 1.20869e-10 -4.40012e-08 -4.4857e-08
493 1 1.20708e-10 -4.40012e-08 -4.4857e-08
494 1 1.20604e-10 -4.40011e-08 -4.4857e-08
495 1 1.2072e-10 -4.40012e-08 -4.4857e-08
496 1 1.20717e-10 -4.40011e-08 -4.4857e-08
497 1 1.20633e-10 -4.40012e-08 -4.4857e-08
498 1 1.20926e-10 -4.40011e-08 -4.4857e-08
499 1 1.20805e-10 -4.40012e-08 -4.4857e-08
500 1 1.20808e-10 -4.40012e-08 -4.4857e-08
501 1 1.20812e-10 -4.40013e-08 -4.4857e-08
502 1 1.20768e-10 -4.40013e-08 -4.4857e-08
503 1 1.20791e-10 -4.40013e-08 -4.4857e-08
504 1 1.20814e-10 -4.40013e-08 -4.4857e-08
505 1 1.2072e-10 -4.40013e-08 -4.4857e-08
506 1 1.2073e-10 -4.40013e-08 -4.4857e-08
507 1 1.20688e-10 -4.40013e-08 -4.4857e-08
508 1 1.20656e-10 -4.40013e-08 -4.4857e-08
509 1 1.20873e-10 -4.40014e-08 -4.4857e-08
510 1 1.20883e-10 -4.40013e-08 -4.4857e-08
511 1 1.2081e-10 -4.40014e-08 -4.4857e-08
512 1 1.2114e-10 -4.40013e-08 -4.4857e-08
513 1 1.20781e-10 -4.40013e-08 -4.4857e-08
514 1 1.20675e-10 -4.40013e-08 -4.4857e-08
515 1 1.20814e-10 -4.40014e-08 -4.4857e-08
516 1 1.211e-10 -4.40013e-08 -4.4857e-08
517 1 1.20761e-10 -4.40013e-08 -4.4857e-08
518 1 1.20773e-10 -4.40013e-08 -4.4857e-08
519 1 1.21054e-10 -4.40013e-08 -4.4857e-08
520 1 1.20872e-10 -4.40013e-08 -4.4857e-08
521 1 1.20984e-10 -4.40011e-08 -4.48571e-08
522 1 1.20901e-10 -4.40011e-08 -4.48571e-08
523 1 1.20953e-10 -4.40011e-08 -4.48571e-08
524 1 1.20948e-10 -4.40011e-08 -4.48571e-08
525 1 1.20949e-10 -4.40011e-08 -4.48571e-08
526 1 1.20935e-10 -4.40011e-08 -4.48571e-08
527 1 1.20712e-10 -4.4001e-08 -4.48571e-08
528 1 1.20806e-10 -4.40011e-08 -4.48571e-08
529 1 1.2093e-10 -4.40011e-08 -4.48571e-08
530 1 1.20924e-10 -4.40011e-08 -4.48571e-08
531 1 1.20786e-10 -4.40011e-08 -4.48571e-08
532 1 1.21057e-10 -4.40011e-08 -4.4857e-08
533 1 1.20675e-10 -4.40011e-08 -4.48571e-08
534 1 1.20885e-10 -4.40011e-08 -4.48571e-08
535 1 1.20677e-10 -4.40011e-08 -4.48571e-08
536 1 1.21164e-10 -4.4001e-08 -4.48571e-08
537 1 1.20853e-10 -4.4001e-08 -4.48571e-08
538 1 1.20869e-10 -4.40011e-08 -4.48571e-08
539 1 1.20842e-10 -4.40011e-08 -4.48571e-08
540 1 1.20684e-10 -4.40011e-08 -4.48571e-08
541 1 1.20843e-10 -4.40013e-08 -4.48569e-08
542 1 1.20794e-10 -4.40013e-08 -4.4857e-08
543 1 1.2083e-10 -4.40013e-08 -4.48569e-08
544 1 1.2085e-10 -4.40013e-08 -4.4857e-08
545 1 1.20779e-10 -4.40013e-08 -4.48569e-08
546 1 1.20824e-10 -4.40013e-08 -4.48569e-08
547 1 1.20708e-10 -4.40013e-08 -4.4857e-08
548 1 1.20704e-10 -4.40013e-08 -4.48569e-08
549 1 1.20903e-10 -4.40013e-08 -4.48569e-08
550 1 1.20902e-10 -4.40013e-08 -4.48569e-08
551 1 1.21002e-10 -4.40013e-08 -4.48569e-08
552 1 1.20881e-10 -4.40013e-08 -4.48569e-08
553 1 1.21031e-10 -4.40013e-08 -4.48569e-08
554 1 1.20536e-10 -4.40013e-08 -4.4857e-08
555 1 1.21066e-10 -4.40013e-08 -4.48569e-08
556 1 1.20987e-10 -4.40013e-08 -4.4857e-08
557 1 1.20807e-10 -4.40013e-08 -4.4857e-08
558 1 1.20849e-10 -4.40013e-08 -4.48569e-08
559 1 1.20829e-10 -4.40013e-08 -4.48569e-08
560 1 1.20808e-10 -4.40013e-08 -4.48569e-08
561 1 1.20781e-10 -4.40011e-08 -4.4857e-08
562 1 1.20623e-10 -4.40011e-08 -4.4857e-08
563 1 1.20658e-10 -4.40011e-08 -4.4857e-08
564 1 1.20804e-10 -4.40011e-08 -4.4857e-08
565 1 1.20795e-10 -4.40011e-08 -4.4857e-08
566 1 1.20822e-10 -4.40011e-08 -4.4857e-08
567 1 1.20669e-10 -4.40011e-08 -4.4857e-08
568 1 1.20696e-10 -4.40011e-08 -4.4857e-08
569 1 1.20898e-10 -4.40011e-08 -4.4857e-08
570 1 1.20917e-10 -4.40011e-08 -4.4857e-08
571 1 1.20755e-10 -4.40011e-08 -4.4857e-08
572 1 1.20979e-10 -4.40011e-08 -4.4857e-08
573 1 1.20738e-10 -4.40011e-08 -4.4857e-08
574 1 1.20567e-10 -4.4001e-08 -4.4857e-08
575 1 1.20847e-10 -4.40011e-08 -4.48569e-08
576 1 1.20962e-10 -4.40011e-08 -4.4857e-08
577 1 1.20753e-10 -4.40011e-08 -4.4857e-08
578 1 1.20567e-10 -4.40011e-08 -4.4857e-08
579 1 1.20831e-10 -4.40011e-08 -4.4857e-08
580 1 1.20776e-10 -4.40011e-08 -4.4857e-08
581 1 1.20795e-10 -4.40011e-08 -4.4857e-08
582 1 1.20852e-10 -4.4001e-08 -4.48571e-08
583 1 1.20882e-10 -4.40011e-08 -4.48571e-08
584 1 1.2096e-10 -4.4001e-08 -4.48571e-08
585 1 1.20826e-10 -4.40011e-08 -4.48571e-08
586 1 1.20905e-10 -4.40011e-08 -4.48571e-08
587 1 1.20673e-10 -4.40011e-08 -4.48571e-08
588 1 1.20903e-10 -4.40011e-08 -4.48571e-08
589 1 1.20922e-10 -4.40011e-08 -4.48571e-08
590 1 1.20928e-10 -4.40011e-08 -4.48571e-08
591 1 1.20953e-10 -4.40011e-08 -4.48571e-08
592 1 1.20937e-10 -4.40011e-08 -4.4857e-08
593 1 1.20842e-10 -4.40011e-08 -4.48571e-08
594 1 1.20599e-10 -4.4001e-08 -4.4857e-08
595 1 1.20879e-10 -4.40011e-08 -4.48571e-08
596 1 1.2093e-10 -4.40011e-08 -4.48571e-08
597 1 1.21065e-10 -4.4001e-08 -4.48571e-08
598 1 1.20867e-10 -4.40011e-08 -4.48571e-08
599 1 1.20815e-10 -4.40011e-08 -4.48571e-08
600 1 1.20801e-10 -4.40011e-08 -4.48571e-08
601 1 1.20606e-10 -4.40011e-08 -4.48571e-08
602 1 1.20538e-10 -4.40011e-08 -4.4857e-08
603 1 1.20556e-10 -4.40011e-08 -4.48571e-08
604 1 1.20513e-10 -4.40011e-08 -4.48571e-08
605 1 1.20678e-10 -4.40011e-08 -4.4857e-08
606 1 1.20734e-10 -4.40011e-08 -4.4857e-08
607 1 1.20557e-10 -4.40011e-08 -4.48571e-08
608 1 1.20744e-10 -4.40011e-08 -4.48571e-08
609 1 1.20751e-10 -4.40011e-08 -4.4857e-08
610 1 1.20767e-10 -4.4001e-08 -4.48571e-08
611 1 1.20493e-10 -4.40011e-08 -4.4857e-08
612 1 1.2102e-10 -4.40011e-08 -4.48571e-08
613 1 1.20367e-10 -4.40011e-08 -4.4857e-08
614 1 1.20698e-10 -4.40011e-08 -4.48571e-08
615 1 1.20754e-10 -4.40012e-08 -4.4857e-08
616 1 1.20752e-10 -4.40011e-08 -4.4857e-08
617 1 1.20886e-10 -4.40011e-08 -4.48571e-08
618 1 1.20678e-10 -4.40011e-08 -4.4857e-08
619 1 1.20692e-10 -4.40011e-08 -4.48571e-08
620 1 1.20898e-10 -4.40011e-08 -4.4857e-08
621 1 1.21008e-10 -4.40011e-08 -4.4857e-08
622 1 1.20982e-10 -4.40011e-08 -4.48571e-08
623 1 1.20992e-10 -4.4001e-08 -4.48571e-08
624 1 1.21074e-10 -4.4001e-08 -4.48571e-08
625 1 1.20863e-10 -4.40011e-08 -4.48571e-08
626 1 1.21176e-10 -4.40011e-08 -4.48571e-08
627 1 1.20705e-10 -4.4001e-08 -4.48571e-08
628 1 1.20732e-10 -4.40011e-08 -4.48571e-08
629 1 1.20746e-10 -4.40011e-08 -4.48571e-08
630 1 1.21287e-10 -4.4001e-08 -4.48571e-08
631 1 1.20818e-10 -4.40011e-08 -4.48571e-08
632 1 1.21172e-10 -4.40011e-08 -4.4857e-08
633 1 1.20782e-10 -4.4001e-08 -4.48571e-08
634 1 1.20714e-10 -4.4001e-08 -4.48571e-08
635 1 1.21009e-10 -4.40011e-08 -4.48571e-08
636 1 1.20763e-10 -4.4001e-08 -4.4857e-08
637 1 1.21104e-10 -4.4001e-08 -4.48571e-08
638 1 1.20447e-10 -4.40011e-08 -4.48571e-08
639 1 1.20629e-10 -4.40011e-08 -4.48571e-08
640 1 1.20786e-10 -4.40011e-08 -4.4857e-08
641 1 1.20591e-10 -4.40013e-08 -4.4857e-08
642 1 1.20583e-10 -4.40013e-08 -4.4857e-08
643 1 1.20744e-10 -4.40012e-08 -4.4857e-08
644 1 1.20691e-10 -4.40012e-08 -4.48571e-08
645 1 1.20865e-10 -4.40012e-08 -4.4857e-08
646 1 1.2072e-10 -4.40013e-08 -4.4857e-08
647 1 1.20715e-10 -4.40012e-08 -4.4857e-08
648 1 1.20705e-10 -4.40012e-08 -4.4857e-08
649 1 1.20676e-10 -4.40013e-08 -4.4857e-08
650 1 1.20627e-10 -4.40013e-08 -4.4857e-08
651 1 1.20884e-10 -4.40012e-08 -4.48571e-08
652 1 1.21079e-10 -4.40013e-08 -4.4857e-08
653 1 1.21016e-10 -4.40012e-08 -4.48571e-08
654 1 1.20697e-10 -4.40013e-08 -4.4857e-08
655 1 1.20874e-10 -4.40012e-08 -4.4857e-08
656 1 1.20874e-10 -4.40013e-08 -4.4857e-08
657 1 1.20985e-10 -4.40012e-08 -4.48571e-08
658 1 1.20766e-10 -4.40013e-08 -4.4857e-08
659 1 1.20686e-10 -4.40012e-08 -4.4857e-08
660 1 1.20698e-10 -4.40013e-08 -4.48571e-08
661 1 1.21049e-10 -4.40013e-08 -4.4857e-08
662 1 1.20969e-10 -4.40011e-08 -4.4857e-08
663 1 1.21034e-10 -4.40011e-08 -4.48571e-08
664 1 1.20963e-10 -4.40011e-08 -4.4857e-08
665 1 1.20967e-10 -4.40011e-08 -4.4857e-08
666 1 1.20777e-10 -4.40011e-08 -4.4857e-08
667 1 1.20796e-10 -4.40012e-08 -4.4857e-08
668 1 1.20713e-10 -4.40012e-08 -4.4857e-08
669 1 1.21193e-10 -4.40011e-08 -4.4857e-08
670 1 1.21174e-10 -4.40011e-08 -4.4857e-08
671 1 1.21081e-10 -4.40012e-08 -4.48571e-08
672 1 1.20824e-10 -4.40011e-08 -4.4857e-08
673 1 1.20746e-10 -4.40011e-08 -4.4857e-08
674 1 1.21027e-10 -4.40011e-08 -4.4857e-08
675 1 1.20849e-10 -4.40011e-08 -4.4857e-08
676 1 1.21119e-10 -4.40011e-08 -4.4857e-08
677 1 1.20966e-10 -4.40011e-08 -4.48571e-08
678 1 1.20531e-10 -4.40012e-08 -4.4857e-08
679 1 1.20694e-10 -4.40011e-08 -4.4857e-08
680 1 1.21074e-10 -4.40012e-08 -4.4857e-08
681 1 1.20938e-10 -4.4001e-08 -4.4857e-08
682 1 1.20771e-10 -4.4001e-08 -4.4857e-08
683 1 1.20989e-10 -4.4001e-08 -4.4857e-08
684 1 1.20741e-10 -4.40009e-08 -4.4857e-08
685 1 1.20784e-10 -4.4001e-08 -4.4857e-08
686 1 1.20899e-10 -4.40009e-08 -4.4857e-08
687 1 1.20714e-10 -4.4001e-08 -4.4857e-08
688 1 1.20799e-10 -4.40009e-08 -4.4857e-08
689 1 1.20798e-10 -4.4001e-08 -4.4857e-08
690 1 1.20775e-10 -4.4001e-08 -4.4857e-08
691 1 1.21111e-10 -4.40009e-08 -4.48571e-08
692 1 1.21057e-10 -4.4001e-08 -4.4857e-08
693 1 1.20825e-10 -4.4001e-08 -4.4857e-08
694 1 1.20851e-10 -4.40009e-08 -4.4857e-08
695 1 1.20866e-10 -4.4001e-08 -4.4857e-08
696 1 1.20634e-10 -4.4001e-08 -4.4857e-08
697 1 1.20924e-10 -4.40009e-08 -4.4857e-08
698 1 1.20713e-10 -4.4001e-08 -4.4857e-08
699 1 1.2067e-10 -4.4001e-08 -4.4857e-08
700 1 1.20878e-10 -4.4001e-08 -4.4857e-08
701 1 1.20614e-10 -4.4001e-08 -4.48571e-08
702 1 1.2077e-10 -4.40011e-08 -4.48571e-08
703 1 1.2073e-10 -4.40011e-08 -4.48571e-08
704 1 1.20721e-10 -4.40011e-08 -4.48571e-08
705 1 1.20765e-10 -4.40011e-08 -4.48571e-08
706 1 1.20797e-10 -4.40011e-08 -4.48571e-08
707 1 1.20679e-10 -4.40011e-08 -4.48571e-08
708 1 1.2068e-10 -4.40011e-08 -4.48571e-08
709 1 1.20796e-10 -4.40011e-08 -4.48571e-08
710 1 1.20789e-10 -4.40011e-08 -4.48571e-08
711 1 1.20575e-10 -4.40011e-08 -4.48571e-08
712 1 1.21045e-10 -4.40011e-08 -4.48571e-08
713 1 1.20597e-10 -4.4001e-08 -4.48571e-08
714 1 1.20694e-10 -4.40011e-08 -4.48571e-08
715 1 1.20895e-10 -4.40011e-08 -4.4857e-08
716 1 1.20839e-10 -4.40011e-08 -4.48571e-08
717 1 1.20769e-10 -4.4001e-08 -4.48571e-08
718 1 1.20789e-10 -4.40012e-08 -4.48571e-08
719 1 1.20728e-10 -4.4001e-08 -4.4857e-08
720 1 1.20624e-10 -4.40012e-08 -4.48572e-08
721 1 1.21138e-10 -4.40011e-08 -4.4857e-08
722 1 1.2125e-10 -4.4001e-08 -4.48571e-08
723 1 1.21297e-10 -4.4001e-08 -4.48571e-08
724 1 1.2108e-10 -4.4001e-08 -4.48571e-08
725 1 1.21265e-10 -4.40009e-08 -4.48571e-08
726 1 1.20871e-10 -4.4001e-08 -4.48571e-08
727 1 1.20847e-10 -4.4001e-08 -4.48571e-08
728 1 1.20701e-10 -4.4001e-08 -4.48571e-08
729 1 1.21227e-10 -4.4001e-08 -4.48571e-08
730 1 1.21216e-10 -4.4001e-08 -4.48571e-08
731 1 1.21199e-10 -4.4001e-08 -4.48571e-08
732 1 1.21326e-10 -4.4001e-08 -4.48571e-08
733 1 1.20771e-10 -4.4001e-08 -4.48571e-08
734 1 1.2134e-10 -4.40009e-08 -4.48571e-08
735 1 1.20924e-10 -4.4001e-08 -4.48571e-08
736 1 1.21383e-10 -4.40009e-08 -4.48571e-08
737 1 1.21011e-10 -4.4001e-08 -4.48571e-08
738 1 1.20814e-10 -4.4001e-08 -4.48571e-08
739 1 1.20871e-10 -4.4001e-08 -4.4857e-08
740 1 1.21495e-10 -4.4001e-08 -4.48571e-08
741 1 1.21084e-10 -4.40012e-08 -4.48569e-08
742 1 1.20706e-10 -4.40011e-08 -4.48569e-08
743 1 1.20707e-10 -4.40012e-08 -4.48569e-08
744 1 1.20686e-10 -4.40011e-08 -4.48569e-08
745 1 1.20853e-10 -4.40011e-08 -4.4857e-08
746 1 1.20947e-10 -4.40012e-08 -4.48568e-08
747 1 1.20856e-10 -4.40012e-08 -4.4857e-08
748 1 1.20417e-10 -4.40012e-08 -4.48569e-08
749 1 1.2084e-10 -4.40012e-08 -4.48569e-08
750 1 1.20966e-10 -4.40011e-08 -4.4857e-08
751 1 1.20874e-10 -4.40011e-08 -4.48569e-08
752 1 1.21036e-10 -4.40012e-08 -4.48569e-08
753 1 1.20541e-10 -4.40011e-08 -4.48569e-08
754 1 1.2093e-10 -4.40011e-08 -4.48569e-08
755 1 1.20882e-10 -4.40012e-08 -4.48569e-08
756 1 1.2091e-10 -4.40011e-08 -4.4857e-08
757 1 1.20812e-10 -4.40011e-08 -4.48569e-08
758 1 1.20765e-10 -4.40012e-08 -4.48569e-08
759 1 1.20611e-10 -4.40011e-08 -4.48569e-08
760 1 1.20846e-10 -4.40012e-08 -4.48569e-08
761 1 1.20597e-10 -4.40011e-08 -4.4857e-08
762 1 1.21063e-10 -4.40012e-08 -4.4857e-08
763 1 1.20896e-10 -4.40012e-08 -4.4857e-08
764 1 1.21019e-10 -4.40012e-08 -4.4857e-08
765 1 1.20906e-10 -4.40012e-08 -4.4857e-08
766 1 1.2096e-10 -4.40012e-08 -4.4857e-08
767 1 1.20513e-10 -4.40013e-08 -4.4857e-08
768 1 1.2095e-10 -4.40012e-08 -4.48569e-08
769 1 1.20925e-10 -4.40013e-08 -4.4857e-08
770 1 1.21027e-10 -4.40012e-08 -4.4857e-08
771 1 1.20848e-10 -4.40012e-08 -4.4857e-08
772 1 1.20984e-10 -4.40013e-08 -4.48569e-08
773 1 1.20676e-10 -4.40012e-08 -4.4857e-08
774 1 1.2046e-10 -4.40012e-08 -4.4857e-08
775 1 1.2092e-10 -4.40013e-08 -4.48569e-08
776 1 1.20956e-10 -4.40013e-08 -4.48569e-08
777 1 1.20651e-10 -4.40011e-08 -4.4857e-08
778 1 1.2043e-10 -4.40013e-08 -4.48569e-08
779 1 1.2064e-10 -4.40012e-08 -4.4857e-08
780 1 1.21223e-10 -4.40013e-08 -4.48569e-08
781 1 4.65218e-06 1.04183e-05 2.58143e-06
782 1 -9.26269e-06 4.97056e-08 -2.13345e-08
783 1 4.61087e-06 -1.04136e-05 -2.64788e-06
784 1 1.20823e-10 -4.40013e-08 -4.48571e-08
785 1 1.20808e-10 -4.40013e-08 -4.48571e-08
786 1 1.20991e-10 -4.40013e-08 -4.48571e-08
787 1 1.2083e-10 -4.40014e-08 -4.4857e-08
788 1 1.20841e-10 -4.40012e-08 -4.48571e-08
789 1 1.20871e-10 -4.40013e-08 -4.4857e-08
790 1 1.20804e-10 -4.40012e-08 -4.48571e-08
791 1 1.208e-10 -4.40013e-08 -4.48571e-08
792 1 1.20952e-10 -4.40014e-08 -4.4857e-08
793 1 1.20815e-10 -4.40013e-08 -4.4857e-08
794 1 1.20792e-10 -4.40013e-08 -4.48571e-08
795 1 1.20858e-10 -4.40012e-08 -4.4857e-08
796 1 1.20595e-10 -4.40013e-08 -4.48571e-08
797 1 1.20904e-10 -4.40012e-08 -4.4857e-08
798 1 1.20412e-10 -4.40014e-08 -4.48571e-08
799 1 1.20935e-10 -4.40013e-08 -4.4857e-08
800 1 1.2099e-10 -4.40013e-08 -4.48571e-08
801 1 1.55985e-10 4.49694e-08 4.55619e-08
802 1 1.56014e-10 4.49694e-08 4.5562e-08
803 1 1.55993e-10 4.49694e-08 4.55619e-08
804 1 1.55987e-10 4.49694e-08 4.55619e-08
805 1 1.55958e-10 4.49693e-08 4.5562e-08
806 1 1.56098e-10 4.49693e-08 4.55619e-08
807 1 1.55996e-10 4.49693e-08 4.5562e-08
808 1 1.56039e-10 4.49694e-08 4.55619e-08
809 1 1.5628e-10 4.49694e-08 4.5562e-08
810 1 1.56099e-10 4.49694e-08 4.5562e-08
811 1 1.56011e-10 4.49693e-08 4.55619e-08
812 1 1.55973e-10 4.49693e-08 4.5562e-08
813 1 1.56076e-10 4.49694e-08 4.55619e-08
814 1 1.55982e-10 4.49693e-08 4.5562e-08
815 1 1.56076e-10 4.49694e-08 4.5562e-08
816 1 1.55964e-10 4.49694e-08 4.5562e-08
817 1 1.56082e-10 4.49693e-08 4.55619e-08
818 1 1.55959e-10 4.49694e-08 4.5562e-08
819 1 1.56013e-10 4.49693e-08 4.55619e-08
820 1 1.56206e-10 4.49692e-08 4.5562e-08
821 1 1.55968e-10 4.49693e-08 4.5562e-08
822 1 1.56036e-10 4.49693e-08 4.5562e-08
823 1 1.55978e-10 4.49693e-08 4.55619e-08
824 1 1.56005e-10 4.49693e-08 4.5562e-08
825 1 1.56035e-10 4.49693e-08 4.55619e-08
826 1 1.56069e-10 4.49693e-08 4.5562e-08
827 1 1.55992e-10 4.49693e-08 4.5562e-08
828 1 1.56042e-10 4.49693e-08 4.5562e-08
829 1 1.56035e-10 4.49694e-08 4.5562e-08
830 1 1.56107e-10 4.49693e-08 4.55619e-08
831 1 1.56162e-10 4.49694e-08 4.55619e-08
832 1 1.5587e-10 4.49693e-08 4.5562e-08
833 1 1.56216e-10 4.49694e-08 4.55619e-08
834 1 1.55869e-10 4.49693e-08 4.5562e-08
835 1 1.56197e-10 4.49694e-08 4.55619e-08
836 1 1.55823e-10 4.49693e-08 4.5562e-08
837 1 1.56366e-10 4.49693e-08 4.5562e-08
838 1 1.56031e-10 4.49693e-08 4.5562e-08
839 1 1.56045e-10 4.49694e-08 4.55619e-08
840 1 1.55997e-10 4.49693e-08 4.5562e-08
841 1 1.55929e-10 4.49694e-08 4.5562e-08
842 1 1.56001e-10 4.49694e-08 4.55619e-08
843 1 1.5599e-10 4.49694e-08 4.5562e-08
844 1 1.56004e-10 4.49694e-08 4.5562e-08
845 1 1.56022e-10 4.49694e-08 4.5562e-08
846 1 1.5602e-10 4.49694e-08 4.5562e-08
847 1 1.55913e-10 4.49694e-08 4.5562e-08
848 1 1.56024e-10 4.49694e-08 4.55619e-08
849 1 1.56136e-10 4.49694e-08 4.5562e-08
850 1 1.5611e-10 4.49694e-08 4.55619e-08
851 1 1.56249e-10 4.49694e-08 4.5562e-08
852 1 1.55937e-10 4.49693e-08 4.55619e-08
853 1 1.56301e-10 4.49694e-08 4.5562e-08
854 1 1.55944e-10 4.49693e-08 4.55619e-08
855 1 1.56224e-10 4.49695e-08 4.55619e-08
856 1 1.55872e-10 4.49693e-08 4.5562e-08
857 1 1.56419e-10 4.49694e-08 4.5562e-08
858 1 1.56053e-10 4.49694e-08 4.55619e-08
859 1 1.56185e-10 4.49693e-08 4.5562e-08
860 1 1.56373e-10 4.49694e-08 4.55619e-08
861 1 1.56019e-10 4.49693e-08 4.5562e-08
862 1 1.5599e-10 4.49693e-08 4.5562e-08
863 1 1.56013e-10 4.49693e-08 4.5562e-08
864 1 1.56033e-10 4.49693e-08 4.5562e-08
865 1 1.56024e-10 4.49693e-08 4.5562e-08
866 1 1.56086e-10 4.49693e-08 4.5562e-08
867 1 1.55945e-10 4.49693e-08 4.5562e-08
868 1 1.56014e-10 4.49693e-08 4.55619e-08
869 1 1.56104e-10 4.49693e-08 4.5562e-08
870 1 1.56118e-10 4.49693e-08 4.5562e-08
871 1 1.5614e-10 4.49693e-08 4.5562e-08
872 1 1.56048e-10 4.49692e-08 4.5562e-08
873 1 1.5617e-10 4.49693e-08 4.5562e-08
874 1 1.56059e-10 4.49692e-08 4.5562e-08
875 1 1.5601e-10 4.49694e-08 4.5562e-08
876 1 1.55993e-10 4.49692e-08 4.5562e-08
877 1 1.56174e-10 4.49693e-08 4.5562e-08
878 1 1.56072e-10 4.49693e-08 4.5562e-08
879 1 1.56144e-10 4.49693e-08 4.5562e-08
880 1 1.56144e-10 4.49693e-08 4.55619e-08
881 1 1.55982e-10 4.49694e-08 4.5562e-08
882 1 1.56023e-10 4.49694e-08 4.5562e-08
883 1 1.56018e-10 4.49694e-08 4.5562e-08
884 1 1.5609e-10 4.49694e-08 4.5562e-08
885 1 1.56159e-10 4.49694e-08 4.5562e-08
886 1 1.5594e-10 4.49694e-08 4.5562e-08
887 1 1.55936e-10 4.49694e-08 4.5562e-08
888 1 1.55966e-10 4.49694e-08 4.55619e-08
889 1 1.56147e-10 4.49694e-08 4.5562e-08
890 1 1.55898e-10 4.49693e-08 4.5562e-08
891 1 1.56135e-10 4.49694e-08 4.5562e-08
892 1 1.55881e-10 4.49693e-08 4.55619e-08
893 1 1.56152e-10 4.49694e-08 4.5562e-08
894 1 1.56003e-10 4.49693e-08 4.5562e-08
895 1 1.5594e-10 4.49694e-08 4.5562e-08
896 1 1.55994e-10 4.49693e-08 4.5562e-08
897 1 1.56031e-10 4.49693e-08 4.5562e-08
898 1 1.5608e-10 4.49694e-08 4.5562e-08
899 1 1.56413e-10 4.49693e-08 4.5562e-08
900 1 1.56255e-10 4.49695e-08 4.55619e-08
901 1 1.55981e-10 4.49694e-08 4.55619e-08
902 1 1.56106e-10 4.49695e-08 4.55619e-08
903 1 1.55938e-10 4.49694e-08 4.55619e-08
904 1 1.55948e-10 4.49695e-08 4.55619e-08
905 1 1.56073e-10 4.49694e-08 4.5562e-08
906 1 1.55922e-10 4.49694e-08 4.55619e-08
907 1 1.56052e-10 4.49694e-08 4.55619e-08
908 1 1.56031e-10 4.49695e-08 4.55619e-08
909 1 1.55882e-10 4.49695e-08 4.55619e-08
910 1 1.5595e-10 4.49695e-08 4.55619e-08
911 1 1.55942e-10 4.49694e-08 4.55619e-08
912 1 1.56052e-10 4.49694e-08 4.55619e-08
913 1 1.56036e-10 4.49695e-08 4.55619e-08
914 1 1.55993e-10 4.49694e-08 4.55619e-08
915 1 1.5577e-10 4.49695e-08 4.5562e-08
916 1 1.56045e-10 4.49694e-08 4.55619e-08
917 1 1.5609e-10 4.49695e-08 4.55619e-08
918 1 1.56126e-10 4.49694e-08 4.55619e-08
919 1 1.56175e-10 4.49695e-08 4.5562e-08
920 1 1.56152e-10 4.49695e-08 4.55619e-08
921 1 1.56043e-10 4.49694e-08 4.55619e-08
922 1 1.55997e-10 4.49694e-08 4.55619e-08
923 1 1.56023e-10 4.49694e-08 4.55619e-08
924 1 1.56053e-10 4.49694e-08 4.55619e-08
925 1 1.56084e-10 4.49694e-08 4.55619e-08
926 1 1.55929e-10 4.49694e-08 4.55619e-08
927 1 1.56088e-10 4.49694e-08 4.55619e-08
928 1 1.56057e-10 4.49694e-08 4.55619e-08
929 1 1.55833e-10 4.49694e-08 4.55619e-08
930 1 1.55978e-10 4.49694e-08 4.55619e-08
931 1 1.55976e-10 4.49694e-08 4.55619e-08
932 1 1.55902e-10 4.49694e-08 4.55619e-08
933 1 1.56009e-10 4.49694e-08 4.55619e-08
934 1 1.55904e-10 4.49694e-08 4.55619e-08
935 1 1.56009e-10 4.49694e-08 4.55619e-08
936 1 1.5607e-10 4.49694e-08 4.55619e-08
937 1 1.56107e-10 4.49694e-08 4.55619e-08
938 1 1.55966e-10 4.49694e-08 4.55619e-08
939 1 1.56242e-10 4.49694e-08 4.55619e-08
940 1 1.56423e-10 4.49694e-08 4.55619e-08
941 1 1.55969e-10 4.49693e-08 4.5562e-08
942 1 1.56025e-10 4.49693e-08 4.5562e-08
943 1 1.56058e-10 4.49694e-08 4.5562e-08
944 1 1.56065e-10 4.49694e-08 4.5562e-08
945 1 1.55885e-10 4.49694e-08 4.5562e-08
946 1 1.56049e-10 4.49693e-08 4.5562e-08
947 1 1.56089e-10 4.49694e-08 4.5562e-08
948 1 1.56021e-10 4.49694e-08 4.5562e-08
949 1 1.56128e-10 4.49693e-08 4.5562e-08
950 1 1.5603e-10 4.49694e-08 4.5562e-08
951 1 1.55969e-10 4.49693e-08 4.5562e-08
952 1 1.55833e-10 4.49693e-08 4.5562e-08
953 1 1.56049e-10 4.49694e-08 4.5562e-08
954 1 1.55834e-10 4.49693e-08 4.5562e-08
955 1 1.55947e-10 4.49694e-08 4.55619e-08
956 1 1.5603e-10 4.49693e-08 4.5562e-08
957 1 1.56049e-10 4.49694e-08 4.5562e-08
958 1 1.5601e-10 4.49694e-08 4.5562e-08
959 1 1.55968e-10 4.49693e-08 4.5562e-08
960 1 1.56252e-10 4.49693e-08 4.55619e-08
961 1 1.55945e-10 4.49692e-08 4.5562e-08
962 1 1.55937e-10 4.49692e-08 4.5562e-08
963 1 1.55936e-10 4.49692e-08 4.5562e-08
964 1 1.55974e-10 4.49692e-08 4.5562e-08
965 1 1.56023e-10 4.49693e-08 4.5562e-08
966 1 1.56061e-10 4.49692e-08 4.5562e-08
967 1 1.55978e-10 4.49692e-08 4.5562e-08
968 1 1.55821e-10 4.49692e-08 4.5562e-08
969 1 1.56059e-10 4.49692e-08 4.5562e-08
970 1 1.56037e-10 4.49692e-08 4.5562e-08
971 1 1.56023e-10 4.49693e-08 4.5562e-08
972 1 1.55848e-10 4.49692e-08 4.5562e-08
973 1 1.56051e-10 4.49693e-08 4.55619e-08
974 1 1.56158e-10 4.49692e-08 4.5562e-08
975 1 1.56063e-10 4.49693e-08 4.5562e-08
976 1 1.55846e-10 4.49692e-08 4.5562e-08
977 1 1.55925e-10 4.49692e-08 4.5562e-08
978 1 1.56075e-10 4.49692e-08 4.55619e-08
979 1 1.55932e-10 4.49692e-08 4.5562e-08
980 1 1.55959e-10 4.49693e-08 4.55619e-08
981 1 1.56078e-10 4.49695e-08 4.55619e-08
982 1 1.56113e-10 4.49695e-08 4.55619e-08
983 1 1.56038e-10 4.49696e-08 4.55619e-08
984 1 1.56059e-10 4.49695e-08 4.55619e-08
985 1 1.55987e-10 4.49696e-08 4.55619e-08
986 1 1.56066e-10 4.49695e-08 4.55619e-08
987 1 1.56095e-10 4.49695e-08 4.55619e-08
988 1 1.56065e-10 4.49696e-08 4.55619e-08
989 1 1.56081e-10 4.49695e-08 4.55619e-08
990 1 1.56179e-10 4.49695e-08 4.55619e-08
991 1 1.56032e-10 4.49696e-08 4.55619e-08
992 1 1.55949e-10 4.49695e-08 4.55619e-08
993 1 1.56038e-10 4.49696e-08 4.55619e-08
994 1 1.55973e-10 4.49695e-08 4.55619e-08
995 1 1.56044e-10 4.49696e-08 4.55619e-08
996 1 1.56073e-10 4.49695e-08 4.55619e-08
997 1 1.56105e-10 4.49696e-08 4.5562e-08
998 1 1.56052e-10 4.49696e-08 4.55619e-08
999 1 1.56361e-10 4.49695e-08 4.55619e-08
1000 1 1.56344e-10 4.49694e-08 4.55619e-08
1001 1 1.56047e-10 4.49694e-08 4.5562e-08
1002 1 1.56035e-10 4.49694e-08 4.5562e-08
1003 1 1.55996e-10 4.49694e-08 4.5562e-08
1004 1 1.56047e-10 4.49694e-08 4.5562e-08
1005 1 1.56089e-10 4.49694e-08 4.5562e-08
1006 1 1.56005e-10 4.49694e-08 4.5562e-08
1007 1 1.559e-10 4.49694e-08 4.5562e-08
1008 1 1.56106e-10 4.49694e-08 4.5562e-08
1009 1 1.55891e-10 4.49694e-08 4.5562e-08
1010 1 1.56091e-10 4.49694e-08 4.5562e-08
1011 1 1.5607e-10 4.49694e-08 4.5562e-08
1012 1 1.55991e-10 4.49694e-08 4.5562e-08
1013 1 1.56105e-10 4.49694e-08 4.5562e-08
1014 1 1.55874e-10 4.49694e-08 4.5562e-08
1015 1 1.55905e-10 4.49694e-08 4.5562e-08
1016 1 1.55906e-10 4.49694e-08 4.5562e-08
1017 1 1.5626e-10 4.49694e-08 4.5562e-08
1018 1 1.55923e-10 4.49694e-08 4.5562e-08
1019 1 1.55806e-10 4.49693e-08 4.5562e-08
1020 1 1.56133e-10 4.49694e-08 4.5562e-08
1021 1 1.55849e-10 4.49693e-08 4.55619e-08
1022 1 1.5581e-10 4.49693e-08 4.5562e-08
1023 1 1.55767e-10 4.49693e-08 4.55619e-08
1024 1 1.55821e-10 4.49693e-08 4.55619e-08
1025 1 1.55916e-10 4.49693e-08 4.55619e-08
1026 1 1.55681e-10 4.49693e-08 4.5562e-08
1027 1 1.55812e-10 4.49693e-08 4.5562e-08
1028 1 1.55863e-10 4.49694e-08 4.55619e-08
1029 1 1.55817e-10 4.49694e-08 4.5562e-08
1030 1 1.55855e-10 4.49692e-08 4.55619e-08
1031 1 1.55879e-10 4.49694e-08 4.5562e-08
1032 1 1.55702e-10 4.49692e-08 4.55619e-08
1033 1 1.56104e-10 4.49693e-08 4.55621e-08
1034 1 1.55675e-10 4.49693e-08 4.55618e-08
1035 1 1.55788e-10 4.49693e-08 4.5562e-08
1036 1 1.55704e-10 4.49692e-08 4.5562e-08
1037 1 1.56057e-10 4.49694e-08 4.5562e-08
1038 1 1.56109e-10 4.49692e-08 4.55619e-08
1039 1 1.56134e-10 4.49694e-08 4.5562e-08
1040 1 1.56153e-10 4.49692e-08 4.55619e-08
1041 1 1.56047e-10 4.49692e-08 4.5562e-08
1042 1 1.56047e-10 4.49693e-08 4.5562e-08
1043 1 1.56001e-10 4.49692e-08 4.5562e-08
1044 1 1.56078e-10 4.49692e-08 4.5562e-08
1045 1 1.56054e-10 4.49693e-08 4.5562e-08
1046 1 1.55966e-10 4.49692e-08 4.5562e-08
1047 1 1.5599e-10 4.49693e-08 4.5562e-08
1048 1 1.55976e-10 4.49692e-08 4.5562e-08
1049 1 1.56083e-10 4.49693e-08 4.5562e-08
1050 1 1.56066e-10 4.49692e-08 4.5562e-08
1051 1 1.56053e-10 4.49692e-08 4.5562e-08
1052 1 1.55897e-10 4.49692e-08 4.5562e-08
1053 1 1.56181e-10 4.49693e-08 4.5562e-08
1054 1 1.55972e-10 4.49692e-08 4.5562e-08
1055 1 1.55768e-10 4.49692e-08 4.5562e-08
1056 1 1.5605e-10 4.49692e-08 4.5562e-08
1057 1 1.56158e-10 4.49693e-08 4.5562e-08
1058 1 1.56096e-10 4.49693e-08 4.55621e-08
1059 1 1.55997e-10 4.49692e-08 4.5562e-08
1060 1 1.56415e-10 4.49692e-08 4.55621e-08
1061 1 1.56086e-10 4.49694e-08 4.5562e-08
1062 1 1.56139e-10 4.49694e-08 4.5562e-08
1063 1 1.56103e-10 4.49694e-08 4.5562e-08
1064 1 1.56021e-10 4.49694e-08 4.5562e-08
1065 1 1.56109e-10 4.49694e-08 4.5562e-08
1066 1 1.56139e-10 4.49694e-08 4.5562e-08
1067 1 1.55907e-10 4.49694e-08 4.5562e-08
1068 1 1.56159e-10 4.49694e-08 4.5562e-08
1069 1 1.56094e-10 4.49694e-08 4.5562e-08
1070 1 1.56e-10 4.49694e-08 4.5562e-08
1071 1 1.55982e-10 4.49694e-08 4.5562e-08
1072 1 1.56071e-10 4.49694e-08 4.5562e-08
1073 1 1.56138e-10 4.49694e-08 4.5562e-08
1074 1 1.55984e-10 4.49694e-08 4.5562e-08
1075 1 1.56006e-10 4.49694e-08 4.5562e-08
1076 1 1.5581e-10 4.49694e-08 4.5562e-08
1077 1 1.56195e-10 4.49694e-08 4.5562e-08
1078 1 1.56157e-10 4.49694e-08 4.55619e-08
1079 1 1.55925e-10 4.49694e-08 4.5562e-08
1080 1 1.56023e-10 4.49693e-08 4.5562e-08
1081 1 1.56096e-10 4.49696e-08 4.55619e-08
1082 1 1.56026e-10 4.49696e-08 4.55619e-08
1083 1 1.5615e-10 4.49696e-08 4.55619e-08
1084 1 1.56203e-10 4.49696e-08 4.55619e-08
1085 1 1.56129e-10 4.49697e-08 4.55618e-08
1086 1 1.55892e-10 4.49696e-08 4.55619e-08
1087 1 1.55963e-10 4.49696e-08 4.55619e-08
1088 1 1.55922e-10 4.49696e-08 4.55619e-08
1089 1 1.55944e-10 4.49696e-08 4.55619e-08
1090 1 1.55989e-10 4.49696e-08 4.55619e-08
1091 1 1.55854e-10 4.49696e-08 4.55619e-08
1092 1 1.55977e-10 4.49696e-08 4.55618e-08
1093 1 1.56192e-10 4.49696e-08 4.55619e-08
1094 1 1.55771e-10 4.49696e-08 4.55619e-08
1095 1 1.56054e-10 4.49696e-08 4.55619e-08
1096 1 1.56118e-10 4.49696e-08 4.55618e-08
1097 1 1.56118e-10 4.49696e-08 4.55619e-08
1098 1 1.55884e-10 4.49696e-08 4.55618e-08
1099 1 1.56099e-10 4.49696e-08 4.55619e-08
1100 1 1.55993e-10 4.49696e-08 4.55619e-08
1101 1 1.55939e-10 4.49695e-08 4.55619e-08
1102 1 1.56074e-10 4.49694e-08 4.55619e-08
1103 1 1.55979e-10 4.49695e-08 4.55619e-08
1104 1 1.55972e-10 4.49695e-08 4.55619e-08
1105 1 1.55857e-10 4.49695e-08 4.55619e-08
1106 1 1.56121e-10 4.49695e-08 4.55619e-08
1107 1 1.55933e-10 4.49695e-08 4.55619e-08
1108 1 1.56013e-10 4.49695e-08 4.55619e-08
1109 1 1.55892e-10 4.49695e-08 4.55619e-08
1110 1 1.559e-10 4.49695e-08 4.55619e-08
1111 1 1.56054e-10 4.49694e-08 4.55619e-08
1112 1 1.55721e-10 4.49695e-08 4.55619e-08
1113 1 1.56131e-10 4.49695e-08 4.55619e-08
1114 1 1.55664e-10 4.49695e-08 4.55619e-08
1115 1 1.56002e-10 4.49695e-08 4.55619e-08
1116 1 1.56036e-10 4.49694e-08 4.55619e-08
1117 1 1.56198e-10 4.49695e-08 4.55619e-08
1118 1 1.55823e-10 4.49695e-08 4.55619e-08
1119 1 1.55926e-10 4.49695e-08 4.55619e-08
1120 1 1.56088e-10 4.49695e-08 4.55619e-08
1121 1 1.55829e-10 4.49692e-08 4.5562e-08
1122 1 1.55993e-10 4.49692e-08 4.5562e-08
1123 1 1.56058e-10 4.49692e-08 4.5562e-08
1124 1 1.55926e-10 4.49692e-08 4.5562e-08
1125 1 1.56036e-10 4.49692e-08 4.5562e-08
1126 1 1.5587e-10 4.49692e-08 4.5562e-08
1127 1 1.55934e-10 4.49692e-08 4.55621e-08
1128 1 1.55828e-10 4.49692e-08 4.55619e-08
1129 1 1.55853e-10 4.49692e-08 4.5562e-08
1130 1 1.55869e-10 4.49692e-08 4.5562e-08
1131 1 1.56136e-10 4.49692e-08 4.5562e-08
1132 1 1.55788e-10 4.49692e-08 4.5562e-08
1133 1 1.55978e-10 4.49692e-08 4.5562e-08
1134 1 1.56067e-10 4.49691e-08 4.5562e-08
1135 1 1.56062e-10 4.49692e-08 4.5562e-08
1136 1 1.55826e-10 4.49692e-08 4.5562e-08
1137 1 1.5597e-10 4.49692e-08 4.5562e-08
1138 1 1.56164e-10 4.49692e-08 4.55619e-08
1139 1 1.56108e-10 4.49692e-08 4.5562e-08
1140 1 1.5615e-10 4.49692e-08 4.5562e-08
1141 1 1.56281e-10 4.49694e-08 4.55619e-08
1142 1 1.562e-10 4.49694e-08 4.55619e-08
1143 1 1.56225e-10 4.49694e-08 4.55619e-08
1144 1 1.56195e-10 4.49694e-08 4.55619e-08
1145 1 1.56302e-10 4.49694e-08 4.55619e-08
1146 1 1.5623e-10 4.49694e-08 4.55619e-08
1147 1 1.56235e-10 4.49694e-08 4.55619e-08
1148 1 1.56227e-10 4.49694e-08 4.55619e-08
1149 1 1.56282e-10 4.49694e-08 4.55619e-08
1150 1 1.56315e-10 4.49694e-08 4.5562e-08
1151 1 1.55949e-10 4.49694e-08 4.55619e-08
1152 1 1.56249e-10 4.49694e-08 4.55619e-08
1153 1 1.55978e-10 4.49695e-08 4.5562e-08
1154 1 1.56217e-10 4.49693e-08 4.55619e-08
1155 1 1.56089e-10 4.49694e-08 4.5562e-08
1156 1 1.56337e-10 4.49694e-08 4.55619e-08
1157 1 1.561e-10 4.49694e-08 4.5562e-08
1158 1 1.56283e-10 4.49694e-08 4.55619e-08
1159 1 1.56111e-10 4.49694e-08 4.55619e-08
1160 1 1.56405e-10 4.49694e-08 4.55619e-08
1161 1 1.56054e-10 4.49698e-08 4.55618e-08
1162 1 1.558e-10 4.49698e-08 4.55618e-08
1163 1 1.55892e-10 4.49697e-08 4.55617e-08
1164 1 1.55947e-10 4.49698e-08 4.55618e-08
1165 1 1.55905e-10 4.49698e-08 4.55617e-08
1166 1 1.56067e-10 4.49698e-08 4.55618e-08
1167 1 1.55898e-10 4.49698e-08 4.55618e-08
1168 1 1.56014e-10 4.49698e-08 4.55617e-08
1169 1 1.55849e-10 4.49698e-08 4.55618e-08
1170 1 1.5618e-10 4.49697e-08 4.55618e-08
1171 1 1.562e-10 4.49698e-08 4.55618e-08
1172 1 1.5585e-10 4.49697e-08 4.55618e-08
1173 1 1.56298e-10 4.49698e-08 4.55618e-08
1174 1 1.56055e-10 4.49698e-08 4.55617e-08
1175 1 1.55798e-10 4.49698e-08 4.55618e-08
1176 1 1.55866e-10 4.49698e-08 4.55618e-08
1177 1 1.56124e-10 4.49698e-08 4.55618e-08
1178 1 1.56194e-10 4.49698e-08 4.55617e-08
1179 1 1.55959e-10 4.49698e-08 4.55618e-08
1180 1 1.56168e-10 4.49697e-08 4.55618e-08
1181 1 1.5608e-10 4.49689e-08 4.55622e-08
1182 1 1.56158e-10 4.49689e-08 4.55622e-08
1183 1 1.56191e-10 4.49689e-08 4.55622e-08
1184 1 1.56235e-10 4.49689e-08 4.55623e-08
1185 1 1.56237e-10 4.49689e-08 4.55622e-08
1186 1 1.56126e-10 4.49689e-08 4.55623e-08
1187 1 1.56198e-10 4.49689e-08 4.55622e-08
1188 1 1.56257e-10 4.49689e-08 4.55622e-08
1189 1 1.56307e-10 4.49688e-08 4.55622e-08
1190 1 1.55981e-10 4.4969e-08 4.55623e-08
1191 1 1.55815e-10 4.49689e-08 4.55622e-08
1192 1 1.55893e-10 4.49689e-08 4.55623e-08
1193 1 1.55836e-10 4.4969e-08 4.55623e-08
1194 1 1.55908e-10 4.49688e-08 4.55621e-08
1195 1 1.55865e-10 4.49689e-08 4.55622e-08
1196 1 1.55899e-10 4.49689e-08 4.55623e-08
1197 1 1.5595e-10 4.4969e-08 4.55623e-08
1198 1 1.56025e-10 4.49688e-08 4.55622e-08
1199 1 1.56091e-10 4.49689e-08 4.55622e-08
1200 1 1.55986e-10 4.4969e-08 4.55622e-08
1201 1 -3.41013e-10 -2.13462e-08 -2.95366e-09
1202 1 -3.41074e-10 -2.13463e-08 -2.95366e-09
1203 1 -3.41082e-10 -2.13462e-08 -2.95366e-09
1204 1 -3.41113e-10 -2.13462e-08 -2.95367e-09
1205 1 -3.4111e-10 -2.13462e-08 -2.95365e-09
1206 1 -3.41114e-10 -2.13462e-08 -2.95368e-09
1207 1 -3.4111e-10 -2.13462e-08 -2.95365e-09
1208 1 -3.41086e-10 -2.13463e-08 -2.95367e-09
1209 1 -3.41239e-10 -2.13463e-08 -2.95369e-09
1210 1 -3.41089e-10 -2.13462e-08 -2.95364e-09
1211 1 -3.40745e-10 -2.13462e-08 -2.95367e-09
1212 1 -3.41046e-10 -2.13462e-08 -2.95366e-09
1213 1 -3.4115e-10 -2.13463e-08 -2.95367e-09
1214 1 -3.41009e-10 -2.13462e-08 -2.95366e-09
1215 1 -3.41133e-10 -2.13463e-08 -2.95367e-09
1216 1 -3.41078e-10 -2.13463e-08 -2.95362e-09
1217 1 -3.40666e-10 -2.13462e-08 -2.95369e-09
1218 1 -3.41099e-10 -2.13462e-08 -2.95364e-09
1219 1 -3.40693e-10 -2.13462e-08 -2.95368e-09
1220 1 -3.41068e-10 -2.13462e-08 -2.95367e-09
1221 1 -3.41055e-10 -2.13463e-08 -2.95366e-09
1222 1 -3.4105e-10 -2.13463e-08 -2.95366e-09
1223 1 -3.41072e-10 -2.13463e-08 -2.95364e-09
1224 1 -3.41079e-10 -2.13463e-08 -2.95364e-09
1225 1 -3.41072e-10 -2.13463e-08 -2.95365e-09
1226 1 -3.41087e-10 -2.13463e-08 -2.95366e-09
1227 1 -3.41198e-10 -2.13463e-08 -2.95364e-09
1228 1 -3.41191e-10 -2.13463e-08 -2.95366e-09
1229 1 -3.41126e-10 -2.13463e-08 -2.95367e-09
1230 1 -3.40912e-10 -2.13463e-08 -2.95367e-09
1231 1 -3.41198e-10 -2.13463e-08 -2.95368e-09
1232 1 -3.41134e-10 -2.13463e-08 -2.95363e-09
1233 1 -3.41256e-10 -2.13464e-08 -2.95368e-09
1234 1 -3.41117e-10 -2.13463e-08 -2.95363e-09
1235 1 -3.41221e-10 -2.13464e-08 -2.95369e-09
1236 1 -3.4113e-10 -2.13463e-08 -2.9536e-09
1237 1 -3.41106e-10 -2.13463e-08 -2.95367e-09
1238 1 -3.41091e-10 -2.13463e-08 -2.9536e-09
1239 1 -3.41075e-10 -2.13463e-08 -2.95368e-09
1240 1 -3.41113e-10 -2.13463e-08 -2.95363e-09
1241 1 -3.40863e-10 -2.13463e-08 -2.95361e-09
1242 1 -3.41125e-10 -2.13463e-08 -2.95366e-09
1243 1 -3.41118e-10 -2.13463e-08 -2.95366e-09
1244 1 -3.41082e-10 -2.13463e-08 -2.95366e-09
1245 1 -3.41095e-10 -2.13463e-08 -2.95366e-09
1246 1 -3.41074e-10 -2.13463e-08 -2.95365e-09
1247 1 -3.41085e-10 -2.13463e-08 -2.95364e-09
1248 1 -3.41074e-10 -2.13463e-08 -2.95367e-09
1249 1 -3.41277e-10 -2.13463e-08 -2.95369e-09
1250 1 -3.41042e-10 -2.13463e-08 -2.95366e-09
1251 1 -3.41189e-10 -2.13463e-08 -2.95367e-09
1252 1 -3.41035e-10 -2.13462e-08 -2.95363e-09
1253 1 -3.41292e-10 -2.13463e-08 -2.9537e-09
1254 1 -3.41022e-10 -2.13462e-08 -2.95363e-09
1255 1 -3.41266e-10 -2.13463e-08 -2.95372e-09
1256 1 -3.41047e-10 -2.13463e-08 -2.9536e-09
1257 1 -3.41137e-10 -2.13463e-08 -2.95369e-09
1258 1 -3.40987e-10 -2.13463e-08 -2.95361e-09
1259 1 -3.4109e-10 -2.13463e-08 -2.95368e-09
1260 1 -3.41012e-10 -2.13463e-08 -2.95368e-09
1261 1 -3.4098e-10 -2.13464e-08 -2.95361e-09
1262 1 -3.41059e-10 -2.13463e-08 -2.95365e-09
1263 1 -3.41065e-10 -2.13463e-08 -2.95365e-09
1264 1 -3.41093e-10 -2.13463e-08 -2.95366e-09
1265 1 -3.41127e-10 -2.13463e-08 -2.95365e-09
1266 1 -3.41108e-10 -2.13463e-08 -2.95368e-09
1267 1 -3.41057e-10 -2.13463e-08 -2.95364e-09
1268 1 -3.4107e-10 -2.13463e-08 -2.95367e-09
1269 1 -3.41198e-10 -2.13463e-08 -2.95367e-09
1270 1 -3.41005e-10 -2.13463e-08 -2.95366e-09
1271 1 -3.41132e-10 -2.13463e-08 -2.95366e-09
1272 1 -3.40985e-10 -2.13463e-08 -2.95365e-09
1273 1 -3.41252e-10 -2.13463e-08 -2.95366e-09
1274 1 -3.40967e-10 -2.13463e-08 -2.95365e-09
1275 1 -3.41204e-10 -2.13463e-08 -2.95367e-09
1276 1 -3.40987e-10 -2.13463e-08 -2.95365e-09
1277 1 -3.41094e-10 -2.13463e-08 -2.95365e-09
1278 1 -3.4111e-10 -2.13463e-08 -2.95363e-09
1279 1 -3.41093e-10 -2.13463e-08 -2.95368e-09
1280 1 -3.41074e-10 -2.13463e-08 -2.95365e-09
1281 1 -3.4085e-10 -2.13462e-08 -2.95362e-09
1282 1 -3.411e-10 -2.13462e-08 -2.95365e-09
1283 1 -3.4112e-10 -2.13462e-08 -2.95365e-09
1284 1 -3.41138e-10 -2.13462e-08 -2.95365e-09
1285 1 -3.41086e-10 -2.13462e-08 -2.95365e-09
1286 1 -3.41101e-10 -2.13462e-08 -2.95362e-09
1287 1 -3.41134e-10 -2.13462e-08 -2.95366e-09
1288 1 -3.41115e-10 -2.13462e-08 -2.95369e-09
1289 1 -3.41075e-10 -2.13462e-08 -2.95367e-09
1290 1 -3.41033e-10 -2.13461e-08 -2.95363e-09
1291 1 -3.41179e-10 -2.13462e-08 -2.95367e-09
1292 1 -3.40985e-10 -2.13461e-08 -2.95364e-09
1293 1 -3.41274e-10 -2.13462e-08 -2.95368e-09
1294 1 -3.40982e-10 -2.13462e-08 -2.95364e-09
1295 1 -3.41261e-10 -2.13462e-08 -2.95365e-09
1296 1 -3.41157e-10 -2.13463e-08 -2.95363e-09
1297 1 -3.4126e-10 -2.13461e-08 -2.95368e-09
1298 1 -3.4103e-10 -2.13462e-08 -2.95363e-09
1299 1 -3.4094e-10 -2.13462e-08 -2.95367e-09
1300 1 -3.40797e-10 -2.13462e-08 -2.95366e-09
1301 1 -3.41166e-10 -2.13463e-08 -2.95369e-09
1302 1 -3.4111e-10 -2.13464e-08 -2.95366e-09
1303 1 -3.41096e-10 -2.13464e-08 -2.95365e-09
1304 1 -3.41061e-10 -2.13464e-08 -2.95367e-09
1305 1 -3.41078e-10 -2.13464e-08 -2.95367e-09
1306 1 -3.41124e-10 -2.13464e-08 -2.95365e-09
1307 1 -3.41135e-10 -2.13464e-08 -2.95368e-09
1308 1 -3.41118e-10 -2.13464e-08 -2.95367e-09
1309 1 -3.41118e-10 -2.13464e-08 -2.95366e-09
1310 1 -3.41138e-10 -2.13464e-08 -2.95368e-09
1311 1 -3.41136e-10 -2.13464e-08 -2.95367e-09
1312 1 -3.41099e-10 -2.13464e-08 -2.95367e-09
1313 1 -3.41336e-10 -2.13464e-08 -2.95366e-09
1314 1 -3.41081e-10 -2.13464e-08 -2.95369e-09
1315 1 -3.41302e-10 -2.13464e-08 -2.95364e-09
1316 1 -3.4111e-10 -2.13464e-08 -2.95365e-09
1317 1 -3.41106e-10 -2.13464e-08 -2.95367e-09
1318 1 -3.40921e-10 -2.13464e-08 -2.95369e-09
1319 1 -3.41127e-10 -2.13464e-08 -2.95365e-09
1320 1 -3.40819e-10 -2.13464e-08 -2.95366e-09
1321 1 -3.40577e-10 -2.13464e-08 -2.95352e-09
1322 1 -3.40996e-10 -2.13462e-08 -2.95362e-09
1323 1 -3.40927e-10 -2.13462e-08 -2.95363e-09
1324 1 -3.41026e-10 -2.13462e-08 -2.95363e-09
1325 1 -3.40997e-10 -2.13463e-08 -2.95362e-09
1326 1 -3.40753e-10 -2.13462e-08 -2.95362e-09
1327 1 -3.41085e-10 -2.13463e-08 -2.95364e-09
1328 1 -3.41108e-10 -2.13462e-08 -2.95364e-09
1329 1 -3.41098e-10 -2.13462e-08 -2.95361e-09
1330 1 -3.41114e-10 -2.13463e-08 -2.95366e-09
1331 1 -3.41183e-10 -2.13463e-08 -2.95363e-09
1332 1 -3.41112e-10 -2.13462e-08 -2.95363e-09
1333 1 -3.41104e-10 -2.13463e-08 -2.95363e-09
1334 1 -3.41105e-10 -2.13462e-08 -2.95364e-09
1335 1 -3.41079e-10 -2.13463e-08 -2.95363e-09
1336 1 -3.41067e-10 -2.13462e-08 -2.95363e-09
1337 1 -3.41015e-10 -2.13462e-08 -2.95363e-09
1338 1 -3.40986e-10 -2.13462e-08 -2.9536e-09
1339 1 -3.40829e-10 -2.13462e-08 -2.95366e-09
1340 1 -3.4076e-10 -2.13463e-08 -2.95363e-09
1341 1 -3.40992e-10 -2.13461e-08 -2.95365e-09
1342 1 -3.41025e-10 -2.13462e-08 -2.95366e-09
1343 1 -3.41129e-10 -2.13462e-08 -2.95366e-09
1344 1 -3.41121e-10 -2.13462e-08 -2.95366e-09
1345 1 -3.40982e-10 -2.13462e-08 -2.95365e-09
1346 1 -3.40972e-10 -2.13462e-08 -2.95366e-09
1347 1 -3.41101e-10 -2.13462e-08 -2.95366e-09
1348 1 -3.41098e-10 -2.13462e-08 -2.95367e-09
1349 1 -3.4108e-10 -2.13462e-08 -2.95368e-09
1350 1 -3.41045e-10 -2.13462e-08 -2.95366e-09
1351 1 -3.41034e-10 -2.13462e-08 -2.95366e-09
1352 1 -3.40986e-10 -2.13461e-08 -2.95364e-09
1353 1 -3.4097e-10 -2.13462e-08 -2.95368e-09
1354 1 -3.41017e-10 -2.13462e-08 -2.95364e-09
1355 1 -3.40983e-10 -2.13462e-08 -2.95368e-09
1356 1 -3.40911e-10 -2.13462e-08 -2.95369e-09
1357 1 -3.40878e-10 -2.13462e-08 -2.95366e-09
1358 1 -3.40967e-10 -2.13462e-08 -2.95364e-09
1359 1 -3.40583e-10 -2.13461e-08 -2.95365e-09
1360 1 -3.40671e-10 -2.13462e-08 -2.95369e-09
1361 1 -3.41191e-10 -2.13461e-08 -2.95368e-09
1362 1 -3.41121e-10 -2.13462e-08 -2.95363e-09
1363 1 -3.41072e-10 -2.13462e-08 -2.95365e-09
1364 1 -3.41006e-10 -2.13462e-08 -2.95363e-09
1365 1 -3.41049e-10 -2.13462e-08 -2.95361e-09
1366 1 -3.40913e-10 -2.13462e-08 -2.95364e-09
1367 1 -3.41106e-10 -2.13462e-08 -2.95363e-09
1368 1 -3.41131e-10 -2.13462e-08 -2.95361e-09
1369 1 -3.41103e-10 -2.13462e-08 -2.95367e-09
1370 1 -3.41071e-10 -2.13462e-08 -2.95364e-09
1371 1 -3.41303e-10 -2.13462e-08 -2.95363e-09
1372 1 -3.41066e-10 -2.13461e-08 -2.95364e-09
1373 1 -3.41208e-10 -2.13463e-08 -2.95364e-09
1374 1 -3.41081e-10 -2.13462e-08 -2.95367e-09
1375 1 -3.41141e-10 -2.13462e-08 -2.95362e-09
1376 1 -3.41015e-10 -2.13462e-08 -2.95361e-09
1377 1 -3.40993e-10 -2.13462e-08 -2.95363e-09
1378 1 -3.40946e-10 -2.13462e-08 -2.95368e-09
1379 1 -3.40846e-10 -2.13462e-08 -2.95361e-09
1380 1 -3.40822e-10 -2.13462e-08 -2.95362e-09
1381 1 -3.41131e-10 -2.13462e-08 -2.95367e-09
1382 1 -3.41087e-10 -2.13463e-08 -2.95367e-09
1383 1 -3.41079e-10 -2.13463e-08 -2.95367e-09
1384 1 -3.41072e-10 -2.13463e-08 -2.95368e-09
1385 1 -3.41018e-10 -2.13462e-08 -2.95366e-09
1386 1 -3.4095e-10 -2.13463e-08 -2.95368e-09
1387 1 -3.4115e-10 -2.13463e-08 -2.95369e-09
1388 1 -3.41144e-10 -2.13463e-08 -2.95367e-09
1389 1 -3.41019e-10 -2.13463e-08 -2.95369e-09
1390 1 -3.41115e-10 -2.13463e-08 -2.95371e-09
1391 1 -3.41254e-10 -2.13463e-08 -2.95368e-09
1392 1 -3.41112e-10 -2.13462e-08 -2.9537e-09
1393 1 -3.41244e-10 -2.13463e-08 -2.95367e-09
1394 1 -3.41086e-10 -2.13462e-08 -2.95369e-09
1395 1 -3.41195e-10 -2.13463e-08 -2.95367e-09
1396 1 -3.40913e-10 -2.13463e-08 -2.9537e-09
1397 1 -3.41193e-10 -2.13463e-08 -2.95366e-09
1398 1 -3.41017e-10 -2.13463e-08 -2.95367e-09
1399 1 -3.40609e-10 -2.13463e-08 -2.95372e-09
1400 1 -3.4076e-10 -2.13462e-08 -2.95365e-09
1401 1 -3.40997e-10 -2.13465e-08 -2.95368e-09
1402 1 -3.41079e-10 -2.13465e-08 -2.95368e-09
1403 1 -3.4107e-10 -2.13465e-08 -2.95367e-09
1404 1 -3.4101e-10 -2.13464e-08 -2.95369e-09
1405 1 -3.41026e-10 -2.13464e-08 -2.95367e-09
1406 1 -3.41005e-10 -2.13464e-08 -2.95366e-09
1407 1 -3.40983e-10 -2.13464e-08 -2.95366e-09
1408 1 -3.41122e-10 -2.13465e-08 -2.9537e-09
1409 1 -3.41105e-10 -2.13464e-08 -2.95366e-09
1410 1 -3.4122e-10 -2.13465e-08 -2.95371e-09
1411 1 -3.41095e-10 -2.13465e-08 -2.95367e-09
1412 1 -3.41046e-10 -2.13464e-08 -2.9537e-09
1413 1 -3.41178e-10 -2.13465e-08 -2.95367e-09
1414 1 -3.41112e-10 -2.13464e-08 -2.95367e-09
1415 1 -3.4123e-10 -2.13464e-08 -2.95368e-09
1416 1 -3.41221e-10 -2.13464e-08 -2.95368e-09
1417 1 -3.41143e-10 -2.13465e-08 -2.9537e-09
1418 1 -3.41149e-10 -2.13465e-08 -2.95364e-09
1419 1 -3.4084e-10 -2.13464e-08 -2.95366e-09
1420 1 -3.41021e-10 -2.13465e-08 -2.95369e-09
1421 1 -3.4107e-10 -2.13462e-08 -2.95368e-09
1422 1 -3.4084e-10 -2.13463e-08 -2.95362e-09
1423 1 -3.40825e-10 -2.13464e-08 -2.95364e-09
1424 1 -3.40812e-10 -2.13463e-08 -2.95365e-09
1425 1 -3.41088e-10 -2.13463e-08 -2.95366e-09
1426 1 -3.41123e-10 -2.13463e-08 -2.95363e-09
1427 1 -3.41161e-10 -2.13463e-08 -2.95362e-09
1428 1 -3.41169e-10 -2.13463e-08 -2.95366e-09
1429 1 -3.41187e-10 -2.13464e-08 -2.95366e-09
1430 1 -3.40566e-10 -2.13463e-08 -2.95366e-09
1431 1 -3.41358e-10 -2.13463e-08 -2.95365e-09
1432 1 -3.40702e-10 -2.13463e-08 -2.95364e-09
1433 1 -3.41391e-10 -2.13464e-08 -2.95363e-09
1434 1 -3.40634e-10 -2.13463e-08 -2.95361e-09
1435 1 -3.41216e-10 -2.13464e-08 -2.95367e-09
1436 1 -3.40811e-10 -2.13463e-08 -2.95358e-09
1437 1 -3.41065e-10 -2.13464e-08 -2.95368e-09
1438 1 -3.40679e-10 -2.13463e-08 -2.95363e-09
1439 1 -3.41076e-10 -2.13463e-08 -2.95367e-09
1440 1 -3.40421e-10 -2.13464e-08 -2.95365e-09
1441 1 -3.40858e-10 -2.13461e-08 -2.95359e-09
1442 1 -3.41184e-10 -2.1346e-08 -2.95364e-09
1443 1 -3.41012e-10 -2.13459e-08 -2.95364e-09
1444 1 -3.40941e-10 -2.13459e-08 -2.95365e-09
1445 1 -3.41085e-10 -2.1346e-08 -2.95363e-09
1446 1 -3.40979e-10 -2.13459e-08 -2.95363e-09
1447 1 -3.40952e-10 -2.13459e-08 -2.95364e-09
1448 1 -3.40953e-10 -2.13459e-08 -2.95365e-09
1449 1 -3.41242e-10 -2.1346e-08 -2.95366e-09
1450 1 -3.40958e-10 -2.13459e-08 -2.95364e-09
1451 1 -3.41234e-10 -2.13459e-08 -2.95366e-09
1452 1 -3.4113e-10 -2.13459e-08 -2.95363e-09
1453 1 -3.41137e-10 -2.1346e-08 -2.95366e-09
1454 1 -3.41134e-10 -2.13459e-08 -2.95364e-09
1455 1 -3.41046e-10 -2.13459e-08 -2.95362e-09
1456 1 -3.41094e-10 -2.1346e-08 -2.95365e-09
1457 1 -3.41352e-10 -2.13459e-08 -2.95366e-09
1458 1 -3.41354e-10 -2.1346e-08 -2.95363e-09
1459 1 -3.41051e-10 -2.13459e-08 -2.95362e-09
1460 1 -3.41215e-10 -2.1346e-08 -2.95367e-09
1461 1 -3.40954e-10 -2.13464e-08 -2.95366e-09
1462 1 -3.41105e-10 -2.13462e-08 -2.95368e-09
1463 1 -3.41124e-10 -2.13462e-08 -2.95366e-09
1464 1 -3.40982e-10 -2.13462e-08 -2.95367e-09
1465 1 -3.41135e-10 -2.13463e-08 -2.95369e-09
1466 1 -3.40987e-10 -2.13463e-08 -2.95368e-09
1467 1 -3.41108e-10 -2.13462e-08 -2.95366e-09
1468 1 -3.41232e-10 -2.13463e-08 -2.95371e-09
1469 1 -3.41244e-10 -2.13463e-08 -2.95368e-09
1470 1 -3.41249e-10 -2.13463e-08 -2.95369e-09
1471 1 -3.41407e-10 -2.13463e-08 -2.95365e-09
1472 1 -3.41313e-10 -2.13462e-08 -2.95371e-09
1473 1 -3.41173e-10 -2.13463e-08 -2.95365e-09
1474 1 -3.41054e-10 -2.13462e-08 -2.9537e-09
1475 1 -3.41232e-10 -2.13463e-08 -2.95366e-09
1476 1 -3.41094e-10 -2.13463e-08 -2.95363e-09
1477 1 -3.41067e-10 -2.13463e-08 -2.9537e-09
1478 1 -3.41068e-10 -2.13463e-08 -2.95367e-09
1479 1 -3.41322e-10 -2.13462e-08 -2.95368e-09
1480 1 -3.40963e-10 -2.13463e-08 -2.95367e-09
1481 1 -3.41101e-10 -2.13473e-08 -2.95366e-09
1482 1 -3.41279e-10 -2.13471e-08 -2.9537e-09
1483 1 -3.41255e-10 -2.13472e-08 -2.95372e-09
1484 1 -3.41336e-10 -2.13471e-08 -2.9537e-09
1485 1 -3.41105e-10 -2.13472e-08 -2.95369e-09
1486 1 -3.41234e-10 -2.13472e-08 -2.9537e-09
1487 1 -3.41234e-10 -2.13471e-08 -2.95374e-09
1488 1 -3.41088e-10 -2.13472e-08 -2.95368e-09
1489 1 -3.4155e-10 -2.13471e-08 -2.95372e-09
1490 1 -3.41402e-10 -2.13471e-08 -2.95374e-09
1491 1 -3.41238e-10 -2.13471e-08 -2.95366e-09
1492 1 -3.41068e-10 -2.13471e-08 -2.95373e-09
1493 1 -3.4125e-10 -2.13472e-08 -2.95372e-09
1494 1 -3.40947e-10 -2.13471e-08 -2.95368e-09
1495 1 -3.41203e-10 -2.13472e-08 -2.95371e-09
1496 1 -3.41008e-10 -2.13471e-08 -2.9537e-09
1497 1 -3.41262e-10 -2.13472e-08 -2.95371e-09
1498 1 -3.41061e-10 -2.13472e-08 -2.95367e-09
1499 1 -3.41259e-10 -2.13471e-08 -2.95377e-09
1500 1 -3.41197e-10 -2.13472e-08 -2.95369e-09
1501 1 -3.40589e-10 -2.13461e-08 -2.95361e-09
1502 1 -3.40787e-10 -2.1346e-08 -2.95364e-09
1503 1 -3.40967e-10 -2.1346e-08 -2.95362e-09
1504 1 -3.41082e-10 -2.13461e-08 -2.95365e-09
1505 1 -3.40942e-10 -2.13461e-08 -2.95362e-09
1506 1 -3.40913e-10 -2.13461e-08 -2.95367e-09
1507 1 -3.41036e-10 -2.13461e-08 -2.95361e-09
1508 1 -3.40943e-10 -2.13461e-08 -2.95365e-09
1509 1 -3.4125e-10 -2.13461e-08 -2.95363e-09
1510 1 -3.4098e-10 -2.13461e-08 -2.95364e-09
1511 1 -3.40997e-10 -2.13461e-08 -2.95365e-09
1512 1 -3.41166e-10 -2.1346e-08 -2.9536e-09
1513 1 -3.41129e-10 -2.13462e-08 -2.95367e-09
1514 1 -3.41152e-10 -2.1346e-08 -2.95361e-09
1515 1 -3.41049e-10 -2.13461e-08 -2.95365e-09
1516 1 -3.411e-10 -2.13461e-08 -2.95361e-09
1517 1 -3.41012e-10 -2.1346e-08 -2.95366e-09
1518 1 -3.41074e-10 -2.13461e-08 -2.95358e-09
1519 1 -3.41073e-10 -2.1346e-08 -2.95368e-09
1520 1 -3.40924e-10 -2.13461e-08 -2.95363e-09
1521 1 -3.40981e-10 -2.13464e-08 -2.9536e-09
1522 1 -3.40982e-10 -2.13464e-08 -2.95366e-09
1523 1 -3.41135e-10 -2.13463e-08 -2.95367e-09
1524 1 -3.41213e-10 -2.13463e-08 -2.95367e-09
1525 1 -3.41217e-10 -2.13464e-08 -2.95366e-09
1526 1 -3.40941e-10 -2.13463e-08 -2.95367e-09
1527 1 -3.41219e-10 -2.13463e-08 -2.95365e-09
1528 1 -3.41039e-10 -2.13463e-08 -2.95366e-09
1529 1 -3.41452e-10 -2.13464e-08 -2.95368e-09
1530 1 -3.41154e-10 -2.13463e-08 -2.95366e-09
1531 1 -3.41298e-10 -2.13464e-08 -2.95366e-09
1532 1 -3.41143e-10 -2.13462e-08 -2.95364e-09
1533 1 -3.41383e-10 -2.13464e-08 -2.95366e-09
1534 1 -3.41056e-10 -2.13463e-08 -2.95368e-09
1535 1 -3.41233e-10 -2.13463e-08 -2.95365e-09
1536 1 -3.41104e-10 -2.13463e-08 -2.95362e-09
1537 1 -3.41061e-10 -2.13463e-08 -2.95366e-09
1538 1 -3.41063e-10 -2.13464e-08 -2.95368e-09
1539 1 -3.41345e-10 -2.13463e-08 -2.95369e-09
1540 1 -3.41281e-10 -2.13463e-08 -2.95365e-09
1541 1 -3.4116e-10 -2.13467e-08 -2.95364e-09
1542 1 -3.41198e-10 -2.13467e-08 -2.95366e-09
1543 1 -3.41312e-10 -2.13467e-08 -2.95369e-09
1544 1 -3.41275e-10 -2.13467e-08 -2.95368e-09
1545 1 -3.41289e-10 -2.13467e-08 -2.95368e-09
1546 1 -3.41296e-10 -2.13467e-08 -2.95367e-09
1547 1 -3.41277e-10 -2.13467e-08 -2.95369e-09
1548 1 -3.41291e-10 -2.13467e-08 -2.95368e-09
1549 1 -3.41301e-10 -2.13467e-08 -2.9537e-09
1550 1 -3.413e-10 -2.13467e-08 -2.95367e-09
1551 1 -3.41234e-10 -2.13466e-08 -2.95363e-09
1552 1 -3.41306e-10 -2.13466e-08 -2.95373e-09
1553 1 -3.41581e-10 -2.13467e-08 -2.95361e-09
1554 1 -3.41088e-10 -2.13467e-08 -2.95371e-09
1555 1 -3.41505e-10 -2.13466e-08 -2.95366e-09
1556 1 -3.412e-10 -2.13467e-08 -2.95367e-09
1557 1 -3.41304e-10 -2.13466e-08 -2.95365e-09
1558 1 -3.41111e-10 -2.13467e-08 -2.95367e-09
1559 1 -3.41043e-10 -2.13466e-08 -2.95368e-09
1560 1 -3.41138e-10 -2.13467e-08 -2.9537e-09
1561 1 -3.40538e-10 -2.13463e-08 -2.95371e-09
1562 1 -3.4069e-10 -2.13463e-08 -2.95364e-09
1563 1 -3.40617e-10 -2.13463e-08 -2.95368e-09
1564 1 -3.40921e-10 -2.13463e-08 -2.95368e-09
1565 1 -3.40926e-10 -2.13463e-08 -2.95367e-09
1566 1 -3.41185e-10 -2.13464e-08 -2.95369e-09
1567 1 -3.4126e-10 -2.13463e-08 -2.95365e-09
1568 1 -3.41242e-10 -2.13463e-08 -2.95368e-09
1569 1 -3.4125e-10 -2.13463e-08 -2.95367e-09
1570 1 -3.41179e-10 -2.13463e-08 -2.95371e-09
1571 1 -3.41222e-10 -2.13463e-08 -2.95367e-09
1572 1 -3.41018e-10 -2.13462e-08 -2.95367e-09
1573 1 -3.41266e-10 -2.13464e-08 -2.95368e-09
1574 1 -3.41081e-10 -2.13463e-08 -2.95368e-09
1575 1 -3.41357e-10 -2.13463e-08 -2.95364e-09
1576 1 -3.41138e-10 -2.13463e-08 -2.95366e-09
1577 1 -3.41141e-10 -2.13463e-08 -2.95368e-09
1578 1 -3.41126e-10 -2.13463e-08 -2.95368e-09
1579 1 -3.41397e-10 -2.13463e-08 -2.95365e-09
1580 1 -3.40936e-10 -2.13463e-08 -2.95368e-09
1581 1 -3.40715e-10 -2.13462e-08 -2.95362e-09
1582 1 -3.40926e-10 -2.1346e-08 -2.95363e-09
1583 1 -3.40928e-10 -2.1346e-08 -2.95363e-09
1584 1 -3.41055e-10 -2.1346e-08 -2.95363e-09
1585 1 -3.40752e-10 -2.13461e-08 -2.95364e-09
1586 1 -3.41074e-10 -2.1346e-08 -2.95364e-09
1587 1 -3.40904e-10 -2.1346e-08 -2.95364e-09
1588 1 -3.41044e-10 -2.13461e-08 -2.95366e-09
1589 1 -3.4098e-10 -2.1346e-08 -2.95366e-09
1590 1 -3.41456e-10 -2.13459e-08 -2.95364e-09
1591 1 -3.41198e-10 -2.13461e-08 -2.95362e-09
1592 1 -3.41235e-10 -2.1346e-08 -2.95367e-09
1593 1 -3.4099e-10 -2.13461e-08 -2.95357e-09
1594 1 -3.40161e-10 -2.1346e-08 -2.95367e-09
1595 1 -3.40774e-10 -2.1346e-08 -2.95369e-09
1596 1 -3.41165e-10 -2.13461e-08 -2.9536e-09
1597 1 -3.41146e-10 -2.13461e-08 -2.9536e-09
1598 1 -3.402e-10 -2.1346e-08 -2.95365e-09
1599 1 -3.40821e-10 -2.1346e-08 -2.9537e-09
1600 1 -3.40947e-10 -2.13461e-08 -2.95363e-09
1601 2 -0.113444 -0.0425843 0.0574541
1602 2 -0.100995 0.0362096 -0.0528713
1603 2 6.72646e-05 -0.000555593 -0.00019681
1604 2 -1.63982e-11 1.40085e-08 -6.22558e-08
1605 2 -1.63311e-11 1.40085e-08 -6.22558e-08
1606 2 -1.64401e-11 1.40085e-08 -6.22558e-08
1607 2 -1.64011e-11 1.40085e-08 -6.22558e-08
1608 2 -1.63917e-11 1.40085e-08 -6.22558e-08
1609 2 -1.64676e-11 1.40085e-08 -6.22558e-08
1610 2 -1.65501e-11 1.40085e-08 -6.22558e-08
1611 2 -1.65659e-11 1.40085e-08 -6.22558e-08
1612 2 -1.66292e-11 1.40085e-08 -6.22559e-08
1613 2 -1.6517e-11 1.40085e-08 -6.22558e-08
1614 2 -1.6598e-11 1.40085e-08 -6.22559e-08
1615 2 -1.65968e-11 1.40085e-08 -6.22558e-08
1616 2 -1.66127e-11 1.40085e-08 -6.22559e-08
1617 2 -1.65187e-11 1.40085e-08 -6.22558e-08
1618 2 -1.64627e-11 1.40085e-08 -6.22558e-08
1619 2 -1.64052e-11 1.40085e-08 -6.22559e-08
1620 2 -0.000110053 0.00059494 0.000220013
1621 2 0.000554356 6.55014e-05 1.08198e-05
1622 2 -0.000437741 -0.00014662 -3.38375e-06
1623 2 4.25977e-06 3.96435e-06 2.93865e-07
1624 2 -1.64472e-11 1.40085e-08 -6.22558e-08
1625 2 -1.64749e-11 1.40085e-08 -6.22558e-08
1626 2 -1.64959e-11 1.40085e-08 -6.22558e-08
1627 2 -1.64807e-11 1.40085e-08 -6.22558e-08
1628 2 -1.64722e-11 1.40085e-08 -6.22558e-08
1629 2 -1.64616e-11 1.40085e-08 -6.22558e-08
1630 2 -1.65868e-11 1.40085e-08 -6.22558e-08
1631 2 -1.65687e-11 1.40085e-08 -6.22558e-08
1632 2 -1.66305e-11 1.40085e-08 -6.22559e-08
1633 2 -1.65342e-11 1.40085e-08 -6.22558e-08
1634 2 -1.65971e-11 1.40085e-08 -6.22559e-08
1635 2 -1.65136e-11 1.40085e-08 -6.22558e-08
1636 2 -1.66156e-11 1.40085e-08 -6.22559e-08
1637 2 -1.64009e-11 1.40085e-08 -6.22558e-08
1638 2 -1.65163e-11 1.40085e-08 -6.22558e-08
1639 2 4.25342e-06 -4.00866e-06 -3.68135e-07
1640 2 -0.000404248 0.00017893 9.65404e-06
1641 2 -1.66498e-11 1.40086e-08 -6.22559e-08
1642 2 -1.64676e-11 1.40085e-08 -6.22558e-08
1643 2 -1.65111e-11 1.40085e-08 -6.22558e-08
1644 2 -1.64542e-11 1.40085e-08 -6.22559e-08
1645 2 -1.6372e-11 1.40085e-08 -6.22558e-08
1646 2 -1.64376e-11 1.40085e-08 -6.22558e-08
1647 2 -1.64672e-11 1.40085e-08 -6.22558e-08
1648 2 -1.64712e-11 1.40085e-08 -6.22558e-08
1649 2 -1.65704e-11 1.40085e-08 -6.22558e-08
1650 2 -1.65558e-11 1.40085e-08 -6.22558e-08
1651 2 -1.63526e-11 1.40085e-08 -6.22559e-08
1652 2 -1.66507e-11 1.40085e-08 -6.22558e-08
1653 2 -1.64791e-11 1.40086e-08 -6.22558e-08
1654 2 -1.66618e-11 1.40085e-08 -6.22558e-08
1655 2 -1.65537e-11 1.40086e-08 -6.22558e-08
1656 2 -1.66916e-11 1.40085e-08 -6.22558e-08
1657 2 -1.64379e-11 1.40086e-08 -6.22559e-08
1658 2 -1.63418e-11 1.40086e-08 -6.22558e-08
1659 2 -1.62268e-11 1.40085e-08 -6.22558e-08
1660 2 -1.62282e-11 1.40085e-08 -6.22558e-08
1661 2 -1.66835e-11 1.40085e-08 -6.22559e-08
1662 2 -1.64738e-11 1.40085e-08 -6.22558e-08
1663 2 -1.64841e-11 1.40085e-08 -6.22558e-08
1664 2 -1.64234e-11 1.40085e-08 -6.22558e-08
1665 2 -1.63985e-11 1.40085e-08 -6.22558e-08
1666 2 -1.65322e-11 1.40085e-08 -6.22558e-08
1667 2 -1.65472e-11 1.40085e-08 -6.22558e-08
1668 2 -1.64757e-11 1.40085e-08 -6.22558e-08
1669 2 -1.65282e-11 1.40084e-08 -6.22558e-08
1670 2 -1.65057e-11 1.40085e-08 -6.22559e-08
1671 2 -1.63214e-11 1.40084e-08 -6.22558e-08
1672 2 -1.65476e-11 1.40085e-08 -6.22558e-08
1673 2 -1.62376e-11 1.40084e-08 -6.22558e-08
1674 2 -1.66074e-11 1.40085e-08 -6.22557e-08
1675 2 -1.65548e-11 1.40085e-08 -6.22559e-08
1676 2 -1.66484e-11 1.40085e-08 -6.22557e-08
1677 2 -1.64964e-11 1.40085e-08 -6.22559e-08
1678 2 -1.6465e-11 1.40085e-08 -6.22558e-08
1679 2 -1.64611e-11 1.40085e-08 -6.22558e-08
1680 2 -1.64089e-11 1.40085e-08 -6.22558e-08
1681 2 -1.67724e-11 1.40086e-08 -6.2256e-08
1682 2 -1.64771e-11 1.40085e-08 -6.22558e-08
1683 2 -1.64695e-11 1.40085e-08 -6.22558e-08
1684 2 -1.65059e-11 1.40085e-08 -6.22558e-08
1685 2 -1.64387e-11 1.40086e-08 -6.22559e-08
1686 2 -1.63848e-11 1.40085e-08 -6.22558e-08
1687 2 -1.63815e-11 1.40085e-08 -6.22558e-08
1688 2 -1.63703e-11 1.40085e-08 -6.22558e-08
1689 2 -1.65255e-11 1.40085e-08 -6.22558e-08
1690 2 -1.65217e-11 1.40086e-08 -6.22559e-08
1691 2 -1.60299e-11 1.40085e-08 -6.22558e-08
1692 2 -1.64336e-11 1.40086e-08 -6.22559e-08
1693 2 -1.60118e-11 1.40085e-08 -6.22558e-08
1694 2 -1.63935e-11 1.40086e-08 -6.22559e-08
1695 2 -1.61291e-11 1.40085e-08 -6.22558e-08
1696 2 -1.63999e-11 1.40086e-08 -6.22559e-08
1697 2 -1.60751e-11 1.40085e-08 -6.22558e-08
1698 2 -1.65384e-11 1.40085e-08 -6.22559e-08
1699 2 -1.6219e-11 1.40085e-08 -6.22558e-08
1700 2 -1.63098e-11 1.40085e-08 -6.22558e-08
1701 2 -1.6704e-11 1.40086e-08 -6.22559e-08
1702 2 -1.64488e-11 1.40086e-08 -6.22558e-08
1703 2 -1.64529e-11 1.40086e-08 -6.22558e-08
1704 2 -1.65167e-11 1.40086e-08 -6.22558e-08
1705 2 -1.65514e-11 1.40086e-08 -6.22558e-08
1706 2 -1.64836e-11 1.40086e-08 -6.22558e-08
1707 2 -1.64952e-11 1.40086e-08 -6.22558e-08
1708 2 -1.63967e-11 1.40086e-08 -6.22559e-08
1709 2 -1.65247e-11 1.40086e-08 -6.22558e-08
1710 2 -1.64722e-11 1.40086e-08 -6.22559e-08
1711 2 -1.6082e-11 1.40085e-08 -6.22558e-08
1712 2 -1.65103e-11 1.40086e-08 -6.22559e-08
1713 2 -1.60533e-11 1.40086e-08 -6.22558e-08
1714 2 -1.64716e-11 1.40086e-08 -6.22558e-08
1715 2 -1.64947e-11 1.40086e-08 -6.22558e-08
1716 2 -1.65189e-11 1.40086e-08 -6.22559e-08
1717 2 -1.65542e-11 1.40086e-08 -6.22558e-08
1718 2 -1.65903e-11 1.40086e-08 -6.22558e-08
1719 2 -1.65111e-11 1.40086e-08 -6.22559e-08
1720 2 -1.64179e-11 1.40086e-08 -6.22558e-08
1721 2 -1.66089e-11 1.40086e-08 -6.22559e-08
1722 2 -1.64076e-11 1.40086e-08 -6.22558e-08
1723 2 -1.63625e-11 1.40086e-08 -6.22558e-08
1724 2 -1.63839e-11 1.40086e-08 -6.22558e-08
1725 2 -1.6385e-11 1.40086e-08 -6.22558e-08
1726 2 -1.64145e-11 1.40086e-08 -6.22558e-08
1727 2 -1.64719e-11 1.40086e-08 -6.22558e-08
1728 2 -1.63378e-11 1.40085e-08 -6.22558e-08
1729 2 -1.65479e-11 1.40086e-08 -6.22558e-08
1730 2 -1.64874e-11 1.40086e-08 -6.22558e-08
1731 2 -1.64318e-11 1.40085e-08 -6.22558e-08
1732 2 -1.66038e-11 1.40086e-08 -6.22558e-08
1733 2 -1.64688e-11 1.40085e-08 -6.22558e-08
1734 2 -1.66365e-11 1.40086e-08 -6.22558e-08
1735 2 -1.64966e-11 1.40086e-08 -6.22558e-08
1736 2 -1.65628e-11 1.40086e-08 -6.22559e-08
1737 2 -1.6401e-11 1.40086e-08 -6.22558e-08
1738 2 -1.64121e-11 1.40086e-08 -6.22558e-08
1739 2 -1.64388e-11 1.40086e-08 -6.22558e-08
1740 2 -1.63991e-11 1.40086e-08 -6.22558e-08
1741 2 -1.65299e-11 1.40085e-08 -6.22558e-08
1742 2 -1.64249e-11 1.40085e-08 -6.22559e-08
1743 2 -1.64094e-11 1.40085e-08 -6.22558e-08
1744 2 -1.63882e-11 1.40084e-08 -6.22558e-08
1745 2 -1.63664e-11 1.40085e-08 -6.22558e-08
1746 2 -1.65036e-11 1.40084e-08 -6.22558e-08
1747 2 -1.6511e-11 1.40085e-08 -6.22559e-08
1748 2 -1.6539e-11 1.40085e-08 -6.22558e-08
1749 2 -1.6431e-11 1.40085e-08 -6.22559e-08
1750 2 -1.65534e-11 1.40084e-08 -6.22558e-08
1751 2 -1.6639e-11 1.40084e-08 -6.22558e-08
1752 2 -1.67717e-11 1.40085e-08 -6.22558e-08
1753 2 -1.65981e-11 1.40085e-08 -6.22559e-08
1754 2 -1.66436e-11 1.40084e-08 -6.22558e-08
1755 2 -1.66001e-11 1.40085e-08 -6.22559e-08
1756 2 -1.6683e-11 1.40085e-08 -6.22559e-08
1757 2 -1.64558e-11 1.40085e-08 -6.22558e-08
1758 2 -1.66399e-11 1.40085e-08 -6.22558e-08
1759 2 -1.64282e-11 1.40085e-08 -6.22558e-08
1760 2 -1.62214e-11 1.40085e-08 -6.22558e-08
1761 2 -1.68345e-11 1.40087e-08 -6.22561e-08
1762 2 -1.64508e-11 1.40086e-08 -6.22559e-08
1763 2 -1.64499e-11 1.40086e-08 -6.22559e-08
1764 2 -1.64275e-11 1.40086e-08 -6.22559e-08
1765 2 -1.6382e-11 1.40086e-08 -6.22559e-08
1766 2 -1.65165e-11 1.40086e-08 -6.22559e-08
1767 2 -1.65133e-11 1.40086e-08 -6.22559e-08
1768 2 -1.65391e-11 1.40086e-08 -6.22559e-08
1769 2 -1.64406e-11 1.40086e-08 -6.22559e-08
1770 2 -1.65408e-11 1.40086e-08 -6.22559e-08
1771 2 -1.64454e-11 1.40086e-08 -6.22559e-08
1772 2 -1.65812e-11 1.40086e-08 -6.22559e-08
1773 2 -1.6496e-11 1.40086e-08 -6.22559e-08
1774 2 -1.65679e-11 1.40086e-08 -6.22559e-08
1775 2 -1.65263e-11 1.40086e-08 -6.22559e-08
1776 2 -1.64909e-11 1.40086e-08 -6.22559e-08
1777 2 -1.62564e-11 1.40086e-08 -6.22559e-08
1778 2 -1.64394e-11 1.40086e-08 -6.22559e-08
1779 2 -1.64681e-11 1.40086e-08 -6.22559e-08
1780 2 -1.6496e-11 1.40086e-08 -6.22559e-08
1781 2 -1.6362e-11 1.40086e-08 -6.22559e-08
1782 2 -1.62007e-11 1.40086e-08 -6.22559e-08
1783 2 -1.62444e-11 1.40086e-08 -6.22558e-08
1784 2 -1.62245e-11 1.40086e-08 -6.22559e-08
1785 2 -1.6151e-11 1.40086e-08 -6.22558e-08
1786 2 -1.61688e-11 1.40086e-08 -6.22558e-08
1787 2 -1.62093e-11 1.40086e-08 -6.22558e-08
1788 2 -1.62405e-11 1.40086e-08 -6.22558e-08
1789 2 -1.61035e-11 1.40086e-08 -6.22559e-08
1790 2 -1.61671e-11 1.40086e-08 -6.22558e-08
1791 2 -1.63891e-11 1.40086e-08 -6.22558e-08
1792 2 -1.62697e-11 1.40087e-08 -6.22559e-08
1793 2 -1.63797e-11 1.40085e-08 -6.22558e-08
1794 2 -1.62823e-11 1.40086e-08 -6.22559e-08
1795 2 -1.64666e-11 1.40086e-08 -6.22559e-08
1796 2 -1.64522e-11 1.40086e-08 -6.22559e-08
1797 2 -1.64243e-11 1.40086e-08 -6.22559e-08
1798 2 -1.64047e-11 1.40086e-08 -6.22558e-08
1799 2 -1.62239e-11 1.40086e-08 -6.22558e-08
1800 2 -1.63553e-11 1.40085e-08 -6.22558e-08
1801 2 -1.65716e-11 1.40086e-08 -6.22558e-08
1802 2 -1.65996e-11 1.40085e-08 -6.22559e-08
1803 2 -1.66283e-11 1.40085e-08 -6.22558e-08
1804 2 -1.65704e-11 1.40085e-08 -6.22559e-08
1805 2 -1.64697e-11 1.40086e-08 -6.22558e-08
1806 2 -1.67252e-11 1.40085e-08 -6.22558e-08
1807 2 -1.68006e-11 1.40085e-08 -6.22558e-08
1808 2 -1.67085e-11 1.40085e-08 -6.22559e-08
1809 2 -1.68204e-11 1.40086e-08 -6.22558e-08
1810 2 -1.67969e-11 1.40086e-08 -6.22559e-08
1811 2 -1.65143e-11 1.40085e-08 -6.22559e-08
1812 2 -1.66751e-11 1.40085e-08 -6.22558e-08
1813 2 -1.65219e-11 1.40086e-08 -6.22558e-08
1814 2 -1.65419e-11 1.40085e-08 -6.22559e-08
1815 2 -1.65623e-11 1.40085e-08 -6.22558e-08
1816 2 -1.65571e-11 1.40086e-08 -6.22559e-08
1817 2 -1.63058e-11 1.40085e-08 -6.22558e-08
1818 2 -1.64856e-11 1.40086e-08 -6.22559e-08
1819 2 -1.65089e-11 1.40085e-08 -6.22558e-08
1820 2 -1.65218e-11 1.40086e-08 -6.22559e-08
1821 2 -1.66214e-11 1.40086e-08 -6.22559e-08
1822 2 -1.63379e-11 1.40085e-08 -6.22558e-08
1823 2 -1.64613e-11 1.40086e-08 -6.22559e-08
1824 2 -1.6388e-11 1.40086e-08 -6.22559e-08
1825 2 -1.64567e-11 1.40086e-08 -6.22558e-08
1826 2 -1.65181e-11 1.40086e-08 -6.22558e-08
1827 2 -1.63987e-11 1.40086e-08 -6.22559e-08
1828 2 -1.6345e-11 1.40086e-08 -6.22558e-08
1829 2 -1.64934e-11 1.40085e-08 -6.22558e-08
1830 2 -1.65078e-11 1.40086e-08 -6.22559e-08
1831 2 -1.62076e-11 1.40085e-08 -6.22558e-08
1832 2 -1.66764e-11 1.40086e-08 -6.22558e-08
1833 2 -1.63153e-11 1.40086e-08 -6.22559e-08
1834 2 -1.64423e-11 1.40086e-08 -6.22559e-08
1835 2 -1.65159e-11 1.40085e-08 -6.22558e-08
1836 2 -1.6522e-11 1.40086e-08 -6.22559e-08
1837 2 -1.64326e-11 1.40086e-08 -6.22559e-08
1838 2 -1.61909e-11 1.40086e-08 -6.22558e-08
1839 2 -1.6489e-11 1.40085e-08 -6.22558e-08
1840 2 -1.67848e-11 1.40086e-08 -6.22559e-08
1841 2 -1.65334e-11 1.40086e-08 -6.22558e-08
1842 2 -1.6486e-11 1.40086e-08 -6.22558e-08
1843 2 -1.64933e-11 1.40086e-08 -6.22558e-08
1844 2 -1.645e-11 1.40086e-08 -6.22558e-08
1845 2 -1.6419e-11 1.40086e-08 -6.22558e-08
1846 2 -1.64833e-11 1.40086e-08 -6.22558e-08
1847 2 -1.64982e-11 1.40086e-08 -6.22558e-08
1848 2 -1.64975e-11 1.40086e-08 -6.22558e-08
1849 2 -1.64991e-11 1.40086e-08 -6.22558e-08
1850 2 -1.6504e-11 1.40086e-08 -6.22558e-08
1851 2 -1.64629e-11 1.40086e-08 -6.22558e-08
1852 2 -1.65216e-11 1.40086e-08 -6.22558e-08
1853 2 -1.63173e-11 1.40086e-08 -6.22558e-08
1854 2 -1.65454e-11 1.40086e-08 -6.22557e-08
1855 2 -1.66023e-11 1.40086e-08 -6.22558e-08
1856 2 -1.62781e-11 1.40086e-08 -6.22558e-08
1857 2 -1.63608e-11 1.40085e-08 -6.22558e-08
1858 2 -1.65969e-11 1.40086e-08 -6.22558e-08
1859 2 -1.65766e-11 1.40086e-08 -6.22558e-08
1860 2 -1.66204e-11 1.40085e-08 -6.22558e-08
1861 2 -1.64642e-11 1.40084e-08 -6.22559e-08
1862 2 -1.64139e-11 1.40084e-08 -6.22559e-08
1863 2 -1.64189e-11 1.40084e-08 -6.22558e-08
1864 2 -1.64352e-11 1.40084e-08 -6.22558e-08
1865 2 -1.6401e-11 1.40084e-08 -6.22558e-08
1866 2 -1.64536e-11 1.40084e-08 -6.22559e-08
1867 2 -1.64679e-11 1.40084e-08 -6.22558e-08
1868 2 -1.62665e-11 1.40084e-08 -6.22558e-08
1869 2 -1.64592e-11 1.40084e-08 -6.22559e-08
1870 2 -1.64608e-11 1.40084e-08 -6.22558e-08
1871 2 -1.65839e-11 1.40084e-08 -6.22558e-08
1872 2 -1.65431e-11 1.40085e-08 -6.22559e-08
1873 2 -1.64217e-11 1.40084e-08 -6.22559e-08
1874 2 -1.64441e-11 1.40084e-08 -6.22559e-08
1875 2 -1.64252e-11 1.40084e-08 -6.22559e-08
1876 2 -1.65712e-11 1.40084e-08 -6.22559e-08
1877 2 -1.62032e-11 1.40084e-08 -6.22559e-08
1878 2 -1.61334e-11 1.40084e-08 -6.22558e-08
1879 2 -1.61938e-11 1.40084e-08 -6.22559e-08
1880 2 -1.6628e-11 1.40084e-08 -6.22558e-08
1881 2 -1.61862e-11 1.40086e-08 -6.22559e-08
1882 2 -1.62516e-11 1.40086e-08 -6.22559e-08
1883 2 -1.65348e-11 1.40086e-08 -6.22559e-08
1884 2 -1.62154e-11 1.40086e-08 -6.2256e-08
1885 2 -1.64336e-11 1.40086e-08 -6.22559e-08
1886 2 -1.63586e-11 1.40086e-08 -6.22559e-08
1887 2 -1.62894e-11 1.40086e-08 -6.22559e-08
1888 2 -1.62835e-11 1.40086e-08 -6.2256e-08
1889 2 -1.62373e-11 1.40086e-08 -6.22559e-08
1890 2 -1.62926e-11 1.40086e-08 -6.22559e-08
1891 2 -1.6417e-11 1.40085e-08 -6.2256e-08
1892 2 -1.60644e-11 1.40086e-08 -6.22559e-08
1893 2 -1.63383e-11 1.40086e-08 -6.22559e-08
1894 2 -1.6566e-11 1.40086e-08 -6.2256e-08
1895 2 -1.62937e-11 1.40086e-08 -6.22559e-08
1896 2 -1.63345e-11 1.40086e-08 -6.22559e-08
1897 2 -1.64403e-11 1.40085e-08 -6.2256e-08
1898 2 -1.65214e-11 1.40086e-08 -6.2256e-08
1899 2 -1.62786e-11 1.40086e-08 -6.22559e-08
1900 2 -1.65944e-11 1.40085e-08 -6.22559e-08
1901 2 -1.6696e-11 1.40086e-08 -6.22559e-08
1902 2 -1.66295e-11 1.40086e-08 -6.22558e-08
1903 2 -1.67929e-11 1.40086e-08 -6.22558e-08
1904 2 -1.67961e-11 1.40086e-08 -6.22558e-08
1905 2 -1.67191e-11 1.40086e-08 -6.22559e-08
1906 2 -1.66988e-11 1.40086e-08 -6.22558e-08
1907 2 -1.66876e-11 1.40086e-08 -6.22558e-08
1908 2 -1.66832e-11 1.40086e-08 -6.22558e-08
1909 2 -1.66934e-11 1.40086e-08 -6.22558e-08
1910 2 -1.67342e-11 1.40086e-08 -6.22558e-08
1911 2 -1.67445e-11 1.40086e-08 -6.22558e-08
1912 2 -1.67081e-11 1.40087e-08 -6.22559e-08
1913 2 -1.6501e-11 1.40087e-08 -6.22559e-08
1914 2 -1.6492e-11 1.40086e-08 -6.22558e-08
1915 2 -1.64998e-11 1.40087e-08 -6.22559e-08
1916 2 -1.65196e-11 1.40086e-08 -6.22558e-08
1917 2 -1.64684e-11 1.40086e-08 -6.22559e-08
1918 2 -1.6522e-11 1.40086e-08 -6.22557e-08
1919 2 -1.64131e-11 1.40087e-08 -6.2256e-08
1920 2 -1.67176e-11 1.40085e-08 -6.22557e-08
1921 2 -1.64917e-11 1.40084e-08 -6.22558e-08
1922 2 -1.64246e-11 1.40084e-08 -6.22558e-08
1923 2 -1.6414e-11 1.40084e-08 -6.22558e-08
1924 2 -1.653e-11 1.40084e-08 -6.22558e-08
1925 2 -1.64911e-11 1.40084e-08 -6.22559e-08
1926 2 -1.63088e-11 1.40084e-08 -6.22558e-08
1927 2 -1.62767e-11 1.40084e-08 -6.22558e-08
1928 2 -1.62652e-11 1.40083e-08 -6.22558e-08
1929 2 -1.63791e-11 1.40084e-08 -6.22558e-08
1930 2 -1.6367e-11 1.40084e-08 -6.22558e-08
1931 2 -1.61057e-11 1.40084e-08 -6.22558e-08
1932 2 -1.66226e-11 1.40084e-08 -6.22557e-08
1933 2 -1.66549e-11 1.40084e-08 -6.22558e-08
1934 2 -1.6662e-11 1.40084e-08 -6.22558e-08
1935 2 -1.66519e-11 1.40084e-08 -6.22558e-08
1936 2 -1.67085e-11 1.40084e-08 -6.22559e-08
1937 2 -1.65252e-11 1.40084e-08 -6.22558e-08
1938 2 -1.65285e-11 1.40083e-08 -6.22558e-08
1939 2 -1.64824e-11 1.40084e-08 -6.22558e-08
1940 2 -1.655e-11 1.40083e-08 -6.22558e-08
1941 2 -1.6497e-11 1.40084e-08 -6.22559e-08
1942 2 -1.64892e-11 1.40084e-08 -6.22559e-08
1943 2 -1.65073e-11 1.40084e-08 -6.22559e-08
1944 2 -1.64829e-11 1.40084e-08 -6.22559e-08
1945 2 -1.64484e-11 1.40083e-08 -6.22559e-08
1946 2 -1.66223e-11 1.40084e-08 -6.22559e-08
1947 2 -1.66778e-11 1.40083e-08 -6.22559e-08
1948 2 -1.67161e-11 1.40084e-08 -6.22559e-08
1949 2 -1.65337e-11 1.40084e-08 -6.22559e-08
1950 2 -1.65803e-11 1.40083e-08 -6.22559e-08
1951 2 -1.64256e-11 1.40084e-08 -6.22559e-08
1952 2 -1.6456e-11 1.40084e-08 -6.22559e-08
1953 2 -1.64539e-11 1.40083e-08 -6.22559e-08
1954 2 -1.65445e-11 1.40084e-08 -6.2256e-08
1955 2 -1.63623e-11 1.40083e-08 -6.22558e-08
1956 2 -1.64247e-11 1.40084e-08 -6.22559e-08
1957 2 -1.63094e-11 1.40084e-08 -6.22559e-08
1958 2 -1.64523e-11 1.40084e-08 -6.22558e-08
1959 2 -1.62434e-11 1.40084e-08 -6.2256e-08
1960 2 -1.64093e-11 1.40084e-08 -6.22559e-08
1961 2 -1.66134e-11 1.40086e-08 -6.22559e-08
1962 2 -1.63989e-11 1.40086e-08 -6.22559e-08
1963 2 -1.63979e-11 1.40085e-08 -6.22558e-08
1964 2 -1.65387e-11 1.40086e-08 -6.22559e-08
1965 2 -1.6497e-11 1.40086e-08 -6.22558e-08
1966 2 -1.64661e-11 1.40086e-08 -6.22559e-08
1967 2 -1.64379e-11 1.40085e-08 -6.22558e-08
1968 2 -1.64545e-11 1.40086e-08 -6.22559e-08
1969 2 -1.64667e-11 1.40085e-08 -6.22558e-08
1970 2 -1.64995e-11 1.40086e-08 -6.22559e-08
1971 2 -1.64316e-11 1.40085e-08 -6.22559e-08
1972 2 -1.66884e-11 1.40086e-08 -6.22558e-08
1973 2 -1.62443e-11 1.40086e-08 -6.22559e-08
1974 2 -1.65426e-11 1.40085e-08 -6.22558e-08
1975 2 -1.67036e-11 1.40085e-08 -6.22558e-08
1976 2 -1.67566e-11 1.40086e-08 -6.22558e-08
1977 2 -1.6522e-11 1.40086e-08 -6.2256e-08
1978 2 -1.64271e-11 1.40086e-08 -6.22557e-08
1979 2 -1.65423e-11 1.40085e-08 -6.22559e-08
1980 2 -1.66195e-11 1.40086e-08 -6.22558e-08
1981 2 6.75395e-05 8.85651e-05 -5.09046e-06
1982 2 -7.0118e-05 -7.10322e-05 1.07624e-06
1983 2 1.45538e-05 -5.17895e-06 -6.19183e-06
1984 2 -1.6814e-11 1.40084e-08 -6.22557e-08
1985 2 -1.68447e-11 1.40084e-08 -6.22558e-08
1986 2 -1.68659e-11 1.40084e-08 -6.22557e-08
1987 2 -1.69621e-11 1.40084e-08 -6.22557e-08
1988 2 -1.69677e-11 1.40084e-08 -6.22558e-08
1989 2 -1.68384e-11 1.40084e-08 -6.22557e-08
1990 2 -1.67908e-11 1.40085e-08 -6.22558e-08
1991 2 -1.63679e-11 1.40084e-08 -6.22558e-08
1992 2 -1.67628e-11 1.40084e-08 -6.22557e-08
1993 2 -1.65176e-11 1.40084e-08 -6.22558e-08
1994 2 -1.6796e-11 1.40084e-08 -6.22557e-08
1995 2 -1.67476e-11 1.40084e-08 -6.22558e-08
1996 2 -1.68139e-11 1.40084e-08 -6.22557e-08
1997 2 -1.68002e-11 1.40085e-08 -6.22559e-08
1998 2 -1.66181e-11 1.40083e-08 -6.22556e-08
1999 2 -1.67143e-11 1.40084e-08 -6.22558e-08
2000 2 -1.66904e-11 1.40084e-08 -6.22557e-08
2001 2 -0.0135381 -0.0268697 0.00193894
2002 2 0.00110984 -0.00383278 -0.00117583
2003 2 0.000514302 -0.000147511 0.000354164
2004 2 3.69508e-10 2.38358e-08 9.53311e-08
2005 2 3.69521e-10 2.38358e-08 9.53311e-08
2006 2 3.69514e-10 2.38358e-08 9.53311e-08
2007 2 3.69513e-10 2.38358e-08 9.53311e-08
2008 2 3.69468e-10 2.38358e-08 9.53311e-08
2009 2 3.69491e-10 2.38358e-08 9.53311e-08
2010 2 3.69427e-10 2.38358e-08 9.53311e-08
2011 2 3.69496e-10 2.38358e-08 9.53311e-08
2012 2 3.69523e-10 2.38358e-08 9.53311e-08
2013 2 3.69478e-10 2.38358e-08 9.53311e-08
2014 2 3.69514e-10 2.38358e-08 9.53311e-08
2015 2 3.69497e-10 2.38358e-08 9.53311e-08
2016 2 3.69547e-10 2.38358e-08 9.53311e-08
2017 2 3.69464e-10 2.38358e-08 9.53311e-08
2018 2 3.69484e-10 2.38357e-08 9.53311e-08
2019 2 3.6945e-10 2.38358e-08 9.53311e-08
2020 2 0.00037079 6.87533e-05 -0.000363022
2021 2 -9.3401e-05 -0.00060123 -0.000282456
2022 2 -0.0116083 0.00399902 -0.00190794
2023 2 -0.000663379 -0.000909271 -5.26661e-05
2024 2 3.69486e-10 2.38355e-08 9.53311e-08
2025 2 3.69479e-10 2.38355e-08 9.53311e-08
2026 2 3.69527e-10 2.38355e-08 9.53311e-08
2027 2 3.69524e-10 2.38355e-08 9.53311e-08
2028 2 3.69506e-10 2.38355e-08 9.53311e-08
2029 2 3.69509e-10 2.38355e-08 9.53311e-08
2030 2 3.69454e-10 2.38354e-08 9.53311e-08
2031 2 3.69495e-10 2.38355e-08 9.53311e-08
2032 2 3.69505e-10 2.38355e-08 9.53311e-08
2033 2 3.69476e-10 2.38354e-08 9.53311e-08
2034 2 3.69452e-10 2.38355e-08 9.53311e-08
2035 2 3.69499e-10 2.38355e-08 9.53311e-08
2036 2 3.6946e-10 2.38355e-08 9.53311e-08
2037 2 3.69491e-10 2.38355e-08 9.53311e-08
2038 2 3.6947e-10 2.38355e-08 9.53311e-08
2039 2 -0.00081767 0.000828639 4.82585e-05
2040 2 -0.0051615 -0.00813469 0.00259261
2041 2 2.8237e-08 4.26852e-06 2.25137e-06
2042 2 -1.1598e-07 -2.46362e-07 2.88766e-08
2043 2 3.69495e-10 2.38355e-08 9.53311e-08
2044 2 3.69498e-10 2.38355e-08 9.53311e-08
2045 2 3.69515e-10 2.38355e-08 9.53311e-08
2046 2 3.69546e-10 2.38355e-08 9.53311e-08
2047 2 3.69544e-10 2.38355e-08 9.53311e-08
2048 2 3.69546e-10 2.38355e-08 9.53311e-08
2049 2 3.69501e-10 2.38355e-08 9.53311e-08
2050 2 3.69486e-10 2.38355e-08 9.53311e-08
2051 2 3.69488e-10 2.38355e-08 9.53311e-08
2052 2 3.69499e-10 2.38355e-08 9.53311e-08
2053 2 3.6947e-10 2.38354e-08 9.53311e-08
2054 2 3.69439e-10 2.38355e-08 9.53311e-08
2055 2 3.69487e-10 2.38354e-08 9.53311e-08
2056 2 3.69442e-10 2.38355e-08 9.53311e-08
2057 2 3.69485e-10 2.38355e-08 9.53311e-08
2058 2 3.69474e-10 2.38355e-08 9.53311e-08
2059 2 -1.48491e-07 3.67421e-07 1.80165e-07
2060 2 2.37713e-07 -4.70197e-06 -2.22525e-06
2061 2 3.69532e-10 2.38355e-08 9.53311e-08
2062 2 3.695e-10 2.38355e-08 9.53311e-08
2063 2 3.69516e-10 2.38355e-08 9.53311e-08
2064 2 3.69498e-10 2.38355e-08 9.53311e-08
2065 2 3.69516e-10 2.38355e-08 9.53311e-08
2066 2 3.69534e-10 2.38355e-08 9.53311e-08
2067 2 3.69521e-10 2.38355e-08 9.53311e-08
2068 2 3.69509e-10 2.38355e-08 9.53311e-08
2069 2 3.69482e-10 2.38355e-08 9.53311e-08
2070 2 3.6945e-10 2.38355e-08 9.53311e-08
2071 2 3.69526e-10 2.38355e-08 9.53311e-08
2072 2 3.69474e-10 2.38355e-08 9.53311e-08
2073 2 3.69505e-10 2.38355e-08 9.53311e-08
2074 2 3.69426e-10 2.38355e-08 9.53311e-08
2075 2 3.69521e-10 2.38355e-08 9.53311e-08
2076 2 3.69445e-10 2.38355e-08 9.53311e-08
2077 2 3.69537e-10 2.38355e-08 9.53311e-08
2078 2 3.69466e-10 2.38355e-08 9.53311e-08
2079 2 3.69469e-10 2.38355e-08 9.53311e-08
2080 2 3.69483e-10 2.38355e-08 9.53311e-08
2081 2 3.69533e-10 2.38354e-08 9.53311e-08
2082 2 3.69504e-10 2.38354e-08 9.53311e-08
2083 2 3.69504e-10 2.38354e-08 9.53311e-08
2084 2 3.695e-10 2.38354e-08 9.53311e-08
2085 2 3.69476e-10 2.38354e-08 9.53311e-08
2086 2 3.69539e-10 2.38354e-08 9.53311e-08
2087 2 3.69533e-10 2.38354e-08 9.53311e-08
2088 2 3.69501e-10 2.38354e-08 9.53311e-08
2089 2 3.69528e-10 2.38354e-08 9.53311e-08
2090 2 3.6947e-10 2.38354e-08 9.53311e-08
2091 2 3.69567e-10 2.38354e-08 9.53311e-08
2092 2 3.69494e-10 2.38355e-08 9.53311e-08
2093 2 3.69539e-10 2.38354e-08 9.53311e-08
2094 2 3.69461e-10 2.38354e-08 9.53311e-08
2095 2 3.69547e-10 2.38354e-08 9.53311e-08
2096 2 3.69476e-10 2.38354e-08 9.53311e-08
2097 2 3.69558e-10 2.38354e-08 9.53311e-08
2098 2 3.69488e-10 2.38354e-08 9.53311e-08
2099 2 3.69545e-10 2.38354e-08 9.53311e-08
2100 2 3.69495e-10 2.38354e-08 9.53311e-08
2101 2 3.69544e-10 2.38355e-08 9.5331e-08
2102 2 3.69518e-10 2.38355e-08 9.53311e-08
2103 2 3.69558e-10 2.38355e-08 9.53311e-08
2104 2 3.69564e-10 2.38355e-08 9.53311e-08
2105 2 3.69525e-10 2.38355e-08 9.53311e-08
2106 2 3.69533e-10 2.38355e-08 9.53311e-08
2107 2 3.6953e-10 2.38355e-08 9.53311e-08
2108 2 3.69532e-10 2.38355e-08 9.53311e-08
2109 2 3.69567e-10 2.38355e-08 9.53311e-08
2110 2 3.69505e-10 2.38355e-08 9.5331e-08
2111 2 3.69596e-10 2.38355e-08 9.53311e-08
2112 2 3.69518e-10 2.38355e-08 9.5331e-08
2113 2 3.69593e-10 2.38354e-08 9.53311e-08
2114 2 3.69466e-10 2.38355e-08 9.5331e-08
2115 2 3.69602e-10 2.38355e-08 9.53311e-08
2116 2 3.69486e-10 2.38355e-08 9.53311e-08
2117 2 3.69447e-10 2.38354e-08 9.53311e-08
2118 2 3.6947e-10 2.38355e-08 9.5331e-08
2119 2 3.69478e-10 2.38355e-08 9.53311e-08
2120 2 3.69487e-10 2.38355e-08 9.53311e-08
2121 2 3.69507e-10 2.3835e-08 9.53311e-08
2122 2 3.69475e-10 2.3835e-08 9.53311e-08
2123 2 3.69477e-10 2.3835e-08 9.53311e-08
2124 2 3.69485e-10 2.3835e-08 9.53311e-08
2125 2 3.69486e-10 2.3835e-08 9.53311e-08
2126 2 3.69488e-10 2.3835e-08 9.53311e-08
2127 2 3.69484e-10 2.3835e-08 9.53311e-08
2128 2 3.69504e-10 2.3835e-08 9.53311e-08
2129 2 3.69535e-10 2.3835e-08 9.53311e-08
2130 2 3.69439e-10 2.3835e-08 9.53311e-08
2131 2 3.69534e-10 2.3835e-08 9.53311e-08
2132 2 3.69479e-10 2.38351e-08 9.53311e-08
2133 2 3.69507e-10 2.3835e-08 9.53311e-08
2134 2 3.69472e-10 2.3835e-08 9.53311e-08
2135 2 3.69525e-10 2.3835e-08 9.53311e-08
2136 2 3.69486e-10 2.3835e-08 9.53311e-08
2137 2 3.69479e-10 2.3835e-08 9.53311e-08
2138 2 3.69439e-10 2.3835e-08 9.53311e-08
2139 2 3.69498e-10 2.3835e-08 9.53311e-08
2140 2 3.69494e-10 2.3835e-08 9.53311e-08
2141 2 3.69526e-10 2.38355e-08 9.5331e-08
2142 2 3.69507e-10 2.38355e-08 9.5331e-08
2143 2 3.69517e-10 2.38355e-08 9.53311e-08
2144 2 3.69513e-10 2.38355e-08 9.5331e-08
2145 2 3.69507e-10 2.38355e-08 9.5331e-08
2146 2 3.69541e-10 2.38355e-08 9.5331e-08
2147 2 3.69509e-10 2.38355e-08 9.5331e-08
2148 2 3.69514e-10 2.38355e-08 9.5331e-08
2149 2 3.69524e-10 2.38355e-08 9.5331e-08
2150 2 3.69447e-10 2.38355e-08 9.5331e-08
2151 2 3.6953e-10 2.38355e-08 9.5331e-08
2152 2 3.69448e-10 2.38355e-08 9.5331e-08
2153 2 3.69541e-10 2.38355e-08 9.5331e-08
2154 2 3.6953e-10 2.38356e-08 9.5331e-08
2155 2 3.6955e-10 2.38355e-08 9.53311e-08
2156 2 3.69481e-10 2.38355e-08 9.5331e-08
2157 2 3.69487e-10 2.38355e-08 9.5331e-08
2158 2 3.69492e-10 2.38356e-08 9.5331e-08
2159 2 3.69495e-10 2.38355e-08 9.5331e-08
2160 2 3.69505e-10 2.38356e-08 9.5331e-08
2161 2 3.69549e-10 2.38357e-08 9.53311e-08
2162 2 3.6947e-10 2.38357e-08 9.53311e-08
2163 2 3.69512e-10 2.38357e-08 9.53311e-08
2164 2 3.69539e-10 2.38357e-08 9.53311e-08
2165 2 3.69481e-10 2.38357e-08 9.53311e-08
2166 2 3.69529e-10 2.38357e-08 9.53311e-08
2167 2 3.69526e-10 2.38357e-08 9.53311e-08
2168 2 3.69517e-10 2.38357e-08 9.53311e-08
2169 2 3.6952e-10 2.38357e-08 9.53311e-08
2170 2 3.6948e-10 2.38357e-08 9.53311e-08
2171 2 3.69517e-10 2.38357e-08 9.53311e-08
2172 2 3.69542e-10 2.38357e-08 9.53311e-08
2173 2 3.69524e-10 2.38357e-08 9.53311e-08
2174 2 3.69531e-10 2.38357e-08 9.53311e-08
2175 2 3.6955e-10 2.38357e-08 9.53311e-08
2176 2 3.69498e-10 2.38357e-08 9.53311e-08
2177 2 3.69495e-10 2.38357e-08 9.53311e-08
2178 2 3.69485e-10 2.38357e-08 9.53311e-08
2179 2 3.69488e-10 2.38357e-08 9.53311e-08
2180 2 3.6948e-10 2.38357e-08 9.53311e-08
2181 2 3.69499e-10 2.38355e-08 9.53312e-08
2182 2 3.69493e-10 2.38355e-08 9.53312e-08
2183 2 3.69494e-10 2.38355e-08 9.53312e-08
2184 2 3.69538e-10 2.38355e-08 9.53312e-08
2185 2 3.69528e-10 2.38355e-08 9.53312e-08
2186 2 3.69542e-10 2.38355e-08 9.53312e-08
2187 2 3.69511e-10 2.38355e-08 9.53311e-08
2188 2 3.69533e-10 2.38355e-08 9.53311e-08
2189 2 3.69523e-10 2.38355e-08 9.53312e-08
2190 2 3.69527e-10 2.38355e-08 9.53312e-08
2191 2 3.69587e-10 2.38355e-08 9.53312e-08
2192 2 3.69483e-10 2.38355e-08 9.53312e-08
2193 2 3.69569e-10 2.38355e-08 9.53312e-08
2194 2 3.69447e-10 2.38355e-08 9.53312e-08
2195 2 3.69532e-10 2.38355e-08 9.53312e-08
2196 2 3.69465e-10 2.38356e-08 9.53311e-08
2197 2 3.69487e-10 2.38355e-08 9.53312e-08
2198 2 3.6949e-10 2.38355e-08 9.53311e-08
2199 2 3.69546e-10 2.38355e-08 9.53312e-08
2200 2 3.69503e-10 2.38355e-08 9.53312e-08
2201 2 3.69474e-10 2.38355e-08 9.53311e-08
2202 2 3.69518e-10 2.38354e-08 9.53311e-08
2203 2 3.69533e-10 2.38355e-08 9.53311e-08
2204 2 3.69511e-10 2.38355e-08 9.53311e-08
2205 2 3.69536e-10 2.38355e-08 9.53311e-08
2206 2 3.6951e-10 2.38355e-08 9.53312e-08
2207 2 3.69457e-10 2.38355e-08 9.53311e-08
2208 2 3.69508e-10 2.38355e-08 9.53311e-08
2209 2 3.69464e-10 2.38355e-08 9.53311e-08
2210 2 3.69482e-10 2.38355e-08 9.53311e-08
2211 2 3.6957e-10 2.38355e-08 9.53311e-08
2212 2 3.69524e-10 2.38355e-08 9.53311e-08
2213 2 3.69544e-10 2.38355e-08 9.53311e-08
2214 2 3.69469e-10 2.38355e-08 9.53311e-08
2215 2 3.69496e-10 2.38355e-08 9.53311e-08
2216 2 3.69427e-10 2.38355e-08 9.53311e-08
2217 2 3.69516e-10 2.38355e-08 9.53311e-08
2218 2 3.69431e-10 2.38355e-08 9.53311e-08
2219 2 3.69476e-10 2.38355e-08 9.53311e-08
2220 2 3.69508e-10 2.38355e-08 9.53311e-08
2221 2 3.69485e-10 2.38355e-08 9.53311e-08
2222 2 3.69472e-10 2.38355e-08 9.53311e-08
2223 2 3.69479e-10 2.38355e-08 9.53311e-08
2224 2 3.69506e-10 2.38355e-08 9.53311e-08
2225 2 3.69487e-10 2.38355e-08 9.53311e-08
2226 2 3.69538e-10 2.38355e-08 9.53311e-08
2227 2 3.69491e-10 2.38355e-08 9.53311e-08
2228 2 3.69507e-10 2.38355e-08 9.53311e-08
2229 2 3.69507e-10 2.38355e-08 9.53311e-08
2230 2 3.69475e-10 2.38355e-08 9.53311e-08
2231 2 3.69458e-10 2.38355e-08 9.53311e-08
2232 2 3.6949e-10 2.38355e-08 9.53311e-08
2233 2 3.69471e-10 2.38355e-08 9.53311e-08
2234 2 3.69448e-10 2.38355e-08 9.53311e-08
2235 2 3.69557e-10 2.38355e-08 9.53311e-08
2236 2 3.69443e-10 2.38355e-08 9.53311e-08
2237 2 3.6951e-10 2.38355e-08 9.53311e-08
2238 2 3.69473e-10 2.38355e-08 9.53311e-08
2239 2 3.69552e-10 2.38355e-08 9.53311e-08
2240 2 3.69487e-10 2.38355e-08 9.53311e-08
2241 2 3.69481e-10 2.3835e-08 9.53311e-08
2242 2 3.69477e-10 2.3835e-08 9.53311e-08
2243 2 3.69485e-10 2.3835e-08 9.53311e-08
2244 2 3.69492e-10 2.3835e-08 9.53311e-08
2245 2 3.6953e-10 2.3835e-08 9.53311e-08
2246 2 3.69476e-10 2.3835e-08 9.53311e-08
2247 2 3.69494e-10 2.3835e-08 9.53311e-08
2248 2 3.69466e-10 2.3835e-08 9.53311e-08
2249 2 3.69483e-10 2.3835e-08 9.53311e-08
2250 2 3.69412e-10 2.3835e-08 9.53311e-08
2251 2 3.69499e-10 2.3835e-08 9.53311e-08
2252 2 3.69476e-10 2.3835e-08 9.53311e-08
2253 2 3.6951e-10 2.3835e-08 9.53311e-08
2254 2 3.69428e-10 2.3835e-08 9.53311e-08
2255 2 3.69506e-10 2.3835e-08 9.53311e-08
2256 2 3.69483e-10 2.3835e-08 9.53311e-08
2257 2 3.69506e-10 2.3835e-08 9.53311e-08
2258 2 3.69433e-10 2.3835e-08 9.53311e-08
2259 2 3.69511e-10 2.3835e-08 9.53311e-08
2260 2 3.69577e-10 2.3835e-08 9.53311e-08
2261 2 3.69483e-10 2.38353e-08 9.53311e-08
2262 2 3.69495e-10 2.38353e-08 9.53311e-08
2263 2 3.695e-10 2.38353e-08 9.53311e-08
2264 2 3.69487e-10 2.38353e-08 9.53311e-08
2265 2 3.69505e-10 2.38353e-08 9.53311e-08
2266 2 3.69475e-10 2.38353e-08 9.53311e-08
2267 2 3.69547e-10 2.38353e-08 9.53311e-08
2268 2 3.69452e-10 2.38353e-08 9.53311e-08
2269 2 3.69512e-10 2.38353e-08 9.53311e-08
2270 2 3.69416e-10 2.38353e-08 9.53311e-08
2271 2 3.695e-10 2.38353e-08 9.53311e-08
2272 2 3.69483e-10 2.38353e-08 9.53311e-08
2273 2 3.69481e-10 2.38353e-08 9.53311e-08
2274 2 3.6954e-10 2.38353e-08 9.53311e-08
2275 2 3.695e-10 2.38353e-08 9.53311e-08
2276 2 3.69502e-10 2.38353e-08 9.53311e-08
2277 2 3.69589e-10 2.38353e-08 9.53311e-08
2278 2 3.69455e-10 2.38353e-08 9.53311e-08
2279 2 3.6952e-10 2.38353e-08 9.53311e-08
2280 2 3.69526e-10 2.38353e-08 9.53311e-08
2281 2 3.69518e-10 2.38356e-08 9.53311e-08
2282 2 3.69474e-10 2.38356e-08 9.53311e-08
2283 2 3.69535e-10 2.38356e-08 9.53311e-08
2284 2 3.69467e-10 2.38356e-08 9.53311e-08
2285 2 3.69477e-10 2.38356e-08 9.53311e-08
2286 2 3.69553e-10 2.38356e-08 9.53311e-08
2287 2 3.69462e-10 2.38356e-08 9.53311e-08
2288 2 3.695e-10 2.38356e-08 9.53311e-08
2289 2 3.69482e-10 2.38356e-08 9.53311e-08
2290 2 3.69463e-10 2.38356e-08 9.53311e-08
2291 2 3.69496e-10 2.38356e-08 9.53311e-08
2292 2 3.69481e-10 2.38356e-08 9.53311e-08
2293 2 3.69478e-10 2.38356e-08 9.53311e-08
2294 2 3.69439e-10 2.38356e-08 9.53311e-08
2295 2 3.6952e-10 2.38356e-08 9.53311e-08
2296 2 3.69503e-10 2.38356e-08 9.53311e-08
2297 2 3.69528e-10 2.38356e-08 9.53311e-08
2298 2 3.6941e-10 2.38356e-08 9.53311e-08
2299 2 3.69527e-10 2.38356e-08 9.53311e-08
2300 2 3.69539e-10 2.38356e-08 9.53311e-08
2301 2 3.69476e-10 2.38356e-08 9.53311e-08
2302 2 3.69518e-10 2.38356e-08 9.53312e-08
2303 2 3.69498e-10 2.38356e-08 9.53312e-08
2304 2 3.69506e-10 2.38356e-08 9.53312e-08
2305 2 3.69494e-10 2.38356e-08 9.53312e-08
2306 2 3.69506e-10 2.38356e-08 9.53312e-08
2307 2 3.69503e-10 2.38356e-08 9.53312e-08
2308 2 3.69473e-10 2.38356e-08 9.53312e-08
2309 2 3.69482e-10 2.38356e-08 9.53312e-08
2310 2 3.69474e-10 2.38356e-08 9.53312e-08
2311 2 3.69476e-10 2.38356e-08 9.53312e-08
2312 2 3.69508e-10 2.38356e-08 9.53312e-08
2313 2 3.69446e-10 2.38356e-08 9.53312e-08
2314 2 3.69521e-10 2.38356e-08 9.53312e-08
2315 2 3.69458e-10 2.38356e-08 9.53312e-08
2316 2 3.69438e-10 2.38356e-08 9.53312e-08
2317 2 3.69532e-10 2.38356e-08 9.53312e-08
2318 2 3.69426e-10 2.38356e-08 9.53312e-08
2319 2 3.69469e-10 2.38356e-08 9.53312e-08
2320 2 3.6952e-10 2.38356e-08 9.53312e-08
2321 2 3.69493e-10 2.38355e-08 9.53311e-08
2322 2 3.69501e-10 2.38355e-08 9.53311e-08
2323 2 3.69515e-10 2.38355e-08 9.53311e-08
2324 2 3.69433e-10 2.38355e-08 9.53311e-08
2325 2 3.69509e-10 2.38356e-08 9.53311e-08
2326 2 3.69521e-10 2.38355e-08 9.53311e-08
2327 2 3.69527e-10 2.38355e-08 9.53311e-08
2328 2 3.69476e-10 2.38356e-08 9.53311e-08
2329 2 3.69503e-10 2.38356e-08 9.53311e-08
2330 2 3.6944e-10 2.38355e-08 9.53311e-08
2331 2 3.69528e-10 2.38356e-08 9.53311e-08
2332 2 3.69488e-10 2.38355e-08 9.53311e-08
2333 2 3.69432e-10 2.38355e-08 9.53311e-08
2334 2 3.69515e-10 2.38356e-08 9.53311e-08
2335 2 3.69463e-10 2.38355e-08 9.53311e-08
2336 2 3.69521e-10 2.38355e-08 9.53311e-08
2337 2 3.69482e-10 2.38355e-08 9.53311e-08
2338 2 3.69458e-10 2.38356e-08 9.53311e-08
2339 2 3.69491e-10 2.38355e-08 9.53311e-08
2340 2 3.69572e-10 2.38356e-08 9.53311e-08
2341 2 3.69531e-10 2.38358e-08 9.5331e-08
2342 2 3.69592e-10 2.38358e-08 9.5331e-08
2343 2 3.69597e-10 2.38358e-08 9.5331e-08
2344 2 3.69604e-10 2.38358e-08 9.5331e-08
2345 2 3.69601e-10 2.38358e-08 9.5331e-08
2346 2 3.69538e-10 2.38358e-08 9.5331e-08
2347 2 3.6953e-10 2.38358e-08 9.5331e-08
2348 2 3.69503e-10 2.38358e-08 9.5331e-08
2349 2 3.69538e-10 2.38358e-08 9.5331e-08
2350 2 3.69526e-10 2.38358e-08 9.5331e-08
2351 2 3.69492e-10 2.38358e-08 9.53311e-08
2352 2 3.69541e-10 2.38358e-08 9.5331e-08
2353 2 3.69493e-10 2.38358e-08 9.5331e-08
2354 2 3.69532e-10 2.38358e-08 9.5331e-08
2355 2 3.69473e-10 2.38358e-08 9.5331e-08
2356 2 3.69531e-10 2.38358e-08 9.5331e-08
2357 2 3.69547e-10 2.38358e-08 9.5331e-08
2358 2 3.69543e-10 2.38358e-08 9.5331e-08
2359 2 3.69459e-10 2.38358e-08 9.5331e-08
2360 2 3.69536e-10 2.38358e-08 9.5331e-08
2361 2 3.69458e-10 2.38359e-08 9.5331e-08
2362 2 3.69474e-10 2.38359e-08 9.5331e-08
2363 2 3.69498e-10 2.38359e-08 9.53311e-08
2364 2 3.69483e-10 2.38359e-08 9.53311e-08
2365 2 3.69471e-10 2.38359e-08 9.53311e-08
2366 2 3.69529e-10 2.38359e-08 9.53311e-08
2367 2 3.69496e-10 2.38359e-08 9.53311e-08
2368 2 3.6948e-10 2.38359e-08 9.5331e-08
2369 2 3.69458e-10 2.38359e-08 9.5331e-08
2370 2 3.6951e-10 2.38359e-08 9.53311e-08
2371 2 3.69484e-10 2.38359e-08 9.53311e-08
2372 2 3.6943e-10 2.38359e-08 9.53311e-08
2373 2 3.69499e-10 2.38359e-08 9.5331e-08
2374 2 3.69493e-10 2.38359e-08 9.5331e-08
2375 2 3.69525e-10 2.38359e-08 9.53311e-08
2376 2 3.69441e-10 2.38359e-08 9.53311e-08
2377 2 3.69512e-10 2.38359e-08 9.5331e-08
2378 2 3.69453e-10 2.38359e-08 9.53311e-08
2379 2 3.69502e-10 2.38359e-08 9.53311e-08
2380 2 3.69483e-10 2.38359e-08 9.53311e-08
2381 2 3.6953e-10 2.3835e-08 9.53311e-08
2382 2 3.69577e-10 2.3835e-08 9.53311e-08
2383 2 3.69551e-10 2.3835e-08 9.53311e-08
2384 2 3.69584e-10 2.3835e-08 9.53311e-08
2385 2 3.69564e-10 2.3835e-08 9.53311e-08
2386 2 3.69551e-10 2.3835e-08 9.53311e-08
2387 2 3.69526e-10 2.3835e-08 9.53311e-08
2388 2 3.6952e-10 2.3835e-08 9.53311e-08
2389 2 3.69537e-10 2.3835e-08 9.53311e-08
2390 2 3.69489e-10 2.3835e-08 9.53311e-08
2391 2 3.69537e-10 2.3835e-08 9.53311e-08
2392 2 3.6952e-10 2.38351e-08 9.53311e-08
2393 2 3.69497e-10 2.3835e-08 9.53311e-08
2394 2 3.69519e-10 2.3835e-08 9.53311e-08
2395 2 3.69705e-10 2.3835e-08 9.53311e-08
2396 2 3.69521e-10 2.3835e-08 9.53311e-08
2397 2 3.69553e-10 2.3835e-08 9.53311e-08
2398 2 3.6945e-10 2.3835e-08 9.53311e-08
2399 2 3.69729e-10 2.3835e-08 9.53311e-08
2400 2 3.6957e-10 2.3835e-08 9.53311e-08
2401 2 -0.0239746 -7.52771e-05 -6.30874e-05
2402 2 -0.0013385 0.000636315 -0.00260529
2403 2 -2.89389e-05 0.000281507 0.000293352
2404 2 -1.50418e-10 -1.47563e-08 8.64262e-09
2405 2 -1.50418e-10 -1.47563e-08 8.64264e-09
2406 2 -1.50374e-10 -1.47563e-08 8.64264e-09
2407 2 -1.50362e-10 -1.47563e-08 8.64263e-09
2408 2 -1.50381e-10 -1.47563e-08 8.64262e-09
2409 2 -1.50439e-10 -1.47563e-08 8.64262e-09
2410 2 -1.50424e-10 -1.47563e-08 8.64262e-09
2411 2 -1.50552e-10 -1.47562e-08 8.64261e-09
2412 2 -1.50439e-10 -1.47563e-08 8.64264e-09
2413 2 -1.50214e-10 -1.47563e-08 8.64266e-09
2414 2 -1.50425e-10 -1.47563e-08 8.6426e-09
2415 2 -1.50241e-10 -1.47563e-08 8.64262e-09
2416 2 -1.50459e-10 -1.47563e-08 8.64264e-09
2417 2 -1.50482e-10 -1.47563e-08 8.64264e-09
2418 2 -1.50356e-10 -1.47563e-08 8.64262e-09
2419 2 0.000118183 -0.000257777 -0.000268583
2420 2 -0.0163833 -0.00710804 -0.00392872
2421 2 -0.000759937 0.000670513 8.21369e-05
2422 2 0.000601125 0.00074963 -0.00051564
2423 2 -1.50368e-10 -1.47563e-08 8.64264e-09
2424 2 -1.50376e-10 -1.47563e-08 8.64264e-09
2425 2 -1.50379e-10 -1.47563e-08 8.64263e-09
2426 2 -1.50248e-10 -1.47563e-08 8.64265e-09
2427 2 -1.50324e-10 -1.47563e-08 8.64264e-09
2428 2 -1.50358e-10 -1.47562e-08 8.64261e-09
2429 2 -1.50398e-10 -1.47563e-08 8.64263e-09
2430 2 -1.50418e-10 -1.47563e-08 8.64261e-09
2431 2 -1.50594e-10 -1.47562e-08 8.64259e-09
2432 2 -1.50449e-10 -1.47563e-08 8.64265e-09
2433 2 -1.50031e-10 -1.47563e-08 8.64266e-09
2434 2 -1.50426e-10 -1.47563e-08 8.64259e-09
2435 2 -1.50087e-10 -1.47563e-08 8.64261e-09
2436 2 -1.50469e-10 -1.47563e-08 8.64263e-09
2437 2 -1.5051e-10 -1.47563e-08 8.64265e-09
2438 2 -1.50346e-10 -1.47563e-08 8.64263e-09
2439 2 0.000591168 -0.000688325 0.000448395
2440 2 -0.000758277 -0.000578364 -0.000133694
2441 2 -1.5031e-10 -1.47562e-08 8.64262e-09
2442 2 -1.50394e-10 -1.47563e-08 8.64263e-09
2443 2 -1.50377e-10 -1.47562e-08 8.64261e-09
2444 2 -1.50536e-10 -1.47562e-08 8.64263e-09
2445 2 -1.50396e-10 -1.47562e-08 8.64263e-09
2446 2 -1.50351e-10 -1.47563e-08 8.64264e-09
2447 2 -1.50334e-10 -1.47563e-08 8.64262e-09
2448 2 -1.50338e-10 -1.47562e-08 8.64263e-09
2449 2 -1.50403e-10 -1.47563e-08 8.64263e-09
2450 2 -1.50329e-10 -1.47563e-08 8.64259e-09
2451 2 -1.5057e-10 -1.47562e-08 8.64262e-09
2452 2 -1.50394e-10 -1.47563e-08 8.64265e-09
2453 2 -1.50025e-10 -1.47563e-08 8.64266e-09
2454 2 -1.50353e-10 -1.47562e-08 8.64259e-09
2455 2 -1.50067e-10 -1.47562e-08 8.64261e-09
2456 2 -1.50473e-10 -1.47562e-08 8.6426e-09
2457 2 -1.50542e-10 -1.47563e-08 8.64269e-09
2458 2 -1.50452e-10 -1.47563e-08 8.64262e-09
2459 2 -1.50466e-10 -1.47563e-08 8.64263e-09
2460 2 -1.50352e-10 -1.47563e-08 8.64273e-09
2461 2 -1.50441e-10 -1.47563e-08 8.64261e-09
2462 2 -1.50436e-10 -1.47563e-08 8.64262e-09
2463 2 -1.50399e-10 -1.47564e-08 8.64264e-09
2464 2 -1.50444e-10 -1.47563e-08 8.64261e-09
2465 2 -1.5051e-10 -1.47563e-08 8.64262e-09
2466 2 -1.50473e-10 -1.47563e-08 8.64264e-09
2467 2 -1.50363e-10 -1.47563e-08 8.64262e-09
2468 2 -1.50345e-10 -1.47563e-08 8.64261e-09
2469 2 -1.50378e-10 -1.47563e-08 8.64262e-09
2470 2 -1.50451e-10 -1.47563e-08 8.64257e-09
2471 2 -1.50547e-10 -1.47563e-08 8.64264e-09
2472 2 -1.50197e-10 -1.47564e-08 8.6426e-09
2473 2 -1.50255e-10 -1.47564e-08 8.64271e-09
2474 2 -1.50113e-10 -1.47563e-08 8.64255e-09
2475 2 -1.50319e-10 -1.47563e-08 8.64266e-09
2476 2 -1.50166e-10 -1.47563e-08 8.64258e-09
2477 2 -1.5053e-10 -1.47564e-08 8.64271e-09
2478 2 -1.50423e-10 -1.47563e-08 8.64262e-09
2479 2 -1.5044e-10 -1.47563e-08 8.64262e-09
2480 2 -1.50501e-10 -1.47563e-08 8.64269e-09
2481 2 -1.5039e-10 -1.47562e-08 8.64263e-09
2482 2 -1.50405e-10 -1.47562e-08 8.64263e-09
2483 2 -1.50407e-10 -1.47562e-08 8.64263e-09
2484 2 -1.5039e-10 -1.47563e-08 8.64265e-09
2485 2 -1.50404e-10 -1.47562e-08 8.64263e-09
2486 2 -1.50374e-10 -1.47563e-08 8.64265e-09
2487 2 -1.50359e-10 -1.47563e-08 8.64263e-09
2488 2 -1.50478e-10 -1.47562e-08 8.64262e-09
2489 2 -1.50393e-10 -1.47563e-08 8.64264e-09
2490 2 -1.50512e-10 -1.47563e-08 8.6426e-09
2491 2 -1.50549e-10 -1.47562e-08 8.64265e-09
2492 2 -1.50426e-10 -1.47563e-08 8.64261e-09
2493 2 -1.5027e-10 -1.47563e-08 8.6427e-09
2494 2 -1.50331e-10 -1.47562e-08 8.64257e-09
2495 2 -1.50284e-10 -1.47563e-08 8.64267e-09
2496 2 -1.50345e-10 -1.47563e-08 8.64262e-09
2497 2 -1.50352e-10 -1.47562e-08 8.64265e-09
2498 2 -1.50508e-10 -1.47563e-08 8.64265e-09
2499 2 -1.50476e-10 -1.47563e-08 8.64264e-09
2500 2 -1.50497e-10 -1.47562e-08 8.6427e-09
2501 2 -1.5039e-10 -1.47562e-08 8.64261e-09
2502 2 -1.50406e-10 -1.47562e-08 8.64259e-09
2503 2 -1.50423e-10 -1.47562e-08 8.64259e-09
2504 2 -1.50393e-10 -1.47562e-08 8.64263e-09
2505 2 -1.50341e-10 -1.47562e-08 8.64258e-09
2506 2 -1.50328e-10 -1.47562e-08 8.6426e-09
2507 2 -1.50316e-10 -1.47562e-08 8.64261e-09
2508 2 -1.50441e-10 -1.47562e-08 8.64256e-09
2509 2 -1.50397e-10 -1.47562e-08 8.64259e-09
2510 2 -1.5063e-10 -1.47562e-08 8.64256e-09
2511 2 -1.50681e-10 -1.47562e-08 8.64258e-09
2512 2 -1.50682e-10 -1.47563e-08 8.64261e-09
2513 2 -1.50377e-10 -1.47562e-08 8.64266e-09
2514 2 -1.50503e-10 -1.47562e-08 8.64256e-09
2515 2 -1.50452e-10 -1.47562e-08 8.64254e-09
2516 2 -1.50534e-10 -1.47563e-08 8.64268e-09
2517 2 -1.50441e-10 -1.47562e-08 8.6426e-09
2518 2 -1.50521e-10 -1.47562e-08 8.64255e-09
2519 2 -1.50656e-10 -1.47562e-08 8.64263e-09
2520 2 -1.50445e-10 -1.47562e-08 8.64263e-09
2521 2 -1.50606e-10 -1.47563e-08 8.64263e-09
2522 2 -1.50505e-10 -1.47563e-08 8.64259e-09
2523 2 -1.50455e-10 -1.47563e-08 8.64261e-09
2524 2 -1.50448e-10 -1.47563e-08 8.6426e-09
2525 2 -1.50443e-10 -1.47563e-08 8.6426e-09
2526 2 -1.50299e-10 -1.47563e-08 8.64265e-09
2527 2 -1.50342e-10 -1.47563e-08 8.64258e-09
2528 2 -1.50552e-10 -1.47563e-08 8.64259e-09
2529 2 -1.50503e-10 -1.47563e-08 8.6426e-09
2530 2 -1.50521e-10 -1.47563e-08 8.64262e-09
2531 2 -1.50646e-10 -1.47563e-08 8.64255e-09
2532 2 -1.50375e-10 -1.47563e-08 8.64264e-09
2533 2 -1.5042e-10 -1.47563e-08 8.64257e-09
2534 2 -1.50321e-10 -1.47563e-08 8.64261e-09
2535 2 -1.50468e-10 -1.47563e-08 8.64254e-09
2536 2 -1.50548e-10 -1.47563e-08 8.64268e-09
2537 2 -1.50586e-10 -1.47563e-08 8.6426e-09
2538 2 -1.50398e-10 -1.47563e-08 8.64259e-09
2539 2 -1.50376e-10 -1.47563e-08 8.64263e-09
2540 2 -1.50432e-10 -1.47563e-08 8.64259e-09
2541 2 -1.50323e-10 -1.47562e-08 8.64263e-09
2542 2 -1.50485e-10 -1.47562e-08 8.64263e-09
2543 2 -1.50341e-10 -1.47562e-08 8.64263e-09
2544 2 -1.50423e-10 -1.47562e-08 8.64266e-09
2545 2 -1.50413e-10 -1.47562e-08 8.64265e-09
2546 2 -1.50252e-10 -1.47562e-08 8.64266e-09
2547 2 -1.50325e-10 -1.47562e-08 8.64264e-09
2548 2 -1.50326e-10 -1.47562e-08 8.64259e-09
2549 2 -1.50466e-10 -1.47562e-08 8.64265e-09
2550 2 -1.50474e-10 -1.47562e-08 8.64262e-09
2551 2 -1.50506e-10 -1.47562e-08 8.64267e-09
2552 2 -1.50459e-10 -1.47562e-08 8.64261e-09
2553 2 -1.50374e-10 -1.47563e-08 8.64275e-09
2554 2 -1.50486e-10 -1.47562e-08 8.64254e-09
2555 2 -1.5046e-10 -1.47562e-08 8.64268e-09
2556 2 -1.50445e-10 -1.47563e-08 8.64265e-09
2557 2 -1.50409e-10 -1.47562e-08 8.64266e-09
2558 2 -1.50409e-10 -1.47562e-08 8.64262e-09
2559 2 -1.50437e-10 -1.47562e-08 8.64263e-09
2560 2 -1.50537e-10 -1.47562e-08 8.64263e-09
2561 2 -1.50228e-10 -1.47562e-08 8.64273e-09
2562 2 -1.50199e-10 -1.47562e-08 8.64268e-09
2563 2 -1.50253e-10 -1.47562e-08 8.64266e-09
2564 2 -1.50337e-10 -1.47562e-08 8.6427e-09
2565 2 -1.50247e-10 -1.47562e-08 8.64271e-09
2566 2 -1.50186e-10 -1.47562e-08 8.64272e-09
2567 2 -1.50297e-10 -1.47562e-08 8.64269e-09
2568 2 -1.50314e-10 -1.47562e-08 8.64265e-09
2569 2 -1.50439e-10 -1.47562e-08 8.6427e-09
2570 2 -1.50429e-10 -1.47562e-08 8.6427e-09
2571 2 -1.50289e-10 -1.47562e-08 8.64266e-09
2572 2 -1.50443e-10 -1.47562e-08 8.64272e-09
2573 2 -1.50093e-10 -1.47562e-08 8.64274e-09
2574 2 -1.50423e-10 -1.47562e-08 8.64265e-09
2575 2 -1.50337e-10 -1.47562e-08 8.64267e-09
2576 2 -1.50459e-10 -1.47562e-08 8.64271e-09
2577 2 -1.50186e-10 -1.47562e-08 8.64275e-09
2578 2 -1.50345e-10 -1.47562e-08 8.64264e-09
2579 2 -1.50403e-10 -1.47562e-08 8.64268e-09
2580 2 -1.50256e-10 -1.47561e-08 8.64274e-09
2581 2 -1.50379e-10 -1.47562e-08 8.64261e-09
2582 2 -1.50479e-10 -1.47563e-08 8.64261e-09
2583 2 -1.50527e-10 -1.47562e-08 8.64261e-09
2584 2 -1.50621e-10 -1.47563e-08 8.64266e-09
2585 2 -1.50497e-10 -1.47563e-08 8.64262e-09
2586 2 -1.50356e-10 -1.47563e-08 8.64266e-09
2587 2 -1.50446e-10 -1.47562e-08 8.64258e-09
2588 2 -1.50534e-10 -1.47563e-08 8.64261e-09
2589 2 -1.50637e-10 -1.47562e-08 8.64264e-09
2590 2 -1.50642e-10 -1.47562e-08 8.64265e-09
2591 2 -1.50641e-10 -1.47563e-08 8.6426e-09
2592 2 -1.50346e-10 -1.47563e-08 8.64265e-09
2593 2 -1.50348e-10 -1.47563e-08 8.64265e-09
2594 2 -1.50225e-10 -1.47562e-08 8.64262e-09
2595 2 -1.5036e-10 -1.47563e-08 8.64262e-09
2596 2 -1.50537e-10 -1.47563e-08 8.64262e-09
2597 2 -1.50655e-10 -1.47563e-08 8.64265e-09
2598 2 -1.50453e-10 -1.47563e-08 8.6426e-09
2599 2 -1.50463e-10 -1.47563e-08 8.64261e-09
2600 2 -1.50553e-10 -1.47562e-08 8.64262e-09
2601 2 -1.50221e-10 -1.47562e-08 8.64266e-09
2602 2 -1.50173e-10 -1.47562e-08 8.64265e-09
2603 2 -1.50141e-10 -1.47562e-08 8.64266e-09
2604 2 -1.50379e-10 -1.47562e-08 8.64261e-09
2605 2 -1.50321e-10 -1.47562e-08 8.64264e-09
2606 2 -1.50194e-10 -1.47562e-08 8.64267e-09
2607 2 -1.50238e-10 -1.47562e-08 8.64261e-09
2608 2 -1.50525e-10 -1.47562e-08 8.64265e-09
2609 2 -1.50262e-10 -1.47562e-08 8.64265e-09
2610 2 -1.50422e-10 -1.47562e-08 8.6427e-09
2611 2 -1.50562e-10 -1.47562e-08 8.64258e-09
2612 2 -1.50436e-10 -1.47563e-08 8.64273e-09
2613 2 -1.50002e-10 -1.47562e-08 8.64261e-09
2614 2 -1.50401e-10 -1.47562e-08 8.64263e-09
2615 2 -1.50236e-10 -1.47562e-08 8.64265e-09
2616 2 -1.50444e-10 -1.47562e-08 8.64262e-09
2617 2 -1.50564e-10 -1.47562e-08 8.64271e-09
2618 2 -1.50323e-10 -1.47562e-08 8.64265e-09
2619 2 -1.50559e-10 -1.47562e-08 8.64262e-09
2620 2 -1.50374e-10 -1.47562e-08 8.64269e-09
2621 2 -1.50429e-10 -1.47563e-08 8.6426e-09
2622 2 -1.50546e-10 -1.47563e-08 8.64264e-09
2623 2 -1.50568e-10 -1.47563e-08 8.64263e-09
2624 2 -1.50588e-10 -1.47563e-08 8.64269e-09
2625 2 -1.50578e-10 -1.47563e-08 8.64257e-09
2626 2 -1.50475e-10 -1.47564e-08 8.64269e-09
2627 2 -1.50347e-10 -1.47563e-08 8.64264e-09
2628 2 -1.50342e-10 -1.47563e-08 8.64265e-09
2629 2 -1.50573e-10 -1.47563e-08 8.64254e-09
2630 2 -1.50635e-10 -1.47564e-08 8.64267e-09
2631 2 -1.50639e-10 -1.47563e-08 8.64258e-09
2632 2 -1.50415e-10 -1.47564e-08 8.64265e-09
2633 2 -1.50311e-10 -1.47563e-08 8.6427e-09
2634 2 -1.5047e-10 -1.47563e-08 8.64258e-09
2635 2 -1.50484e-10 -1.47563e-08 8.64267e-09
2636 2 -1.50484e-10 -1.47563e-08 8.64259e-09
2637 2 -1.50551e-10 -1.47564e-08 8.64274e-09
2638 2 -1.50278e-10 -1.47563e-08 8.64262e-09
2639 2 -1.50356e-10 -1.47563e-08 8.64261e-09
2640 2 -1.50632e-10 -1.47562e-08 8.64253e-09
2641 2 -1.5005e-10 -1.47562e-08 8.64256e-09
2642 2 -1.50175e-10 -1.47562e-08 8.64254e-09
2643 2 -1.50247e-10 -1.47563e-08 8.64257e-09
2644 2 -1.50384e-10 -1.47562e-08 8.64254e-09
2645 2 -1.50372e-10 -1.47563e-08 8.64261e-09
2646 2 -1.50217e-10 -1.47563e-08 8.64257e-09
2647 2 -1.50223e-10 -1.47563e-08 8.64257e-09
2648 2 -1.50217e-10 -1.47563e-08 8.64257e-09
2649 2 -1.50111e-10 -1.47563e-08 8.64257e-09
2650 2 -1.50164e-10 -1.47562e-08 8.64254e-09
2651 2 -1.5067e-10 -1.47562e-08 8.64256e-09
2652 2 -1.50511e-10 -1.47563e-08 8.64257e-09
2653 2 -1.50534e-10 -1.47563e-08 8.64265e-09
2654 2 -1.50298e-10 -1.47562e-08 8.64253e-09
2655 2 -1.50384e-10 -1.47563e-08 8.64255e-09
2656 2 -1.50429e-10 -1.47562e-08 8.64257e-09
2657 2 -1.50701e-10 -1.47563e-08 8.64263e-09
2658 2 -1.50262e-10 -1.47563e-08 8.64258e-09
2659 2 -1.50266e-10 -1.47563e-08 8.64257e-09
2660 2 -1.50375e-10 -1.47563e-08 8.64256e-09
2661 2 -1.5033e-10 -1.47562e-08 8.64263e-09
2662 2 -1.50486e-10 -1.47562e-08 8.64263e-09
2663 2 -1.5061e-10 -1.47562e-08 8.64266e-09
2664 2 -1.50564e-10 -1.47562e-08 8.64264e-09
2665 2 -1.50403e-10 -1.47563e-08 8.64268e-09
2666 2 -1.50424e-10 -1.47562e-08 8.64264e-09
2667 2 -1.5034e-10 -1.47563e-08 8.64262e-09
2668 2 -1.50475e-10 -1.47562e-08 8.64257e-09
2669 2 -1.50652e-10 -1.47562e-08 8.64265e-09
2670 2 -1.50638e-10 -1.47562e-08 8.64265e-09
2671 2 -1.50562e-10 -1.47563e-08 8.64268e-09
2672 2 -1.50251e-10 -1.47562e-08 8.64266e-09
2673 2 -1.50467e-10 -1.47562e-08 8.6426e-09
2674 2 -1.5049e-10 -1.47563e-08 8.64268e-09
2675 2 -1.50629e-10 -1.47562e-08 8.64262e-09
2676 2 -1.50456e-10 -1.47563e-08 8.64266e-09
2677 2 -1.50443e-10 -1.47563e-08 8.64273e-09
2678 2 -1.50199e-10 -1.47562e-08 8.6426e-09
2679 2 -1.50335e-10 -1.47562e-08 8.6426e-09
2680 2 -1.5057e-10 -1.47562e-08 8.64254e-09
2681 2 -1.50417e-10 -1.47562e-08 8.64274e-09
2682 2 -1.50489e-10 -1.47562e-08 8.64272e-09
2683 2 -1.50437e-10 -1.47563e-08 8.64274e-09
2684 2 -1.50426e-10 -1.47562e-08 8.64276e-09
2685 2 -1.5038e-10 -1.47562e-08 8.64269e-09
2686 2 -1.50467e-10 -1.47562e-08 8.64274e-09
2687 2 -1.50291e-10 -1.47562e-08 8.64272e-09
2688 2 -1.50322e-10 -1.47562e-08 8.64272e-09
2689 2 -1.50315e-10 -1.47562e-08 8.64272e-09
2690 2 -1.50373e-10 -1.47562e-08 8.6427e-09
2691 2 -1.50762e-10 -1.47562e-08 8.64271e-09
2692 2 -1.50482e-10 -1.47562e-08 8.6428e-09
2693 2 -1.50368e-10 -1.47562e-08 8.64275e-09
2694 2 -1.50357e-10 -1.47562e-08 8.64271e-09
2695 2 -1.50325e-10 -1.47562e-08 8.64276e-09
2696 2 -1.50354e-10 -1.47562e-08 8.64268e-09
2697 2 -1.50499e-10 -1.47562e-08 8.6428e-09
2698 2 -1.50237e-10 -1.47562e-08 8.64272e-09
2699 2 -1.50291e-10 -1.47562e-08 8.6427e-09
2700 2 -1.50535e-10 -1.47562e-08 8.64264e-09
2701 2 -1.50373e-10 -1.47562e-08 8.64259e-09
2702 2 -1.50506e-10 -1.47562e-08 8.64262e-09
2703 2 -1.50397e-10 -1.47562e-08 8.64261e-09
2704 2 -1.5049e-10 -1.47562e-08 8.64261e-09
2705 2 -1.50488e-10 -1.47562e-08 8.6426e-09
2706 2 -1.50451e-10 -1.47562e-08 8.64263e-09
2707 2 -1.50418e-10 -1.47562e-08 8.64261e-09
2708 2 -1.5045e-10 -1.47562e-08 8.64258e-09
2709 2 -1.50487e-10 -1.47562e-08 8.6426e-09
2710 2 -1.50422e-10 -1.47563e-08 8.64265e-09
2711 2 -1.50571e-10 -1.47562e-08 8.64253e-09
2712 2 -1.50433e-10 -1.47563e-08 8.6427e-09
2713 2 -1.50326e-10 -1.47562e-08 8.64259e-09
2714 2 -1.50559e-10 -1.47562e-08 8.64256e-09
2715 2 -1.50434e-10 -1.47562e-08 8.64261e-09
2716 2 -1.504e-10 -1.47562e-08 8.64264e-09
2717 2 -1.50695e-10 -1.47562e-08 8.64262e-09
2718 2 -1.50511e-10 -1.47562e-08 8.64261e-09
2719 2 -1.50259e-10 -1.47562e-08 8.64262e-09
2720 2 -1.50139e-10 -1.47563e-08 8.64257e-09
2721 2 -1.50504e-10 -1.47564e-08 8.64254e-09
2722 2 -1.50761e-10 -1.47565e-08 8.6426e-09
2723 2 -1.50763e-10 -1.47565e-08 8.64266e-09
2724 2 -1.50667e-10 -1.47565e-08 8.64259e-09
2725 2 -1.50755e-10 -1.47565e-08 8.64267e-09
2726 2 -1.50474e-10 -1.47565e-08 8.64261e-09
2727 2 -1.50413e-10 -1.47565e-08 8.64263e-09
2728 2 -1.50545e-10 -1.47564e-08 8.64251e-09
2729 2 -1.50767e-10 -1.47565e-08 8.64261e-09
2730 2 -1.50779e-10 -1.47565e-08 8.64259e-09
2731 2 -1.51005e-10 -1.47565e-08 8.64265e-09
2732 2 -1.5052e-10 -1.47565e-08 8.64269e-09
2733 2 -1.50504e-10 -1.47564e-08 8.64251e-09
2734 2 -1.50871e-10 -1.47565e-08 8.64268e-09
2735 2 -1.50741e-10 -1.47564e-08 8.64251e-09
2736 2 -1.50862e-10 -1.47565e-08 8.64268e-09
2737 2 -1.5052e-10 -1.47565e-08 8.64265e-09
2738 2 -1.50616e-10 -1.47565e-08 8.64259e-09
2739 2 -1.50817e-10 -1.47564e-08 8.64247e-09
2740 2 -1.51188e-10 -1.47564e-08 8.64259e-09
2741 2 -1.50255e-10 -1.47563e-08 8.64277e-09
2742 2 -1.50332e-10 -1.47563e-08 8.64274e-09
2743 2 -1.50241e-10 -1.47563e-08 8.64273e-09
2744 2 -1.50275e-10 -1.47563e-08 8.6427e-09
2745 2 -1.50551e-10 -1.47563e-08 8.64274e-09
2746 2 -1.50194e-10 -1.47563e-08 8.64273e-09
2747 2 -1.50078e-10 -1.47563e-08 8.64279e-09
2748 2 -1.50114e-10 -1.47562e-08 8.64261e-09
2749 2 -1.50267e-10 -1.47563e-08 8.64272e-09
2750 2 -1.50572e-10 -1.47563e-08 8.64275e-09
2751 2 -1.50659e-10 -1.47563e-08 8.64269e-09
2752 2 -1.50224e-10 -1.47563e-08 8.64281e-09
2753 2 -1.50341e-10 -1.47562e-08 8.6427e-09
2754 2 -1.50549e-10 -1.47563e-08 8.6427e-09
2755 2 -1.50423e-10 -1.47563e-08 8.64271e-09
2756 2 -1.50541e-10 -1.47563e-08 8.64276e-09
2757 2 -1.506e-10 -1.47563e-08 8.64275e-09
2758 2 -1.50076e-10 -1.47563e-08 8.64272e-09
2759 2 -1.50258e-10 -1.47562e-08 8.64271e-09
2760 2 -1.50447e-10 -1.47562e-08 8.6426e-09
2761 2 -1.50244e-10 -1.47562e-08 8.64257e-09
2762 2 -1.50376e-10 -1.47563e-08 8.64266e-09
2763 2 -1.50337e-10 -1.47562e-08 8.6426e-09
2764 2 -1.50307e-10 -1.47563e-08 8.64264e-09
2765 2 -1.50289e-10 -1.47563e-08 8.64262e-09
2766 2 -1.50171e-10 -1.47563e-08 8.64269e-09
2767 2 -1.50149e-10 -1.47562e-08 8.64253e-09
2768 2 -1.5027e-10 -1.47563e-08 8.64262e-09
2769 2 -1.50314e-10 -1.47563e-08 8.64261e-09
2770 2 -1.50514e-10 -1.47563e-08 8.64267e-09
2771 2 -1.50607e-10 -1.47562e-08 8.64262e-09
2772 2 -1.501e-10 -1.47563e-08 8.64263e-09
2773 2 -1.50103e-10 -1.47563e-08 8.64273e-09
2774 2 -1.50425e-10 -1.47562e-08 8.64253e-09
2775 2 -1.50427e-10 -1.47562e-08 8.6426e-09
2776 2 -1.5001e-10 -1.47563e-08 8.64271e-09
2777 2 -1.50287e-10 -1.47563e-08 8.64267e-09
2778 2 -1.49821e-10 -1.47562e-08 8.64257e-09
2779 2 -1.50544e-10 -1.47562e-08 8.6425e-09
2780 2 -1.49954e-10 -1.47563e-08 8.6428e-09
2781 2 7.8267e-06 0.000146318 6.78853e-05
2782 2 -3.86615e-08 -1.23574e-05 -1.16613e-05
2783 2 3.7976e-08 -4.98603e-08 -8.30796e-09
2784 2 -1.50405e-10 -1.47563e-08 8.64257e-09
2785 2 -1.50636e-10 -1.47563e-08 8.64252e-09
2786 2 -1.50688e-10 -1.47563e-08 8.64255e-09
2787 2 -1.50229e-10 -1.47563e-08 8.64253e-09
2788 2 -1.50669e-10 -1.47563e-08 8.64253e-09
2789 2 -1.50292e-10 -1.47563e-08 8.64257e-09
2790 2 -1.5055e-10 -1.47563e-08 8.64254e-09
2791 2 -1.50735e-10 -1.47563e-08 8.64252e-09
2792 2 -1.50435e-10 -1.47563e-08 8.64252e-09
2793 2 -1.50409e-10 -1.47563e-08 8.64257e-09
2794 2 -1.50423e-10 -1.47563e-08 8.64253e-09
2795 2 -1.50364e-10 -1.47564e-08 8.64259e-09
2796 2 -1.50319e-10 -1.47563e-08 8.64252e-09
2797 2 -1.50199e-10 -1.47564e-08 8.64259e-09
2798 2 -1.50297e-10 -1.47562e-08 8.64245e-09
2799 2 -1.50616e-10 -1.47563e-08 8.64254e-09
2800 2 3.82876e-08 2.06346e-08 2.57316e-08
2801 2 -1.32224e-10 1.51554e-08 -8.78192e-09
2802 2 -1.32054e-10 1.51553e-08 -8.78184e-09
2803 2 -1.32058e-10 1.51553e-08 -8.78183e-09
2804 2 -1.32003e-10 1.51553e-08 -8.78184e-09
2805 2 -1.3199e-10 1.51553e-08 -8.78183e-09
2806 2 -1.3211e-10 1.51553e-08 -8.78183e-09
2807 2 -1.32098e-10 1.51554e-08 -8.78185e-09
2808 2 -1.32169e-10 1.51553e-08 -8.78182e-09
2809 2 -1.32152e-10 1.51553e-08 -8.7818e-09
2810 2 -1.32162e-10 1.51554e-08 -8.78187e-09
2811 2 -1.32098e-10 1.51554e-08 -8.78186e-09
2812 2 -1.31919e-10 1.51553e-08 -8.78187e-09
2813 2 -1.32051e-10 1.51553e-08 -8.78181e-09
2814 2 -1.31891e-10 1.51553e-08 -8.78187e-09
2815 2 -1.32044e-10 1.51553e-08 -8.78182e-09
2816 2 -1.31917e-10 1.51554e-08 -8.78182e-09
2817 2 -1.32191e-10 1.51553e-08 -8.78183e-09
2818 2 -1.31936e-10 1.51554e-08 -8.78182e-09
2819 2 -1.32165e-10 1.51553e-08 -8.78184e-09
2820 2 -1.32056e-10 1.51553e-08 -8.78182e-09
2821 2 -1.32038e-10 1.51553e-08 -8.78184e-09
2822 2 -1.32061e-10 1.51553e-08 -8.78183e-09
2823 2 -1.32068e-10 1.51553e-08 -8.78185e-09
2824 2 -1.32011e-10 1.51553e-08 -8.78184e-09
2825 2 -1.32093e-10 1.51553e-08 -8.78183e-09
2826 2 -1.32108e-10 1.51554e-08 -8.78181e-09
2827 2 -1.32105e-10 1.51554e-08 -8.78185e-09
2828 2 -1.3214e-10 1.51553e-08 -8.78182e-09
2829 2 -1.32086e-10 1.51553e-08 -8.78186e-09
2830 2 -1.32094e-10 1.51553e-08 -8.78182e-09
2831 2 -1.3212e-10 1.51553e-08 -8.78182e-09
2832 2 -1.31786e-10 1.51554e-08 -8.78191e-09
2833 2 -1.32119e-10 1.51553e-08 -8.78177e-09
2834 2 -1.31788e-10 1.51554e-08 -8.78191e-09
2835 2 -1.32108e-10 1.51553e-08 -8.78178e-09
2836 2 -1.3169e-10 1.51554e-08 -8.7819e-09
2837 2 -1.32136e-10 1.51553e-08 -8.78178e-09
2838 2 -1.32245e-10 1.51554e-08 -8.78188e-09
2839 2 -1.32175e-10 1.51553e-08 -8.78183e-09
2840 2 -1.32036e-10 1.51553e-08 -8.78183e-09
2841 2 -1.32085e-10 1.51554e-08 -8.78186e-09
2842 2 -1.32049e-10 1.51554e-08 -8.78183e-09
2843 2 -1.32054e-10 1.51553e-08 -8.78184e-09
2844 2 -1.32032e-10 1.51554e-08 -8.78183e-09
2845 2 -1.32099e-10 1.51553e-08 -8.78183e-09
2846 2 -1.32105e-10 1.51554e-08 -8.78181e-09
2847 2 -1.32092e-10 1.51554e-08 -8.78184e-09
2848 2 -1.32084e-10 1.51553e-08 -8.78181e-09
2849 2 -1.32107e-10 1.51553e-08 -8.78183e-09
2850 2 -1.32099e-10 1.51554e-08 -8.78182e-09
2851 2 -1.32127e-10 1.51553e-08 -8.78181e-09
2852 2 -1.32089e-10 1.51554e-08 -8.78189e-09
2853 2 -1.32164e-10 1.51553e-08 -8.78177e-09
2854 2 -1.32074e-10 1.51554e-08 -8.78189e-09
2855 2 -1.32145e-10 1.51553e-08 -8.78178e-09
2856 2 -1.31812e-10 1.51554e-08 -8.78187e-09
2857 2 -1.3225e-10 1.51553e-08 -8.78179e-09
2858 2 -1.32364e-10 1.51554e-08 -8.78187e-09
2859 2 -1.32195e-10 1.51553e-08 -8.78183e-09
2860 2 -1.32585e-10 1.51553e-08 -8.7818e-09
2861 2 -1.32125e-10 1.51554e-08 -8.78188e-09
2862 2 -1.3205e-10 1.51554e-08 -8.78184e-09
2863 2 -1.3204e-10 1.51554e-08 -8.78184e-09
2864 2 -1.32071e-10 1.51554e-08 -8.78183e-09
2865 2 -1.32078e-10 1.51554e-08 -8.78184e-09
2866 2 -1.32092e-10 1.51554e-08 -8.78184e-09
2867 2 -1.32061e-10 1.51554e-08 -8.78186e-09
2868 2 -1.32078e-10 1.51554e-08 -8.78181e-09
2869 2 -1.32001e-10 1.51554e-08 -8.78183e-09
2870 2 -1.32093e-10 1.51554e-08 -8.78184e-09
2871 2 -1.32088e-10 1.51554e-08 -8.78182e-09
2872 2 -1.32082e-10 1.51554e-08 -8.78187e-09
2873 2 -1.32157e-10 1.51554e-08 -8.78182e-09
2874 2 -1.32073e-10 1.51554e-08 -8.78187e-09
2875 2 -1.32113e-10 1.51554e-08 -8.78185e-09
2876 2 -1.31767e-10 1.51554e-08 -8.78183e-09
2877 2 -1.32214e-10 1.51554e-08 -8.78184e-09
2878 2 -1.32227e-10 1.51554e-08 -8.78184e-09
2879 2 -1.32202e-10 1.51554e-08 -8.78185e-09
2880 2 -1.32328e-10 1.51554e-08 -8.78182e-09
2881 2 -1.3192e-10 1.51554e-08 -8.78177e-09
2882 2 -1.32032e-10 1.51553e-08 -8.78184e-09
2883 2 -1.32017e-10 1.51553e-08 -8.78185e-09
2884 2 -1.32072e-10 1.51553e-08 -8.78183e-09
2885 2 -1.32177e-10 1.51553e-08 -8.78184e-09
2886 2 -1.32151e-10 1.51554e-08 -8.78187e-09
2887 2 -1.32091e-10 1.51554e-08 -8.78184e-09
2888 2 -1.32121e-10 1.51553e-08 -8.78183e-09
2889 2 -1.32064e-10 1.51553e-08 -8.78182e-09
2890 2 -1.32037e-10 1.51554e-08 -8.78189e-09
2891 2 -1.32054e-10 1.51553e-08 -8.78181e-09
2892 2 -1.31947e-10 1.51554e-08 -8.7819e-09
2893 2 -1.32022e-10 1.51553e-08 -8.78178e-09
2894 2 -1.31972e-10 1.51554e-08 -8.78188e-09
2895 2 -1.31983e-10 1.51553e-08 -8.78184e-09
2896 2 -1.31966e-10 1.51554e-08 -8.78179e-09
2897 2 -1.3203e-10 1.51553e-08 -8.78191e-09
2898 2 -1.32136e-10 1.51553e-08 -8.78185e-09
2899 2 -1.32225e-10 1.51553e-08 -8.78181e-09
2900 2 -1.3257e-10 1.51553e-08 -8.78187e-09
2901 2 -1.32024e-10 1.51553e-08 -8.78182e-09
2902 2 -1.32082e-10 1.51553e-08 -8.78181e-09
2903 2 -1.32056e-10 1.51554e-08 -8.78186e-09
2904 2 -1.32015e-10 1.51554e-08 -8.78183e-09
2905 2 -1.32043e-10 1.51553e-08 -8.7818e-09
2906 2 -1.32076e-10 1.51554e-08 -8.78184e-09
2907 2 -1.32063e-10 1.51553e-08 -8.78183e-09
2908 2 -1.32162e-10 1.51554e-08 -8.78182e-09
2909 2 -1.31965e-10 1.51554e-08 -8.78184e-09
2910 2 -1.31955e-10 1.51553e-08 -8.7818e-09
2911 2 -1.319e-10 1.51554e-08 -8.78182e-09
2912 2 -1.31967e-10 1.51553e-08 -8.78183e-09
2913 2 -1.32126e-10 1.51554e-08 -8.78182e-09
2914 2 -1.31957e-10 1.51554e-08 -8.78183e-09
2915 2 -1.31795e-10 1.51554e-08 -8.78187e-09
2916 2 -1.31922e-10 1.51553e-08 -8.78177e-09
2917 2 -1.32172e-10 1.51553e-08 -8.78185e-09
2918 2 -1.32114e-10 1.51553e-08 -8.78183e-09
2919 2 -1.32105e-10 1.51553e-08 -8.78182e-09
2920 2 -1.32251e-10 1.51553e-08 -8.78183e-09
2921 2 -1.32284e-10 1.51554e-08 -8.78192e-09
2922 2 -1.32109e-10 1.51553e-08 -8.78188e-09
2923 2 -1.32092e-10 1.51553e-08 -8.78187e-09
2924 2 -1.32116e-10 1.51553e-08 -8.78189e-09
2925 2 -1.32142e-10 1.51553e-08 -8.78186e-09
2926 2 -1.32048e-10 1.51553e-08 -8.7819e-09
2927 2 -1.32115e-10 1.51553e-08 -8.78184e-09
2928 2 -1.32163e-10 1.51553e-08 -8.78187e-09
2929 2 -1.32014e-10 1.51553e-08 -8.78191e-09
2930 2 -1.32005e-10 1.51553e-08 -8.78184e-09
2931 2 -1.319e-10 1.51553e-08 -8.78185e-09
2932 2 -1.32038e-10 1.51553e-08 -8.78191e-09
2933 2 -1.31945e-10 1.51553e-08 -8.78182e-09
2934 2 -1.32039e-10 1.51553e-08 -8.78191e-09
2935 2 -1.31934e-10 1.51553e-08 -8.78183e-09
2936 2 -1.32064e-10 1.51553e-08 -8.78187e-09
2937 2 -1.32136e-10 1.51553e-08 -8.78187e-09
2938 2 -1.32119e-10 1.51553e-08 -8.7819e-09
2939 2 -1.32269e-10 1.51552e-08 -8.78188e-09
2940 2 -1.32342e-10 1.51553e-08 -8.7818e-09
2941 2 -1.32074e-10 1.51554e-08 -8.78185e-09
2942 2 -1.32023e-10 1.51553e-08 -8.78182e-09
2943 2 -1.32108e-10 1.51554e-08 -8.78182e-09
2944 2 -1.32108e-10 1.51554e-08 -8.78182e-09
2945 2 -1.32072e-10 1.51554e-08 -8.78184e-09
2946 2 -1.32031e-10 1.51553e-08 -8.7818e-09
2947 2 -1.32171e-10 1.51554e-08 -8.78182e-09
2948 2 -1.32177e-10 1.51554e-08 -8.78182e-09
2949 2 -1.32015e-10 1.51553e-08 -8.78181e-09
2950 2 -1.32181e-10 1.51554e-08 -8.78183e-09
2951 2 -1.31959e-10 1.51554e-08 -8.78183e-09
2952 2 -1.31911e-10 1.51554e-08 -8.78186e-09
2953 2 -1.3208e-10 1.51553e-08 -8.78176e-09
2954 2 -1.31926e-10 1.51554e-08 -8.78186e-09
2955 2 -1.32048e-10 1.51553e-08 -8.7818e-09
2956 2 -1.31902e-10 1.51554e-08 -8.78181e-09
2957 2 -1.32082e-10 1.51553e-08 -8.78181e-09
2958 2 -1.3195e-10 1.51554e-08 -8.7818e-09
2959 2 -1.32076e-10 1.51553e-08 -8.78188e-09
2960 2 -1.32223e-10 1.51553e-08 -8.78178e-09
2961 2 -1.31883e-10 1.51554e-08 -8.78191e-09
2962 2 -1.32023e-10 1.51554e-08 -8.78189e-09
2963 2 -1.32015e-10 1.51554e-08 -8.78191e-09
2964 2 -1.31905e-10 1.51554e-08 -8.7819e-09
2965 2 -1.3215e-10 1.51554e-08 -8.78186e-09
2966 2 -1.32131e-10 1.51554e-08 -8.78191e-09
2967 2 -1.32142e-10 1.51554e-08 -8.7819e-09
2968 2 -1.32019e-10 1.51554e-08 -8.78191e-09
2969 2 -1.32021e-10 1.51554e-08 -8.78187e-09
2970 2 -1.32072e-10 1.51554e-08 -8.78188e-09
2971 2 -1.32092e-10 1.51554e-08 -8.78188e-09
2972 2 -1.31936e-10 1.51554e-08 -8.78197e-09
2973 2 -1.32081e-10 1.51554e-08 -8.78182e-09
2974 2 -1.32029e-10 1.51554e-08 -8.7819e-09
2975 2 -1.32123e-10 1.51554e-08 -8.7819e-09
2976 2 -1.31922e-10 1.51554e-08 -8.78194e-09
2977 2 -1.32034e-10 1.51554e-08 -8.78188e-09
2978 2 -1.32081e-10 1.51554e-08 -8.78188e-09
2979 2 -1.31879e-10 1.51554e-08 -8.78193e-09
2980 2 -1.3219e-10 1.51554e-08 -8.78191e-09
2981 2 -1.32343e-10 1.51554e-08 -8.78188e-09
2982 2 -1.32227e-10 1.51553e-08 -8.78179e-09
2983 2 -1.32227e-10 1.51553e-08 -8.7818e-09
2984 2 -1.32105e-10 1.51553e-08 -8.78178e-09
2985 2 -1.32169e-10 1.51553e-08 -8.78182e-09
2986 2 -1.32147e-10 1.51553e-08 -8.78174e-09
2987 2 -1.32177e-10 1.51553e-08 -8.78178e-09
2988 2 -1.32178e-10 1.51553e-08 -8.78177e-09
2989 2 -1.32187e-10 1.51553e-08 -8.78179e-09
2990 2 -1.32209e-10 1.51553e-08 -8.78176e-09
2991 2 -1.32089e-10 1.51553e-08 -8.78179e-09
2992 2 -1.3192e-10 1.51553e-08 -8.78182e-09
2993 2 -1.31977e-10 1.51553e-08 -8.78172e-09
2994 2 -1.31914e-10 1.51553e-08 -8.78182e-09
2995 2 -1.32054e-10 1.51553e-08 -8.78173e-09
2996 2 -1.31932e-10 1.51553e-08 -8.78179e-09
2997 2 -1.32085e-10 1.51553e-08 -8.78175e-09
2998 2 -1.32139e-10 1.51553e-08 -8.78177e-09
2999 2 -1.32182e-10 1.51553e-08 -8.78177e-09
3000 2 -1.32322e-10 1.51553e-08 -8.78178e-09
3001 2 -1.32125e-10 1.51554e-08 -8.78183e-09
3002 2 -1.32081e-10 1.51554e-08 -8.78181e-09
3003 2 -1.32072e-10 1.51554e-08 -8.78182e-09
3004 2 -1.32088e-10 1.51554e-08 -8.78181e-09
3005 2 -1.32164e-10 1.51554e-08 -8.7818e-09
3006 2 -1.3216e-10 1.51554e-08 -8.78182e-09
3007 2 -1.32111e-10 1.51554e-08 -8.78183e-09
3008 2 -1.32106e-10 1.51554e-08 -8.78177e-09
3009 2 -1.32113e-10 1.51554e-08 -8.78184e-09
3010 2 -1.32004e-10 1.51554e-08 -8.78178e-09
3011 2 -1.32141e-10 1.51554e-08 -8.78179e-09
3012 2 -1.31995e-10 1.51554e-08 -8.78183e-09
3013 2 -1.32104e-10 1.51554e-08 -8.78176e-09
3014 2 -1.31973e-10 1.51554e-08 -8.78184e-09
3015 2 -1.32001e-10 1.51553e-08 -8.7818e-09
3016 2 -1.31828e-10 1.51554e-08 -8.7818e-09
3017 2 -1.32257e-10 1.51553e-08 -8.78177e-09
3018 2 -1.32074e-10 1.51554e-08 -8.78183e-09
3019 2 -1.31938e-10 1.51554e-08 -8.78185e-09
3020 2 -1.32124e-10 1.51553e-08 -8.78174e-09
3021 2 -1.32075e-10 1.51554e-08 -8.78199e-09
3022 2 -1.31839e-10 1.51554e-08 -8.78189e-09
3023 2 -1.31846e-10 1.51554e-08 -8.78189e-09
3024 2 -1.31803e-10 1.51554e-08 -8.78188e-09
3025 2 -1.3182e-10 1.51554e-08 -8.78187e-09
3026 2 -1.31706e-10 1.51554e-08 -8.7819e-09
3027 2 -1.31685e-10 1.51554e-08 -8.78186e-09
3028 2 -1.32073e-10 1.51554e-08 -8.78187e-09
3029 2 -1.31673e-10 1.51554e-08 -8.78186e-09
3030 2 -1.31771e-10 1.51554e-08 -8.78189e-09
3031 2 -1.31742e-10 1.51554e-08 -8.78187e-09
3032 2 -1.31675e-10 1.51554e-08 -8.78194e-09
3033 2 -1.31784e-10 1.51554e-08 -8.78182e-09
3034 2 -1.32163e-10 1.51554e-08 -8.78197e-09
3035 2 -1.31578e-10 1.51554e-08 -8.78182e-09
3036 2 -1.31814e-10 1.51554e-08 -8.78189e-09
3037 2 -1.32205e-10 1.51554e-08 -8.78184e-09
3038 2 -1.32282e-10 1.51554e-08 -8.78188e-09
3039 2 -1.3238e-10 1.51554e-08 -8.78192e-09
3040 2 -1.32195e-10 1.51554e-08 -8.78186e-09
3041 2 -1.32347e-10 1.51554e-08 -8.78194e-09
3042 2 -1.32076e-10 1.51553e-08 -8.78185e-09
3043 2 -1.32071e-10 1.51553e-08 -8.78187e-09
3044 2 -1.32083e-10 1.51553e-08 -8.78186e-09
3045 2 -1.32185e-10 1.51553e-08 -8.78185e-09
3046 2 -1.32072e-10 1.51553e-08 -8.78187e-09
3047 2 -1.32137e-10 1.51553e-08 -8.78186e-09
3048 2 -1.32133e-10 1.51553e-08 -8.78186e-09
3049 2 -1.32065e-10 1.51553e-08 -8.78182e-09
3050 2 -1.32192e-10 1.51553e-08 -8.78186e-09
3051 2 -1.32074e-10 1.51553e-08 -8.78185e-09
3052 2 -1.32008e-10 1.51553e-08 -8.78191e-09
3053 2 -1.3212e-10 1.51553e-08 -8.78179e-09
3054 2 -1.32034e-10 1.51553e-08 -8.78192e-09
3055 2 -1.31894e-10 1.51553e-08 -8.7819e-09
3056 2 -1.31938e-10 1.51553e-08 -8.78178e-09
3057 2 -1.32158e-10 1.51553e-08 -8.78186e-09
3058 2 -1.32153e-10 1.51553e-08 -8.78183e-09
3059 2 -1.32125e-10 1.51553e-08 -8.7819e-09
3060 2 -1.32304e-10 1.51553e-08 -8.7818e-09
3061 2 -1.32176e-10 1.51554e-08 -8.78184e-09
3062 2 -1.32064e-10 1.51553e-08 -8.7818e-09
3063 2 -1.32143e-10 1.51554e-08 -8.78181e-09
3064 2 -1.32133e-10 1.51554e-08 -8.78182e-09
3065 2 -1.32129e-10 1.51553e-08 -8.78179e-09
3066 2 -1.32153e-10 1.51553e-08 -8.7818e-09
3067 2 -1.32091e-10 1.51554e-08 -8.78186e-09
3068 2 -1.32056e-10 1.51553e-08 -8.78176e-09
3069 2 -1.32142e-10 1.51554e-08 -8.78181e-09
3070 2 -1.32014e-10 1.51554e-08 -8.78181e-09
3071 2 -1.31882e-10 1.51554e-08 -8.78177e-09
3072 2 -1.31948e-10 1.51553e-08 -8.78186e-09
3073 2 -1.32075e-10 1.51553e-08 -8.78179e-09
3074 2 -1.32013e-10 1.51554e-08 -8.78189e-09
3075 2 -1.31923e-10 1.51553e-08 -8.7818e-09
3076 2 -1.31923e-10 1.51554e-08 -8.78182e-09
3077 2 -1.32133e-10 1.51553e-08 -8.78177e-09
3078 2 -1.32367e-10 1.51554e-08 -8.7818e-09
3079 2 -1.32107e-10 1.51554e-08 -8.78186e-09
3080 2 -1.32032e-10 1.51553e-08 -8.78179e-09
3081 2 -1.32045e-10 1.51555e-08 -8.78174e-09
3082 2 -1.3198e-10 1.51555e-08 -8.78181e-09
3083 2 -1.32097e-10 1.51554e-08 -8.78177e-09
3084 2 -1.32118e-10 1.51555e-08 -8.78179e-09
3085 2 -1.32294e-10 1.51555e-08 -8.78175e-09
3086 2 -1.31927e-10 1.51555e-08 -8.78179e-09
3087 2 -1.31829e-10 1.51554e-08 -8.78182e-09
3088 2 -1.3185e-10 1.51555e-08 -8.78172e-09
3089 2 -1.31882e-10 1.51554e-08 -8.78177e-09
3090 2 -1.31833e-10 1.51554e-08 -8.78182e-09
3091 2 -1.31776e-10 1.51555e-08 -8.78179e-09
3092 2 -1.31933e-10 1.51554e-08 -8.78182e-09
3093 2 -1.3197e-10 1.51554e-08 -8.78171e-09
3094 2 -1.31917e-10 1.51555e-08 -8.78188e-09
3095 2 -1.31879e-10 1.51554e-08 -8.78171e-09
3096 2 -1.32141e-10 1.51554e-08 -8.78177e-09
3097 2 -1.32135e-10 1.51555e-08 -8.78178e-09
3098 2 -1.32104e-10 1.51555e-08 -8.7818e-09
3099 2 -1.32067e-10 1.51554e-08 -8.78177e-09
3100 2 -1.31865e-10 1.51555e-08 -8.78176e-09
3101 2 -1.32174e-10 1.51553e-08 -8.78184e-09
3102 2 -1.3211e-10 1.51553e-08 -8.78185e-09
3103 2 -1.3214e-10 1.51553e-08 -8.78186e-09
3104 2 -1.32079e-10 1.51553e-08 -8.78185e-09
3105 2 -1.31988e-10 1.51553e-08 -8.78184e-09
3106 2 -1.32069e-10 1.51552e-08 -8.78182e-09
3107 2 -1.32097e-10 1.51553e-08 -8.78184e-09
3108 2 -1.32155e-10 1.51553e-08 -8.78182e-09
3109 2 -1.31975e-10 1.51553e-08 -8.78185e-09
3110 2 -1.32052e-10 1.51553e-08 -8.78183e-09
3111 2 -1.31847e-10 1.51553e-08 -8.78182e-09
3112 2 -1.32002e-10 1.51553e-08 -8.78194e-09
3113 2 -1.31981e-10 1.51552e-08 -8.78174e-09
3114 2 -1.31805e-10 1.51553e-08 -8.78194e-09
3115 2 -1.31908e-10 1.51552e-08 -8.78179e-09
3116 2 -1.32022e-10 1.51553e-08 -8.78182e-09
3117 2 -1.32349e-10 1.51553e-08 -8.78188e-09
3118 2 -1.3214e-10 1.51554e-08 -8.78182e-09
3119 2 -1.32076e-10 1.51552e-08 -8.78189e-09
3120 2 -1.32072e-10 1.51553e-08 -8.78178e-09
3121 2 -1.31978e-10 1.51556e-08 -8.78193e-09
3122 2 -1.31953e-10 1.51555e-08 -8.78184e-09
3123 2 -1.32092e-10 1.51555e-08 -8.78185e-09
3124 2 -1.32059e-10 1.51555e-08 -8.78189e-09
3125 2 -1.31956e-10 1.51555e-08 -8.78183e-09
3126 2 -1.32032e-10 1.51555e-08 -8.7819e-09
3127 2 -1.3183e-10 1.51555e-08 -8.78184e-09
3128 2 -1.32061e-10 1.51555e-08 -8.78189e-09
3129 2 -1.31774e-10 1.51555e-08 -8.78183e-09
3130 2 -1.31783e-10 1.51555e-08 -8.78188e-09
3131 2 -1.31936e-10 1.51555e-08 -8.7818e-09
3132 2 -1.31952e-10 1.51555e-08 -8.78195e-09
3133 2 -1.31898e-10 1.51555e-08 -8.78181e-09
3134 2 -1.31972e-10 1.51555e-08 -8.78189e-09
3135 2 -1.32099e-10 1.51555e-08 -8.78183e-09
3136 2 -1.31935e-10 1.51555e-08 -8.78187e-09
3137 2 -1.32079e-10 1.51555e-08 -8.78187e-09
3138 2 -1.32315e-10 1.51555e-08 -8.7818e-09
3139 2 -1.32175e-10 1.51555e-08 -8.78189e-09
3140 2 -1.32161e-10 1.51555e-08 -8.78185e-09
3141 2 -1.3234e-10 1.51555e-08 -8.78183e-09
3142 2 -1.32224e-10 1.51555e-08 -8.78181e-09
3143 2 -1.32194e-10 1.51555e-08 -8.78181e-09
3144 2 -1.3218e-10 1.51555e-08 -8.7818e-09
3145 2 -1.32109e-10 1.51555e-08 -8.78179e-09
3146 2 -1.32203e-10 1.51555e-08 -8.78182e-09
3147 2 -1.32187e-10 1.51555e-08 -8.7818e-09
3148 2 -1.32191e-10 1.51555e-08 -8.78181e-09
3149 2 -1.3221e-10 1.51555e-08 -8.78178e-09
3150 2 -1.32123e-10 1.51555e-08 -8.7818e-09
3151 2 -1.32113e-10 1.51555e-08 -8.78189e-09
3152 2 -1.31997e-10 1.51554e-08 -8.78182e-09
3153 2 -1.31959e-10 1.51556e-08 -8.78182e-09
3154 2 -1.31985e-10 1.51555e-08 -8.78179e-09
3155 2 -1.31969e-10 1.51555e-08 -8.78187e-09
3156 2 -1.32151e-10 1.51555e-08 -8.78175e-09
3157 2 -1.32186e-10 1.51555e-08 -8.78184e-09
3158 2 -1.32226e-10 1.51555e-08 -8.78175e-09
3159 2 -1.32186e-10 1.51555e-08 -8.78189e-09
3160 2 -1.32121e-10 1.51555e-08 -8.78178e-09
3161 2 -1.32353e-10 1.51554e-08 -8.78186e-09
3162 2 -1.32053e-10 1.51554e-08 -8.78182e-09
3163 2 -1.32068e-10 1.51553e-08 -8.78182e-09
3164 2 -1.32039e-10 1.51553e-08 -8.78179e-09
3165 2 -1.32108e-10 1.51554e-08 -8.78178e-09
3166 2 -1.31994e-10 1.51553e-08 -8.78174e-09
3167 2 -1.32027e-10 1.51554e-08 -8.78182e-09
3168 2 -1.32171e-10 1.51553e-08 -8.78177e-09
3169 2 -1.31988e-10 1.51554e-08 -8.78181e-09
3170 2 -1.3202e-10 1.51553e-08 -8.78177e-09
3171 2 -1.32276e-10 1.51554e-08 -8.7818e-09
3172 2 -1.31982e-10 1.51554e-08 -8.7819e-09
3173 2 -1.32121e-10 1.51553e-08 -8.78168e-09
3174 2 -1.32197e-10 1.51554e-08 -8.78185e-09
3175 2 -1.3189e-10 1.51554e-08 -8.78181e-09
3176 2 -1.31876e-10 1.51553e-08 -8.78177e-09
3177 2 -1.32127e-10 1.51553e-08 -8.78176e-09
3178 2 -1.32364e-10 1.51553e-08 -8.78178e-09
3179 2 -1.32143e-10 1.51554e-08 -8.78182e-09
3180 2 -1.32254e-10 1.51553e-08 -8.7818e-09
3181 2 -1.32074e-10 1.51553e-08 -8.78173e-09
3182 2 -1.32201e-10 1.51552e-08 -8.78183e-09
3183 2 -1.32296e-10 1.51553e-08 -8.78181e-09
3184 2 -1.32333e-10 1.51553e-08 -8.78184e-09
3185 2 -1.32468e-10 1.51553e-08 -8.78181e-09
3186 2 -1.323e-10 1.51553e-08 -8.78184e-09
3187 2 -1.32419e-10 1.51553e-08 -8.78181e-09
3188 2 -1.32448e-10 1.51553e-08 -8.78181e-09
3189 2 -1.32304e-10 1.51553e-08 -8.78184e-09
3190 2 -1.32247e-10 1.51553e-08 -8.78193e-09
3191 2 -1.31936e-10 1.51553e-08 -8.78179e-09
3192 2 -1.31792e-10 1.51552e-08 -8.78184e-09
3193 2 -1.31992e-10 1.51553e-08 -8.78181e-09
3194 2 -1.32117e-10 1.51552e-08 -8.78184e-09
3195 2 -1.31943e-10 1.51553e-08 -8.78187e-09
3196 2 -1.31782e-10 1.51553e-08 -8.78173e-09
3197 2 -1.32228e-10 1.51553e-08 -8.78183e-09
3198 2 -1.32262e-10 1.51552e-08 -8.78182e-09
3199 2 -1.32342e-10 1.51553e-08 -8.78187e-09
3200 2 -1.32149e-10 1.51553e-08 -8.78178e-09
3201 2 3.52447e-10 -2.44087e-08 -9.74362e-08
3202 2 3.52463e-10 -2.44087e-08 -9.74362e-08
3203 2 3.52451e-10 -2.44087e-08 -9.74362e-08
3204 2 3.52463e-10 -2.44087e-08 -9.74362e-08
3205 2 3.52461e-10 -2.44087e-08 -9.74362e-08
3206 2 3.52467e-10 -2.44087e-08 -9.74362e-08
3207 2 3.52486e-10 -2.44087e-08 -9.74362e-08
3208 2 3.52479e-10 -2.44087e-08 -9.74362e-08
3209 2 3.52489e-10 -2.44087e-08 -9.74362e-08
3210 2 3.52496e-10 -2.44087e-08 -9.74362e-08
3211 2 3.525e-10 -2.44087e-08 -9.74362e-08
3212 2 3.52501e-10 -2.44087e-08 -9.74362e-08
3213 2 3.5248e-10 -2.44087e-08 -9.74362e-08
3214 2 3.52537e-10 -2.44087e-08 -9.74362e-08
3215 2 3.52465e-10 -2.44087e-08 -9.74362e-08
3216 2 3.52497e-10 -2.44087e-08 -9.74362e-08
3217 2 3.5249e-10 -2.44087e-08 -9.74362e-08
3218 2 3.52464e-10 -2.44087e-08 -9.74362e-08
3219 2 3.52482e-10 -2.44087e-08 -9.74362e-08
3220 2 3.5257e-10 -2.44087e-08 -9.74362e-08
3221 2 3.52462e-10 -2.44092e-08 -9.74359e-08
3222 2 3.52484e-10 -2.44092e-08 -9.74359e-08
3223 2 3.52478e-10 -2.44092e-08 -9.74359e-08
3224 2 3.52466e-10 -2.44092e-08 -9.74359e-08
3225 2 3.52444e-10 -2.44092e-08 -9.74359e-08
3226 2 3.52516e-10 -2.44092e-08 -9.74359e-08
3227 2 3.52499e-10 -2.44092e-08 -9.74359e-08
3228 2 3.52495e-10 -2.44092e-08 -9.74359e-08
3229 2 3.52519e-10 -2.44092e-08 -9.74359e-08
3230 2 3.52498e-10 -2.44092e-08 -9.74359e-08
3231 2 3.52493e-10 -2.44092e-08 -9.74359e-08
3232 2 3.52481e-10 -2.44092e-08 -9.74359e-08
3233 2 3.52486e-10 -2.44092e-08 -9.74359e-08
3234 2 3.5248e-10 -2.44092e-08 -9.74359e-08
3235 2 3.52489e-10 -2.44092e-08 -9.74359e-08
3236 2 3.52484e-10 -2.44092e-08 -9.74359e-08
3237 2 3.52493e-10 -2.44092e-08 -9.74359e-08
3238 2 3.52459e-10 -2.44092e-08 -9.74359e-08
3239 2 3.52525e-10 -2.44092e-08 -9.74359e-08
3240 2 3.52581e-10 -2.44092e-08 -9.74359e-08
3241 2 3.52488e-10 -2.44092e-08 -9.74359e-08
3242 2 3.52468e-10 -2.44092e-08 -9.74359e-08
3243 2 3.52472e-10 -2.44092e-08 -9.74359e-08
3244 2 3.52472e-10 -2.44092e-08 -9.74359e-08
3245 2 3.52471e-10 -2.44092e-08 -9.74359e-08
3246 2 3.52455e-10 -2.44092e-08 -9.74359e-08
3247 2 3.52445e-10 -2.44092e-08 -9.74359e-08
3248 2 3.52459e-10 -2.44092e-08 -9.74359e-08
3249 2 3.52471e-10 -2.44092e-08 -9.74359e-08
3250 2 3.52497e-10 -2.44092e-08 -9.74359e-08
3251 2 3.52527e-10 -2.44092e-08 -9.74359e-08
3252 2 3.52443e-10 -2.44092e-08 -9.74359e-08
3253 2 3.52539e-10 -2.44092e-08 -9.74359e-08
3254 2 3.52444e-10 -2.44092e-08 -9.74359e-08
3255 2 3.52539e-10 -2.44092e-08 -9.74359e-08
3256 2 3.52434e-10 -2.44092e-08 -9.74359e-08
3257 2 3.52559e-10 -2.44092e-08 -9.74359e-08
3258 2 3.52453e-10 -2.44092e-08 -9.74359e-08
3259 2 3.52567e-10 -2.44092e-08 -9.74359e-08
3260 2 3.52595e-10 -2.44092e-08 -9.74359e-08
3261 2 3.52456e-10 -2.44092e-08 -9.74359e-08
3262 2 3.52486e-10 -2.44092e-08 -9.74359e-08
3263 2 3.52482e-10 -2.44092e-08 -9.74359e-08
3264 2 3.52484e-10 -2.44092e-08 -9.74359e-08
3265 2 3.52449e-10 -2.44092e-08 -9.74359e-08
3266 2 3.52447e-10 -2.44092e-08 -9.74359e-08
3267 2 3.52447e-10 -2.44092e-08 -9.74359e-08
3268 2 3.52474e-10 -2.44092e-08 -9.74359e-08
3269 2 3.52486e-10 -2.44092e-08 -9.74359e-08
3270 2 3.52468e-10 -2.44092e-08 -9.74359e-08
3271 2 3.52539e-10 -2.44092e-08 -9.74359e-08
3272 2 3.5246e-10 -2.44092e-08 -9.74359e-08
3273 2 3.52522e-10 -2.44092e-08 -9.74359e-08
3274 2 3.52465e-10 -2.44092e-08 -9.74359e-08
3275 2 3.52514e-10 -2.44092e-08 -9.74359e-08
3276 2 3.52457e-10 -2.44092e-08 -9.74359e-08
3277 2 3.52542e-10 -2.44092e-08 -9.74359e-08
3278 2 3.52451e-10 -2.44092e-08 -9.74359e-08
3279 2 3.52522e-10 -2.44092e-08 -9.74359e-08
3280 2 3.52613e-10 -2.44092e-08 -9.74359e-08
3281 2 3.52496e-10 -2.44093e-08 -9.74359e-08
3282 2 3.52472e-10 -2.44093e-08 -9.74359e-08
3283 2 3.52483e-10 -2.44093e-08 -9.74359e-08
3284 2 3.52486e-10 -2.44093e-08 -9.74359e-08
3285 2 3.52486e-10 -2.44093e-08 -9.74359e-08
3286 2 3.52476e-10 -2.44093e-08 -9.74359e-08
3287 2 3.5246e-10 -2.44093e-08 -9.74359e-08
3288 2 3.5247e-10 -2.44093e-08 -9.74359e-08
3289 2 3.52488e-10 -2.44093e-08 -9.74359e-08
3290 2 3.5246e-10 -2.44093e-08 -9.74359e-08
3291 2 3.5255e-10 -2.44093e-08 -9.74359e-08
3292 2 3.52509e-10 -2.44093e-08 -9.74359e-08
3293 2 3.5254e-10 -2.44093e-08 -9.74359e-08
3294 2 3.5252e-10 -2.44093e-08 -9.74359e-08
3295 2 3.52522e-10 -2.44093e-08 -9.74359e-08
3296 2 3.52469e-10 -2.44093e-08 -9.74359e-08
3297 2 3.5253e-10 -2.44092e-08 -9.74359e-08
3298 2 3.52528e-10 -2.44093e-08 -9.74359e-08
3299 2 3.52496e-10 -2.44093e-08 -9.74359e-08
3300 2 3.52581e-10 -2.44093e-08 -9.74359e-08
3301 2 3.52486e-10 -2.44091e-08 -9.74359e-08
3302 2 3.52494e-10 -2.44091e-08 -9.74359e-08
3303 2 3.52474e-10 -2.44091e-08 -9.74359e-08
3304 2 3.52458e-10 -2.44091e-08 -9.74359e-08
3305 2 3.52514e-10 -2.44091e-08 -9.74359e-08
3306 2 3.52465e-10 -2.44091e-08 -9.74359e-08
3307 2 3.52478e-10 -2.44091e-08 -9.74359e-08
3308 2 3.52503e-10 -2.44091e-08 -9.74359e-08
3309 2 3.52514e-10 -2.44091e-08 -9.74359e-08
3310 2 3.52485e-10 -2.44091e-08 -9.74359e-08
3311 2 3.52597e-10 -2.44091e-08 -9.74359e-08
3312 2 3.52464e-10 -2.44091e-08 -9.74359e-08
3313 2 3.52573e-10 -2.44091e-08 -9.74359e-08
3314 2 3.52477e-10 -2.44091e-08 -9.74359e-08
3315 2 3.52558e-10 -2.44091e-08 -9.74359e-08
3316 2 3.52472e-10 -2.44091e-08 -9.74359e-08
3317 2 3.52393e-10 -2.44091e-08 -9.74359e-08
3318 2 3.52476e-10 -2.44091e-08 -9.74359e-08
3319 2 3.5257e-10 -2.44091e-08 -9.74359e-08
3320 2 3.52509e-10 -2.44091e-08 -9.74359e-08
3321 2 3.52471e-10 -2.44094e-08 -9.74359e-08
3322 2 3.52476e-10 -2.44093e-08 -9.74359e-08
3323 2 3.52465e-10 -2.44093e-08 -9.74359e-08
3324 2 3.52464e-10 -2.44093e-08 -9.74359e-08
3325 2 3.52452e-10 -2.44093e-08 -9.74359e-08
3326 2 3.52476e-10 -2.44093e-08 -9.74359e-08
3327 2 3.52481e-10 -2.44093e-08 -9.74359e-08
3328 2 3.52484e-10 -2.44093e-08 -9.74359e-08
3329 2 3.52471e-10 -2.44093e-08 -9.74359e-08
3330 2 3.52504e-10 -2.44093e-08 -9.74359e-08
3331 2 3.52486e-10 -2.44093e-08 -9.74359e-08
3332 2 3.52486e-10 -2.44093e-08 -9.74359e-08
3333 2 3.52457e-10 -2.44093e-08 -9.74359e-08
3334 2 3.52481e-10 -2.44093e-08 -9.74359e-08
3335 2 3.52438e-10 -2.44093e-08 -9.74359e-08
3336 2 3.52502e-10 -2.44093e-08 -9.74359e-08
3337 2 3.52468e-10 -2.44093e-08 -9.74359e-08
3338 2 3.52465e-10 -2.44093e-08 -9.74359e-08
3339 2 3.52449e-10 -2.44093e-08 -9.74359e-08
3340 2 3.52532e-10 -2.44093e-08 -9.74359e-08
3341 2 3.5249e-10 -2.44094e-08 -9.74359e-08
3342 2 3.52471e-10 -2.44094e-08 -9.74359e-08
3343 2 3.52478e-10 -2.44094e-08 -9.74359e-08
3344 2 3.52476e-10 -2.44094e-08 -9.74359e-08
3345 2 3.52452e-10 -2.44094e-08 -9.74359e-08
3346 2 3.52459e-10 -2.44094e-08 -9.74359e-08
3347 2 3.52467e-10 -2.44094e-08 -9.74359e-08
3348 2 3.52467e-10 -2.44094e-08 -9.74359e-08
3349 2 3.52478e-10 -2.44094e-08 -9.74359e-08
3350 2 3.52483e-10 -2.44094e-08 -9.74359e-08
3351 2 3.52517e-10 -2.44094e-08 -9.74359e-08
3352 2 3.52459e-10 -2.44094e-08 -9.74359e-08
3353 2 3.52509e-10 -2.44094e-08 -9.74359e-08
3354 2 3.5245e-10 -2.44094e-08 -9.74359e-08
3355 2 3.52495e-10 -2.44094e-08 -9.74359e-08
3356 2 3.52484e-10 -2.44094e-08 -9.74359e-08
3357 2 3.52501e-10 -2.44094e-08 -9.74359e-08
3358 2 3.52473e-10 -2.44094e-08 -9.74359e-08
3359 2 3.52508e-10 -2.44094e-08 -9.74359e-08
3360 2 3.52531e-10 -2.44094e-08 -9.74359e-08
3361 2 3.5248e-10 -2.44092e-08 -9.74359e-08
3362 2 3.52462e-10 -2.44092e-08 -9.74359e-08
3363 2 3.52474e-10 -2.44092e-08 -9.74359e-08
3364 2 3.52497e-10 -2.44092e-08 -9.74359e-08
3365 2 3.52462e-10 -2.44092e-08 -9.74359e-08
3366 2 3.52478e-10 -2.44092e-08 -9.74359e-08
3367 2 3.52486e-10 -2.44092e-08 -9.74359e-08
3368 2 3.52468e-10 -2.44092e-08 -9.74359e-08
3369 2 3.52488e-10 -2.44092e-08 -9.74359e-08
3370 2 3.52522e-10 -2.44092e-08 -9.74359e-08
3371 2 3.52496e-10 -2.44092e-08 -9.74359e-08
3372 2 3.52541e-10 -2.44092e-08 -9.74359e-08
3373 2 3.52534e-10 -2.44092e-08 -9.74359e-08
3374 2 3.52542e-10 -2.44092e-08 -9.74359e-08
3375 2 3.52536e-10 -2.44092e-08 -9.74359e-08
3376 2 3.52469e-10 -2.44092e-08 -9.74359e-08
3377 2 3.52467e-10 -2.44092e-08 -9.74359e-08
3378 2 3.52474e-10 -2.44092e-08 -9.74359e-08
3379 2 3.52557e-10 -2.44092e-08 -9.74359e-08
3380 2 3.52524e-10 -2.44092e-08 -9.74359e-08
3381 2 3.52484e-10 -2.44093e-08 -9.74359e-08
3382 2 3.52487e-10 -2.44093e-08 -9.74359e-08
3383 2 3.52478e-10 -2.44093e-08 -9.74359e-08
3384 2 3.52466e-10 -2.44093e-08 -9.74359e-08
3385 2 3.52487e-10 -2.44093e-08 -9.74359e-08
3386 2 3.52492e-10 -2.44093e-08 -9.74359e-08
3387 2 3.52483e-10 -2.44093e-08 -9.74359e-08
3388 2 3.52472e-10 -2.44093e-08 -9.74359e-08
3389 2 3.52491e-10 -2.44093e-08 -9.74359e-08
3390 2 3.52516e-10 -2.44093e-08 -9.74359e-08
3391 2 3.52574e-10 -2.44093e-08 -9.74359e-08
3392 2 3.52469e-10 -2.44093e-08 -9.74359e-08
3393 2 3.52508e-10 -2.44093e-08 -9.74359e-08
3394 2 3.52483e-10 -2.44093e-08 -9.74359e-08
3395 2 3.52492e-10 -2.44093e-08 -9.74359e-08
3396 2 3.52484e-10 -2.44093e-08 -9.74359e-08
3397 2 3.52552e-10 -2.44093e-08 -9.74359e-08
3398 2 3.52485e-10 -2.44093e-08 -9.74359e-08
3399 2 3.52506e-10 -2.44093e-08 -9.74359e-08
3400 2 3.52526e-10 -2.44093e-08 -9.74359e-08
3401 2 3.52494e-10 -2.44091e-08 -9.74359e-08
3402 2 3.52484e-10 -2.44091e-08 -9.74359e-08
3403 2 3.52476e-10 -2.44091e-08 -9.74359e-08
3404 2 3.52491e-10 -2.44091e-08 -9.74359e-08
3405 2 3.52505e-10 -2.44092e-08 -9.74359e-08
3406 2 3.52475e-10 -2.44091e-08 -9.74359e-08
3407 2 3.52472e-10 -2.44091e-08 -9.74359e-08
3408 2 3.5247e-10 -2.44092e-08 -9.74359e-08
3409 2 3.52471e-10 -2.44092e-08 -9.74359e-08
3410 2 3.52479e-10 -2.44091e-08 -9.74359e-08
3411 2 3.52501e-10 -2.44091e-08 -9.74359e-08
3412 2 3.52481e-10 -2.44091e-08 -9.74359e-08
3413 2 3.52493e-10 -2.44091e-08 -9.74359e-08
3414 2 3.52476e-10 -2.44092e-08 -9.74359e-08
3415 2 3.52474e-10 -2.44091e-08 -9.74359e-08
3416 2 3.52468e-10 -2.44091e-08 -9.74359e-08
3417 2 3.52493e-10 -2.44091e-08 -9.74359e-08
3418 2 3.52419e-10 -2.44091e-08 -9.74359e-08
3419 2 3.52506e-10 -2.44091e-08 -9.74359e-08
3420 2 3.52514e-10 -2.44091e-08 -9.74359e-08
3421 2 3.52513e-10 -2.44091e-08 -9.74359e-08
3422 2 3.52523e-10 -2.44091e-08 -9.74359e-08
3423 2 3.52525e-10 -2.44091e-08 -9.74359e-08
3424 2 3.52512e-10 -2.44091e-08 -9.74359e-08
3425 2 3.5255e-10 -2.44091e-08 -9.74359e-08
3426 2 3.52582e-10 -2.44091e-08 -9.74359e-08
3427 2 3.52592e-10 -2.44091e-08 -9.74359e-08
3428 2 3.5255e-10 -2.44091e-08 -9.74359e-08
3429 2 3.52585e-10 -2.44091e-08 -9.74359e-08
3430 2 3.52559e-10 -2.44091e-08 -9.74359e-08
3431 2 3.52543e-10 -2.44091e-08 -9.74359e-08
3432 2 3.52563e-10 -2.44091e-08 -9.74359e-08
3433 2 3.52564e-10 -2.44091e-08 -9.74359e-08
3434 2 3.52478e-10 -2.44091e-08 -9.74359e-08
3435 2 3.5259e-10 -2.44091e-08 -9.74359e-08
3436 2 3.52454e-10 -2.44091e-08 -9.74359e-08
3437 2 3.52596e-10 -2.44091e-08 -9.74359e-08
3438 2 3.52481e-10 -2.44091e-08 -9.74359e-08
3439 2 3.52437e-10 -2.44091e-08 -9.74359e-08
3440 2 3.5255e-10 -2.44091e-08 -9.74359e-08
3441 2 3.5248e-10 -2.44095e-08 -9.74359e-08
3442 2 3.52476e-10 -2.44095e-08 -9.74359e-08
3443 2 3.52469e-10 -2.44095e-08 -9.74359e-08
3444 2 3.52471e-10 -2.44095e-08 -9.74359e-08
3445 2 3.52468e-10 -2.44095e-08 -9.74359e-08
3446 2 3.5244e-10 -2.44095e-08 -9.74359e-08
3447 2 3.52498e-10 -2.44095e-08 -9.74359e-08
3448 2 3.5244e-10 -2.44095e-08 -9.74359e-08
3449 2 3.52448e-10 -2.44095e-08 -9.74359e-08
3450 2 3.52457e-10 -2.44095e-08 -9.74359e-08
3451 2 3.52518e-10 -2.44095e-08 -9.74359e-08
3452 2 3.52463e-10 -2.44095e-08 -9.74359e-08
3453 2 3.52524e-10 -2.44096e-08 -9.74359e-08
3454 2 3.52483e-10 -2.44095e-08 -9.74359e-08
3455 2 3.52512e-10 -2.44095e-08 -9.74359e-08
3456 2 3.52502e-10 -2.44095e-08 -9.74359e-08
3457 2 3.52536e-10 -2.44095e-08 -9.74359e-08
3458 2 3.52533e-10 -2.44095e-08 -9.74359e-08
3459 2 3.52544e-10 -2.44095e-08 -9.74359e-08
3460 2 3.52544e-10 -2.44095e-08 -9.74359e-08
3461 2 3.52501e-10 -2.44091e-08 -9.7436e-08
3462 2 3.52474e-10 -2.44091e-08 -9.7436e-08
3463 2 3.52459e-10 -2.44091e-08 -9.7436e-08
3464 2 3.5249e-10 -2.44091e-08 -9.7436e-08
3465 2 3.52455e-10 -2.44091e-08 -9.7436e-08
3466 2 3.52488e-10 -2.44091e-08 -9.7436e-08
3467 2 3.52461e-10 -2.44091e-08 -9.7436e-08
3468 2 3.52491e-10 -2.44091e-08 -9.7436e-08
3469 2 3.52497e-10 -2.44091e-08 -9.7436e-08
3470 2 3.52494e-10 -2.44091e-08 -9.7436e-08
3471 2 3.52468e-10 -2.44091e-08 -9.7436e-08
3472 2 3.52535e-10 -2.44091e-08 -9.7436e-08
3473 2 3.52521e-10 -2.44091e-08 -9.7436e-08
3474 2 3.52521e-10 -2.44091e-08 -9.7436e-08
3475 2 3.52516e-10 -2.44091e-08 -9.7436e-08
3476 2 3.52516e-10 -2.44091e-08 -9.7436e-08
3477 2 3.52522e-10 -2.44091e-08 -9.7436e-08
3478 2 3.52412e-10 -2.44091e-08 -9.7436e-08
3479 2 3.52525e-10 -2.44091e-08 -9.7436e-08
3480 2 3.52564e-10 -2.44091e-08 -9.7436e-08
3481 2 3.52512e-10 -2.44086e-08 -9.74359e-08
3482 2 3.52456e-10 -2.44086e-08 -9.74359e-08
3483 2 3.52467e-10 -2.44086e-08 -9.74359e-08
3484 2 3.52499e-10 -2.44086e-08 -9.74359e-08
3485 2 3.52446e-10 -2.44086e-08 -9.74359e-08
3486 2 3.52487e-10 -2.44086e-08 -9.74359e-08
3487 2 3.52398e-10 -2.44085e-08 -9.74359e-08
3488 2 3.52517e-10 -2.44086e-08 -9.74359e-08
3489 2 3.52457e-10 -2.44086e-08 -9.74359e-08
3490 2 3.52475e-10 -2.44085e-08 -9.74359e-08
3491 2 3.52578e-10 -2.44086e-08 -9.74359e-08
3492 2 3.52496e-10 -2.44086e-08 -9.74359e-08
3493 2 3.52533e-10 -2.44086e-08 -9.74359e-08
3494 2 3.52524e-10 -2.44086e-08 -9.74359e-08
3495 2 3.52538e-10 -2.44086e-08 -9.74359e-08
3496 2 3.52458e-10 -2.44086e-08 -9.74359e-08
3497 2 3.52558e-10 -2.44086e-08 -9.74359e-08
3498 2 3.52487e-10 -2.44086e-08 -9.74359e-08
3499 2 3.52534e-10 -2.44086e-08 -9.74359e-08
3500 2 3.52555e-10 -2.44086e-08 -9.74359e-08
3501 2 3.52451e-10 -2.44097e-08 -9.74358e-08
3502 2 3.52447e-10 -2.44097e-08 -9.74358e-08
3503 2 3.52467e-10 -2.44097e-08 -9.74358e-08
3504 2 3.52441e-10 -2.44097e-08 -9.74358e-08
3505 2 3.52474e-10 -2.44097e-08 -9.74358e-08
3506 2 3.52395e-10 -2.44097e-08 -9.74358e-08
3507 2 3.52466e-10 -2.44097e-08 -9.74358e-08
3508 2 3.52452e-10 -2.44097e-08 -9.74358e-08
3509 2 3.52449e-10 -2.44097e-08 -9.74358e-08
3510 2 3.52457e-10 -2.44097e-08 -9.74358e-08
3511 2 3.52467e-10 -2.44097e-08 -9.74358e-08
3512 2 3.52488e-10 -2.44097e-08 -9.74358e-08
3513 2 3.52519e-10 -2.44097e-08 -9.74358e-08
3514 2 3.52476e-10 -2.44097e-08 -9.74358e-08
3515 2 3.52529e-10 -2.44097e-08 -9.74358e-08
3516 2 3.52518e-10 -2.44097e-08 -9.74358e-08
3517 2 3.52482e-10 -2.44097e-08 -9.74358e-08
3518 2 3.52451e-10 -2.44098e-08 -9.74358e-08
3519 2 3.52513e-10 -2.44097e-08 -9.74358e-08
3520 2 3.52516e-10 -2.44097e-08 -9.74358e-08
3521 2 3.52566e-10 -2.44093e-08 -9.74359e-08
3522 2 3.52578e-10 -2.44093e-08 -9.74359e-08
3523 2 3.52566e-10 -2.44093e-08 -9.74359e-08
3524 2 3.52577e-10 -2.44093e-08 -9.74359e-08
3525 2 3.52568e-10 -2.44093e-08 -9.74359e-08
3526 2 3.52561e-10 -2.44093e-08 -9.74359e-08
3527 2 3.52576e-10 -2.44093e-08 -9.74359e-08
3528 2 3.52529e-10 -2.44093e-08 -9.74359e-08
3529 2 3.52573e-10 -2.44093e-08 -9.74359e-08
3530 2 3.52576e-10 -2.44093e-08 -9.74359e-08
3531 2 3.52596e-10 -2.44093e-08 -9.74359e-08
3532 2 3.52483e-10 -2.44093e-08 -9.74359e-08
3533 2 3.5264e-10 -2.44093e-08 -9.74359e-08
3534 2 3.52495e-10 -2.44093e-08 -9.74359e-08
3535 2 3.5266e-10 -2.44093e-08 -9.74359e-08
3536 2 3.52524e-10 -2.44093e-08 -9.74359e-08
3537 2 3.52653e-10 -2.44093e-08 -9.74359e-08
3538 2 3.52462e-10 -2.44093e-08 -9.74359e-08
3539 2 3.52644e-10 -2.44093e-08 -9.74359e-08
3540 2 3.52621e-10 -2.44093e-08 -9.74359e-08
3541 2 3.52496e-10 -2.44091e-08 -9.74359e-08
3542 2 3.52465e-10 -2.44091e-08 -9.74359e-08
3543 2 3.52551e-10 -2.44091e-08 -9.74359e-08
3544 2 3.52543e-10 -2.44091e-08 -9.74359e-08
3545 2 3.52568e-10 -2.44091e-08 -9.74359e-08
3546 2 3.52432e-10 -2.44091e-08 -9.74359e-08
3547 2 3.52596e-10 -2.44091e-08 -9.74359e-08
3548 2 3.52576e-10 -2.44091e-08 -9.74359e-08
3549 2 3.52574e-10 -2.44091e-08 -9.74359e-08
3550 2 3.52538e-10 -2.44091e-08 -9.74359e-08
3551 2 3.52517e-10 -2.44091e-08 -9.74359e-08
3552 2 3.52512e-10 -2.44091e-08 -9.74359e-08
3553 2 3.52479e-10 -2.44092e-08 -9.74359e-08
3554 2 3.52537e-10 -2.44091e-08 -9.74359e-08
3555 2 3.52548e-10 -2.44091e-08 -9.74359e-08
3556 2 3.5255e-10 -2.44091e-08 -9.74359e-08
3557 2 3.52603e-10 -2.44092e-08 -9.74359e-08
3558 2 3.52597e-10 -2.44091e-08 -9.74359e-08
3559 2 3.52532e-10 -2.44091e-08 -9.74359e-08
3560 2 3.52627e-10 -2.44091e-08 -9.74359e-08
3561 2 3.5243e-10 -2.44094e-08 -9.74359e-08
3562 2 3.52417e-10 -2.44094e-08 -9.74359e-08
3563 2 3.52441e-10 -2.44094e-08 -9.74359e-08
3564 2 3.524e-10 -2.44094e-08 -9.74359e-08
3565 2 3.52418e-10 -2.44094e-08 -9.74359e-08
3566 2 3.52394e-10 -2.44094e-08 -9.74359e-08
3567 2 3.52387e-10 -2.44094e-08 -9.74359e-08
3568 2 3.52417e-10 -2.44094e-08 -9.74359e-08
3569 2 3.52383e-10 -2.44094e-08 -9.74359e-08
3570 2 3.52467e-10 -2.44094e-08 -9.74359e-08
3571 2 3.52454e-10 -2.44094e-08 -9.74359e-08
3572 2 3.52477e-10 -2.44094e-08 -9.74359e-08
3573 2 3.52383e-10 -2.44094e-08 -9.74359e-08
3574 2 3.52404e-10 -2.44094e-08 -9.74359e-08
3575 2 3.52433e-10 -2.44094e-08 -9.74359e-08
3576 2 3.52458e-10 -2.44094e-08 -9.74359e-08
3577 2 3.52379e-10 -2.44094e-08 -9.74359e-08
3578 2 3.52412e-10 -2.44094e-08 -9.74359e-08
3579 2 3.52424e-10 -2.44094e-08 -9.74359e-08
3580 2 3.52474e-10 -2.44094e-08 -9.74359e-08
3581 2 3.52534e-10 -2.44098e-08 -9.74357e-08
3582 2 3.52504e-10 -2.44097e-08 -9.74357e-08
3583 2 3.52491e-10 -2.44098e-08 -9.74357e-08
3584 2 3.52495e-10 -2.44097e-08 -9.74357e-08
3585 2 3.52457e-10 -2.44097e-08 -9.74357e-08
3586 2 3.5247e-10 -2.44098e-08 -9.74357e-08
3587 2 3.52469e-10 -2.44097e-08 -9.74357e-08
3588 2 3.52486e-10 -2.44097e-08 -9.74357e-08
3589 2 3.52478e-10 -2.44098e-08 -9.74357e-08
3590 2 3.52498e-10 -2.44097e-08 -9.74357e-08
3591 2 3.52453e-10 -2.44098e-08 -9.74357e-08
3592 2 3.52462e-10 -2.44097e-08 -9.74357e-08
3593 2 3.52442e-10 -2.44098e-08 -9.74357e-08
3594 2 3.5237e-10 -2.44097e-08 -9.74357e-08
3595 2 3.52386e-10 -2.44097e-08 -9.74357e-08
3596 2 3.52499e-10 -2.44098e-08 -9.74357e-08
3597 2 3.52402e-10 -2.44097e-08 -9.74357e-08
3598 2 3.52499e-10 -2.44097e-08 -9.74357e-08
3599 2 3.52403e-10 -2.44097e-08 -9.74357e-08
3600 2 3.52561e-10 -2.44097e-08 -9.74357e-08
3601 2 -3.54736e-11 -1.43692e-08 6.36095e-08
3602 2 -3.53502e-11 -1.43692e-08 6.36095e-08
3603 2 -3.53169e-11 -1.43692e-08 6.36095e-08
3604 2 -3.53368e-11 -1.43692e-08 6.36095e-08
3605 2 -3.52432e-11 -1.43692e-08 6.36095e-08
3606 2 -3.53333e-11 -1.43692e-08 6.36095e-08
3607 2 -3.53211e-11 -1.43692e-08 6.36095e-08
3608 2 -3.52768e-11 -1.43692e-08 6.36095e-08
3609 2 -3.5348e-11 -1.43692e-08 6.36094e-08
3610 2 -3.54979e-11 -1.43692e-08 6.36094e-08
3611 2 -3.56062e-11 -1.43692e-08 6.36095e-08
3612 2 -3.55064e-11 -1.43692e-08 6.36095e-08
3613 2 -3.54467e-11 -1.43692e-08 6.36094e-08
3614 2 -3.55062e-11 -1.43692e-08 6.36095e-08
3615 2 -3.54992e-11 -1.43692e-08 6.36094e-08
3616 2 -3.54591e-11 -1.43691e-08 6.36094e-08
3617 2 -3.56375e-11 -1.43693e-08 6.36095e-08
3618 2 -3.54351e-11 -1.43691e-08 6.36094e-08
3619 2 -3.55769e-11 -1.43692e-08 6.36095e-08
3620 2 -3.53824e-11 -1.43692e-08 6.36095e-08
3621 2 -3.54559e-11 -1.43692e-08 6.36095e-08
3622 2 -3.53857e-11 -1.43692e-08 6.36095e-08
3623 2 -3.53634e-11 -1.43692e-08 6.36095e-08
3624 2 -3.53403e-11 -1.43692e-08 6.36095e-08
3625 2 -3.53511e-11 -1.43692e-08 6.36095e-08
3626 2 -3.52608e-11 -1.43692e-08 6.36095e-08
3627 2 -3.52049e-11 -1.43692e-08 6.36095e-08
3628 2 -3.52255e-11 -1.43692e-08 6.36094e-08
3629 2 -3.54555e-11 -1.43692e-08 6.36094e-08
3630 2 -3.54286e-11 -1.43692e-08 6.36095e-08
3631 2 -3.54138e-11 -1.43692e-08 6.36094e-08
3632 2 -3.54164e-11 -1.43692e-08 6.36095e-08
3633 2 -3.53539e-11 -1.43692e-08 6.36094e-08
3634 2 -3.54164e-11 -1.43692e-08 6.36095e-08
3635 2 -3.54831e-11 -1.43692e-08 6.36094e-08
3636 2 -3.53646e-11 -1.43692e-08 6.36095e-08
3637 2 -3.54402e-11 -1.43692e-08 6.36095e-08
3638 2 -3.52975e-11 -1.43692e-08 6.36095e-08
3639 2 -3.5454e-11 -1.43692e-08 6.36094e-08
3640 2 -3.52194e-11 -1.43692e-08 6.36095e-08
3641 2 -3.5397e-11 -1.43692e-08 6.36095e-08
3642 2 -3.52843e-11 -1.43692e-08 6.36095e-08
3643 2 -3.534e-11 -1.43692e-08 6.36094e-08
3644 2 -3.53014e-11 -1.43692e-08 6.36095e-08
3645 2 -3.53141e-11 -1.43692e-08 6.36094e-08
3646 2 -3.52378e-11 -1.43692e-08 6.36094e-08
3647 2 -3.52301e-11 -1.43692e-08 6.36094e-08
3648 2 -3.51727e-11 -1.43692e-08 6.36095e-08
3649 2 -3.53783e-11 -1.43692e-08 6.36094e-08
3650 2 -3.53972e-11 -1.43692e-08 6.36095e-08
3651 2 -3.54013e-11 -1.43692e-08 6.36094e-08
3652 2 -3.53285e-11 -1.43692e-08 6.36095e-08
3653 2 -3.53596e-11 -1.43692e-08 6.36094e-08
3654 2 -3.53316e-11 -1.43692e-08 6.36095e-08
3655 2 -3.54983e-11 -1.43692e-08 6.36094e-08
3656 2 -3.53018e-11 -1.43692e-08 6.36095e-08
3657 2 -3.54637e-11 -1.43692e-08 6.36094e-08
3658 2 -3.52481e-11 -1.43692e-08 6.36095e-08
3659 2 -3.53976e-11 -1.43692e-08 6.36095e-08
3660 2 -3.55684e-11 -1.43692e-08 6.36093e-08
3661 2 -3.53024e-11 -1.43692e-08 6.36095e-08
3662 2 -3.5375e-11 -1.43692e-08 6.36095e-08
3663 2 -3.5379e-11 -1.43692e-08 6.36095e-08
3664 2 -3.53187e-11 -1.43692e-08 6.36095e-08
3665 2 -3.52585e-11 -1.43692e-08 6.36095e-08
3666 2 -3.5356e-11 -1.43692e-08 6.36095e-08
3667 2 -3.53597e-11 -1.43692e-08 6.36095e-08
3668 2 -3.52947e-11 -1.43692e-08 6.36095e-08
3669 2 -3.54018e-11 -1.43692e-08 6.36095e-08
3670 2 -3.55033e-11 -1.43692e-08 6.36095e-08
3671 2 -3.54156e-11 -1.43692e-08 6.36095e-08
3672 2 -3.54346e-11 -1.43692e-08 6.36095e-08
3673 2 -3.53561e-11 -1.43692e-08 6.36094e-08
3674 2 -3.54398e-11 -1.43692e-08 6.36095e-08
3675 2 -3.55015e-11 -1.43692e-08 6.36094e-08
3676 2 -3.54149e-11 -1.43692e-08 6.36095e-08
3677 2 -3.54234e-11 -1.43692e-08 6.36095e-08
3678 2 -3.51879e-11 -1.43692e-08 6.36095e-08
3679 2 -3.54041e-11 -1.43692e-08 6.36095e-08
3680 2 -3.54476e-11 -1.43692e-08 6.36094e-08
3681 2 -3.53833e-11 -1.43692e-08 6.36095e-08
3682 2 -3.53383e-11 -1.43692e-08 6.36095e-08
3683 2 -3.53362e-11 -1.43692e-08 6.36095e-08
3684 2 -3.53295e-11 -1.43692e-08 6.36095e-08
3685 2 -3.53471e-11 -1.43692e-08 6.36094e-08
3686 2 -3.52177e-11 -1.43692e-08 6.36094e-08
3687 2 -3.51784e-11 -1.43692e-08 6.36095e-08
3688 2 -3.53069e-11 -1.43692e-08 6.36094e-08
3689 2 -3.54246e-11 -1.43692e-08 6.36095e-08
3690 2 -3.53841e-11 -1.43692e-08 6.36095e-08
3691 2 -3.54367e-11 -1.43692e-08 6.36094e-08
3692 2 -3.54702e-11 -1.43692e-08 6.36095e-08
3693 2 -3.53956e-11 -1.43692e-08 6.36094e-08
3694 2 -3.54799e-11 -1.43692e-08 6.36095e-08
3695 2 -3.53595e-11 -1.43692e-08 6.36094e-08
3696 2 -3.50038e-11 -1.43692e-08 6.36095e-08
3697 2 -3.54407e-11 -1.43692e-08 6.36094e-08
3698 2 -3.54376e-11 -1.43692e-08 6.36094e-08
3699 2 -3.5614e-11 -1.43692e-08 6.36095e-08
3700 2 -3.58731e-11 -1.43693e-08 6.36093e-08
3701 2 -3.54698e-11 -1.43692e-08 6.36095e-08
3702 2 -3.53275e-11 -1.43692e-08 6.36094e-08
3703 2 -3.53477e-11 -1.43692e-08 6.36094e-08
3704 2 -3.53726e-11 -1.43692e-08 6.36095e-08
3705 2 -3.53308e-11 -1.43692e-08 6.36094e-08
3706 2 -3.51774e-11 -1.43692e-08 6.36094e-08
3707 2 -3.53218e-11 -1.43692e-08 6.36095e-08
3708 2 -3.53435e-11 -1.43692e-08 6.36094e-08
3709 2 -3.53478e-11 -1.43692e-08 6.36094e-08
3710 2 -3.53827e-11 -1.43692e-08 6.36094e-08
3711 2 -3.53756e-11 -1.43692e-08 6.36095e-08
3712 2 -3.53727e-11 -1.43692e-08 6.36095e-08
3713 2 -3.52542e-11 -1.43692e-08 6.36094e-08
3714 2 -3.53965e-11 -1.43692e-08 6.36095e-08
3715 2 -3.53848e-11 -1.43692e-08 6.36094e-08
3716 2 -3.51967e-11 -1.43692e-08 6.36095e-08
3717 2 -3.53951e-11 -1.43692e-08 6.36094e-08
3718 2 -3.55326e-11 -1.43692e-08 6.36095e-08
3719 2 -3.55408e-11 -1.43692e-08 6.36094e-08
3720 2 -3.53562e-11 -1.43693e-08 6.36095e-08
3721 2 -3.53235e-11 -1.43692e-08 6.36095e-08
3722 2 -3.54177e-11 -1.43692e-08 6.36095e-08
3723 2 -3.53829e-11 -1.43692e-08 6.36095e-08
3724 2 -3.54591e-11 -1.43692e-08 6.36095e-08
3725 2 -3.54559e-11 -1.43691e-08 6.36094e-08
3726 2 -3.55029e-11 -1.43692e-08 6.36096e-08
3727 2 -3.52937e-11 -1.43692e-08 6.36095e-08
3728 2 -3.53151e-11 -1.43692e-08 6.36095e-08
3729 2 -3.53022e-11 -1.43692e-08 6.36095e-08
3730 2 -3.53487e-11 -1.43692e-08 6.36095e-08
3731 2 -3.52375e-11 -1.43692e-08 6.36095e-08
3732 2 -3.54137e-11 -1.43692e-08 6.36095e-08
3733 2 -3.52433e-11 -1.43692e-08 6.36095e-08
3734 2 -3.54181e-11 -1.43692e-08 6.36095e-08
3735 2 -3.53213e-11 -1.43692e-08 6.36095e-08
3736 2 -3.54113e-11 -1.43692e-08 6.36095e-08
3737 2 -3.54061e-11 -1.43692e-08 6.36095e-08
3738 2 -3.53866e-11 -1.43692e-08 6.36095e-08
3739 2 -3.57688e-11 -1.43691e-08 6.36095e-08
3740 2 -3.60205e-11 -1.4369e-08 6.36094e-08
3741 2 -3.55489e-11 -1.43692e-08 6.36095e-08
3742 2 -3.53592e-11 -1.43692e-08 6.36095e-08
3743 2 -3.53228e-11 -1.43692e-08 6.36094e-08
3744 2 -3.53554e-11 -1.43692e-08 6.36094e-08
3745 2 -3.53896e-11 -1.43692e-08 6.36094e-08
3746 2 -3.53516e-11 -1.43692e-08 6.36095e-08
3747 2 -3.52996e-11 -1.43692e-08 6.36094e-08
3748 2 -3.53084e-11 -1.43692e-08 6.36094e-08
3749 2 -3.54338e-11 -1.43692e-08 6.36095e-08
3750 2 -3.54448e-11 -1.43692e-08 6.36094e-08
3751 2 -3.54679e-11 -1.43692e-08 6.36094e-08
3752 2 -3.55254e-11 -1.43692e-08 6.36095e-08
3753 2 -3.54383e-11 -1.43692e-08 6.36094e-08
3754 2 -3.54047e-11 -1.43692e-08 6.36095e-08
3755 2 -3.55307e-11 -1.43692e-08 6.36094e-08
3756 2 -3.5652e-11 -1.43692e-08 6.36095e-08
3757 2 -3.5631e-11 -1.43692e-08 6.36094e-08
3758 2 -3.55136e-11 -1.43692e-08 6.36094e-08
3759 2 -3.58754e-11 -1.43692e-08 6.36095e-08
3760 2 -3.56404e-11 -1.43693e-08 6.36095e-08
3761 2 -3.54679e-11 -1.43691e-08 6.36095e-08
3762 2 -3.52657e-11 -1.43691e-08 6.36095e-08
3763 2 -3.54241e-11 -1.43691e-08 6.36095e-08
3764 2 -3.54612e-11 -1.43691e-08 6.36095e-08
3765 2 -3.52677e-11 -1.43691e-08 6.36095e-08
3766 2 -3.53846e-11 -1.43692e-08 6.36095e-08
3767 2 -3.53044e-11 -1.43691e-08 6.36095e-08
3768 2 -3.51998e-11 -1.43691e-08 6.36095e-08
3769 2 -3.54204e-11 -1.43691e-08 6.36095e-08
3770 2 -3.5282e-11 -1.43692e-08 6.36095e-08
3771 2 -3.52106e-11 -1.43691e-08 6.36094e-08
3772 2 -3.5463e-11 -1.43691e-08 6.36095e-08
3773 2 -3.52103e-11 -1.43691e-08 6.36095e-08
3774 2 -3.5496e-11 -1.43691e-08 6.36095e-08
3775 2 -3.53931e-11 -1.43691e-08 6.36094e-08
3776 2 -3.54047e-11 -1.43691e-08 6.36095e-08
3777 2 -3.54101e-11 -1.43691e-08 6.36095e-08
3778 2 -3.56385e-11 -1.43691e-08 6.36095e-08
3779 2 -3.56389e-11 -1.43691e-08 6.36095e-08
3780 2 -3.52709e-11 -1.43693e-08 6.36096e-08
3781 2 -3.53562e-11 -1.43693e-08 6.36094e-08
3782 2 -3.52901e-11 -1.43693e-08 6.36094e-08
3783 2 -3.52998e-11 -1.43693e-08 6.36094e-08
3784 2 -3.53148e-11 -1.43693e-08 6.36094e-08
3785 2 -3.54439e-11 -1.43693e-08 6.36094e-08
3786 2 -3.52318e-11 -1.43693e-08 6.36094e-08
3787 2 -3.52945e-11 -1.43693e-08 6.36094e-08
3788 2 -3.52093e-11 -1.43693e-08 6.36094e-08
3789 2 -3.53413e-11 -1.43693e-08 6.36094e-08
3790 2 -3.53021e-11 -1.43693e-08 6.36094e-08
3791 2 -3.52872e-11 -1.43693e-08 6.36094e-08
3792 2 -3.55083e-11 -1.43693e-08 6.36094e-08
3793 2 -3.52414e-11 -1.43693e-08 6.36094e-08
3794 2 -3.55025e-11 -1.43693e-08 6.36095e-08
3795 2 -3.53802e-11 -1.43693e-08 6.36094e-08
3796 2 -3.5572e-11 -1.43693e-08 6.36095e-08
3797 2 -3.53493e-11 -1.43693e-08 6.36094e-08
3798 2 -3.54871e-11 -1.43693e-08 6.36094e-08
3799 2 -3.5894e-11 -1.43693e-08 6.36095e-08
3800 2 -3.54348e-11 -1.43693e-08 6.36095e-08
3801 2 -3.5449e-11 -1.43692e-08 6.36094e-08
3802 2 -3.5361e-11 -1.43692e-08 6.36094e-08
3803 2 -3.53685e-11 -1.43692e-08 6.36094e-08
3804 2 -3.54533e-11 -1.43692e-08 6.36094e-08
3805 2 -3.54088e-11 -1.43692e-08 6.36094e-08
3806 2 -3.54025e-11 -1.43692e-08 6.36094e-08
3807 2 -3.535e-11 -1.43692e-08 6.36094e-08
3808 2 -3.53345e-11 -1.43692e-08 6.36094e-08
3809 2 -3.5283e-11 -1.43692e-08 6.36094e-08
3810 2 -3.54163e-11 -1.43692e-08 6.36094e-08
3811 2 -3.53618e-11 -1.43692e-08 6.36094e-08
3812 2 -3.55057e-11 -1.43692e-08 6.36094e-08
3813 2 -3.5294e-11 -1.43692e-08 6.36094e-08
3814 2 -3.52928e-11 -1.43692e-08 6.36095e-08
3815 2 -3.52489e-11 -1.43692e-08 6.36094e-08
3816 2 -3.5261e-11 -1.43692e-08 6.36095e-08
3817 2 -3.54299e-11 -1.43692e-08 6.36094e-08
3818 2 -3.53298e-11 -1.43692e-08 6.36094e-08
3819 2 -3.54894e-11 -1.43692e-08 6.36095e-08
3820 2 -3.5405e-11 -1.43692e-08 6.36094e-08
3821 2 -3.57125e-11 -1.43692e-08 6.36095e-08
3822 2 -3.5631e-11 -1.43692e-08 6.36095e-08
3823 2 -3.56267e-11 -1.43692e-08 6.36095e-08
3824 2 -3.55543e-11 -1.43692e-08 6.36095e-08
3825 2 -3.55132e-11 -1.43692e-08 6.36095e-08
3826 2 -3.54109e-11 -1.43692e-08 6.36095e-08
3827 2 -3.52584e-11 -1.43691e-08 6.36095e-08
3828 2 -3.53671e-11 -1.43692e-08 6.36094e-08
3829 2 -3.55879e-11 -1.43691e-08 6.36094e-08
3830 2 -3.56898e-11 -1.43692e-08 6.36096e-08
3831 2 -3.55423e-11 -1.43691e-08 6.36094e-08
3832 2 -3.56406e-11 -1.43692e-08 6.36096e-08
3833 2 -3.54137e-11 -1.43691e-08 6.36094e-08
3834 2 -3.56166e-11 -1.43692e-08 6.36095e-08
3835 2 -3.54922e-11 -1.43691e-08 6.36094e-08
3836 2 -3.52589e-11 -1.43691e-08 6.36096e-08
3837 2 -3.54377e-11 -1.43691e-08 6.36094e-08
3838 2 -3.53346e-11 -1.43692e-08 6.36096e-08
3839 2 -3.57425e-11 -1.43691e-08 6.36094e-08
3840 2 -3.54485e-11 -1.43693e-08 6.36096e-08
3841 2 -3.53397e-11 -1.43693e-08 6.36095e-08
3842 2 -3.53132e-11 -1.43693e-08 6.36095e-08
3843 2 -3.54142e-11 -1.43693e-08 6.36095e-08
3844 2 -3.54741e-11 -1.43693e-08 6.36095e-08
3845 2 -3.53429e-11 -1.43693e-08 6.36094e-08
3846 2 -3.53885e-11 -1.43693e-08 6.36095e-08
3847 2 -3.53865e-11 -1.43693e-08 6.36095e-08
3848 2 -3.53043e-11 -1.43693e-08 6.36095e-08
3849 2 -3.5304e-11 -1.43693e-08 6.36094e-08
3850 2 -3.53247e-11 -1.43693e-08 6.36095e-08
3851 2 -3.52837e-11 -1.43693e-08 6.36095e-08
3852 2 -3.54129e-11 -1.43693e-08 6.36095e-08
3853 2 -3.52665e-11 -1.43693e-08 6.36094e-08
3854 2 -3.54438e-11 -1.43693e-08 6.36095e-08
3855 2 -3.54461e-11 -1.43693e-08 6.36095e-08
3856 2 -3.51656e-11 -1.43693e-08 6.36095e-08
3857 2 -3.52423e-11 -1.43693e-08 6.36095e-08
3858 2 -3.51563e-11 -1.43693e-08 6.36094e-08
3859 2 -3.5297e-11 -1.43693e-08 6.36095e-08
3860 2 -3.55156e-11 -1.43692e-08 6.36094e-08
3861 2 -3.53775e-11 -1.43693e-08 6.36094e-08
3862 2 -3.53862e-11 -1.43693e-08 6.36095e-08
3863 2 -3.53618e-11 -1.43693e-08 6.36094e-08
3864 2 -3.53488e-11 -1.43693e-08 6.36095e-08
3865 2 -3.5355e-11 -1.43693e-08 6.36094e-08
3866 2 -3.53554e-11 -1.43693e-08 6.36094e-08
3867 2 -3.52614e-11 -1.43693e-08 6.36094e-08
3868 2 -3.52541e-11 -1.43693e-08 6.36094e-08
3869 2 -3.52659e-11 -1.43693e-08 6.36094e-08
3870 2 -3.52975e-11 -1.43693e-08 6.36094e-08
3871 2 -3.49792e-11 -1.43693e-08 6.36094e-08
3872 2 -3.54791e-11 -1.43693e-08 6.36095e-08
3873 2 -3.52786e-11 -1.43693e-08 6.36094e-08
3874 2 -3.55876e-11 -1.43693e-08 6.36095e-08
3875 2 -3.5403e-11 -1.43693e-08 6.36094e-08
3876 2 -3.52274e-11 -1.43693e-08 6.36094e-08
3877 2 -3.5357e-11 -1.43693e-08 6.36095e-08
3878 2 -3.51252e-11 -1.43693e-08 6.36094e-08
3879 2 -3.53154e-11 -1.43693e-08 6.36094e-08
3880 2 -3.55702e-11 -1.43692e-08 6.36094e-08
3881 2 -3.50944e-11 -1.43691e-08 6.36094e-08
3882 2 -3.52102e-11 -1.4369e-08 6.36094e-08
3883 2 -3.51911e-11 -1.43691e-08 6.36094e-08
3884 2 -3.53209e-11 -1.4369e-08 6.36094e-08
3885 2 -3.52033e-11 -1.43691e-08 6.36093e-08
3886 2 -3.50977e-11 -1.43691e-08 6.36094e-08
3887 2 -3.56013e-11 -1.4369e-08 6.36094e-08
3888 2 -3.50518e-11 -1.43691e-08 6.36094e-08
3889 2 -3.4988e-11 -1.4369e-08 6.36094e-08
3890 2 -3.5428e-11 -1.4369e-08 6.36094e-08
3891 2 -3.5285e-11 -1.43691e-08 6.36094e-08
3892 2 -3.55969e-11 -1.43691e-08 6.36094e-08
3893 2 -3.54326e-11 -1.4369e-08 6.36093e-08
3894 2 -3.55869e-11 -1.43691e-08 6.36094e-08
3895 2 -3.53633e-11 -1.4369e-08 6.36094e-08
3896 2 -3.5325e-11 -1.43691e-08 6.36094e-08
3897 2 -3.53332e-11 -1.4369e-08 6.36094e-08
3898 2 -3.51218e-11 -1.43691e-08 6.36094e-08
3899 2 -3.54936e-11 -1.43691e-08 6.36094e-08
3900 2 -3.55449e-11 -1.4369e-08 6.36093e-08
3901 2 -3.56559e-11 -1.43692e-08 6.36095e-08
3902 2 -3.55816e-11 -1.43692e-08 6.36095e-08
3903 2 -3.53568e-11 -1.43692e-08 6.36095e-08
3904 2 -3.54894e-11 -1.43692e-08 6.36094e-08
3905 2 -3.54181e-11 -1.43692e-08 6.36095e-08
3906 2 -3.55597e-11 -1.43692e-08 6.36095e-08
3907 2 -3.53606e-11 -1.43692e-08 6.36095e-08
3908 2 -3.53277e-11 -1.43692e-08 6.36095e-08
3909 2 -3.53336e-11 -1.43692e-08 6.36094e-08
3910 2 -3.5444e-11 -1.43692e-08 6.36094e-08
3911 2 -3.53732e-11 -1.43692e-08 6.36095e-08
3912 2 -3.54264e-11 -1.43692e-08 6.36095e-08
3913 2 -3.53119e-11 -1.43692e-08 6.36094e-08
3914 2 -3.54589e-11 -1.43692e-08 6.36095e-08
3915 2 -3.5463e-11 -1.43692e-08 6.36095e-08
3916 2 -3.52337e-11 -1.43692e-08 6.36095e-08
3917 2 -3.55591e-11 -1.43692e-08 6.36094e-08
3918 2 -3.50241e-11 -1.43692e-08 6.36094e-08
3919 2 -3.56021e-11 -1.43692e-08 6.36094e-08
3920 2 -3.5616e-11 -1.43691e-08 6.36094e-08
3921 2 -3.54472e-11 -1.43691e-08 6.36094e-08
3922 2 -3.54018e-11 -1.43691e-08 6.36095e-08
3923 2 -3.53189e-11 -1.43691e-08 6.36095e-08
3924 2 -3.54028e-11 -1.43691e-08 6.36095e-08
3925 2 -3.53707e-11 -1.43691e-08 6.36094e-08
3926 2 -3.54845e-11 -1.43691e-08 6.36095e-08
3927 2 -3.5323e-11 -1.43691e-08 6.36095e-08
3928 2 -3.53353e-11 -1.43691e-08 6.36095e-08
3929 2 -3.52729e-11 -1.43691e-08 6.36094e-08
3930 2 -3.54665e-11 -1.43691e-08 6.36095e-08
3931 2 -3.52698e-11 -1.43691e-08 6.36095e-08
3932 2 -3.53667e-11 -1.43691e-08 6.36095e-08
3933 2 -3.52108e-11 -1.43691e-08 6.36094e-08
3934 2 -3.55661e-11 -1.43691e-08 6.36095e-08
3935 2 -3.53941e-11 -1.43691e-08 6.36094e-08
3936 2 -3.52618e-11 -1.43691e-08 6.36095e-08
3937 2 -3.53863e-11 -1.43691e-08 6.36095e-08
3938 2 -3.51403e-11 -1.43691e-08 6.36095e-08
3939 2 -3.52863e-11 -1.43691e-08 6.36095e-08
3940 2 -3.5512e-11 -1.4369e-08 6.36094e-08
3941 2 -3.53386e-11 -1.4369e-08 6.36094e-08
3942 2 -3.51699e-11 -1.4369e-08 6.36094e-08
3943 2 -3.52756e-11 -1.4369e-08 6.36094e-08
3944 2 -3.5289e-11 -1.4369e-08 6.36094e-08
3945 2 -3.52503e-11 -1.4369e-08 6.36094e-08
3946 2 -3.52343e-11 -1.43689e-08 6.36094e-08
3947 2 -3.52716e-11 -1.4369e-08 6.36094e-08
3948 2 -3.52651e-11 -1.4369e-08 6.36094e-08
3949 2 -3.52957e-11 -1.4369e-08 6.36094e-08
3950 2 -3.52794e-11 -1.4369e-08 6.36094e-08
3951 2 -3.51833e-11 -1.4369e-08 6.36094e-08
3952 2 -3.54251e-11 -1.4369e-08 6.36094e-08
3953 2 -3.50918e-11 -1.43689e-08 6.36093e-08
3954 2 -3.53144e-11 -1.4369e-08 6.36095e-08
3955 2 -3.53934e-11 -1.43689e-08 6.36094e-08
3956 2 -3.52966e-11 -1.4369e-08 6.36094e-08
3957 2 -3.53452e-11 -1.43689e-08 6.36094e-08
3958 2 -3.52367e-11 -1.4369e-08 6.36094e-08
3959 2 -3.55518e-11 -1.4369e-08 6.36094e-08
3960 2 -3.54961e-11 -1.4369e-08 6.36094e-08
3961 2 -3.58535e-11 -1.43692e-08 6.36095e-08
3962 2 -3.55309e-11 -1.43692e-08 6.36094e-08
3963 2 -3.55982e-11 -1.43693e-08 6.36095e-08
3964 2 -3.54726e-11 -1.43692e-08 6.36094e-08
3965 2 -3.53424e-11 -1.43692e-08 6.36094e-08
3966 2 -3.51115e-11 -1.43692e-08 6.36094e-08
3967 2 -3.50718e-11 -1.43692e-08 6.36094e-08
3968 2 -3.50967e-11 -1.43692e-08 6.36094e-08
3969 2 -3.51036e-11 -1.43692e-08 6.36094e-08
3970 2 -3.52692e-11 -1.43692e-08 6.36095e-08
3971 2 -3.52545e-11 -1.43692e-08 6.36094e-08
3972 2 -3.55143e-11 -1.43692e-08 6.36095e-08
3973 2 -3.51245e-11 -1.43692e-08 6.36094e-08
3974 2 -3.53255e-11 -1.43692e-08 6.36094e-08
3975 2 -3.51265e-11 -1.43692e-08 6.36094e-08
3976 2 -3.51759e-11 -1.43692e-08 6.36094e-08
3977 2 -3.51455e-11 -1.43692e-08 6.36094e-08
3978 2 -3.50831e-11 -1.43692e-08 6.36094e-08
3979 2 -3.50972e-11 -1.43692e-08 6.36094e-08
3980 2 -3.54903e-11 -1.43692e-08 6.36094e-08
3981 2 -3.54039e-11 -1.43693e-08 6.36095e-08
3982 2 -3.54515e-11 -1.43693e-08 6.36095e-08
3983 2 -3.53147e-11 -1.43693e-08 6.36095e-08
3984 2 -3.54286e-11 -1.43693e-08 6.36095e-08
3985 2 -3.53278e-11 -1.43694e-08 6.36095e-08
3986 2 -3.52808e-11 -1.43693e-08 6.36095e-08
3987 2 -3.52752e-11 -1.43693e-08 6.36095e-08
3988 2 -3.52514e-11 -1.43693e-08 6.36095e-08
3989 2 -3.51874e-11 -1.43694e-08 6.36096e-08
3990 2 -3.53305e-11 -1.43693e-08 6.36094e-08
3991 2 -3.50554e-11 -1.43693e-08 6.36095e-08
3992 2 -3.55327e-11 -1.43693e-08 6.36094e-08
3993 2 -3.54111e-11 -1.43693e-08 6.36094e-08
3994 2 -3.58135e-11 -1.43694e-08 6.36096e-08
3995 2 -3.57071e-11 -1.43693e-08 6.36095e-08
3996 2 -3.50994e-11 -1.43693e-08 6.36095e-08
3997 2 -3.53735e-11 -1.43692e-08 6.36094e-08
3998 2 -3.55366e-11 -1.43694e-08 6.36096e-08
3999 2 -3.56742e-11 -1.43693e-08 6.36095e-08
4000 2 -3.56537e-11 -1.43692e-08 6.36094e-08
