Phonopy displacement from POSCAR-009

480 atoms
2 atom types

0.0 27.6249981288698407 xlo xhi
0.0 32.4929967641776756 ylo yhi
0.0 30.0000000000000000 zlo zhi
10.3595851897078202 0.0 0.0 xy xz yz

Masses

1 69.723
2 15.999

Atoms # atomic

1 1 3.2915628951527589 4.2881698062176090 12.1228203567479973
2 1 6.7446876612614890 4.2881698062176090 12.1228203567479973
3 1 10.1978124273702200 4.2881698062176090 12.1228203567479973
4 1 13.6509371934789492 4.2881698062176090 12.1228203567479973
5 1 17.1040619595876784 4.2881698062176090 12.1228203567479973
6 1 20.5571867256964147 4.2881698062176090 12.1228203567479973
7 1 24.0103114918051403 4.2881698062176090 12.1228203567479973
8 1 27.4634362579138696 4.2881698062176090 12.1228203567479973
9 1 5.0181604267707289 9.7036692669138880 12.1228203567479973
10 1 8.4712851928794581 9.7036692669138880 12.1228203567479973
11 1 11.9244099589881891 9.7036692669138880 12.1228203567479973
12 1 15.3775347250969219 9.7036692669138880 12.1228203567479973
13 1 18.8306594912056440 9.7036692669138880 12.1228203567479973
14 1 22.2837842573143803 9.7036692669138880 12.1228203567479973
15 1 25.7369090234231059 9.7036692669138880 12.1228203567479973
16 1 29.1900337895318351 9.7036692669138880 12.1228203567479973
17 1 6.7447579583886990 15.1191687276101678 12.1228203567479973
18 1 10.1978827244974291 15.1191687276101678 12.1228203567479973
19 1 13.6510074906061583 15.1191687276101678 12.1228203567479973
20 1 17.1041322567148910 15.1191687276101678 12.1228203567479973
21 1 20.5572570228236202 15.1191687276101678 12.1228203567479973
22 1 24.0103817889323459 15.1191687276101678 12.1228203567479973
23 1 27.4635065550410751 15.1191687276101678 12.1228203567479973
24 1 30.9166313211498043 15.1191687276101678 12.1228203567479973
25 1 8.4713554900066690 20.5346681883064441 12.1228203567479973
26 1 11.9244802561153982 20.5346681883064441 12.1228203567479973
27 1 15.3776050222241274 20.5346681883064441 12.1228203567479973
28 1 18.8307297883328602 20.5346681883064441 12.1228203567479973
29 1 22.2838545544415894 20.5346681883064441 12.1228203567479973
30 1 25.7369793205503150 20.5346681883064441 12.1228203567479973
31 1 29.1901040866590478 20.5346681883064441 12.1228203567479973
32 1 32.6432288527677770 20.5346681883064441 12.1228203567479973
33 1 10.1979530216246381 25.9501676490027258 12.1228203567479973
34 1 13.6510777877333673 25.9501676490027258 12.1228203567479973
35 1 17.1042025538421001 25.9501676490027258 12.1228203567479973
36 1 20.5573273199508293 25.9501676490027258 12.1228203567479973
37 1 24.0104520860595585 25.9501676490027258 12.1228203567479973
38 1 27.4635768521682877 25.9501676490027258 12.1228203567479973
39 1 30.9167016182770240 25.9501676490027258 12.1228203567479973
40 1 34.3698263843857461 25.9501676490027258 12.1228203567479973
41 1 11.9245505532426090 31.3656671096990074 12.1228203567479973
42 1 15.3776753193513418 31.3656671096990074 12.1228203567479973
43 1 18.8308000854600692 31.3656671096990074 12.1228203567479973
44 1 22.2839248515688020 31.3656671096990074 12.1228203567479973
45 1 25.7370496176775347 31.3656671096990074 12.1228203567479973
46 1 29.1901743837862604 31.3656671096990074 12.1228203567479973
47 1 32.6432991498950003 31.3656671096990074 12.1228203567479973
48 1 36.0964239160037152 31.3656671096990074 12.1228203567479973
49 1 1.5665142254540192 2.2158944443577440 11.2524742547010010
50 1 5.0181201905273189 2.2111307017728863 11.2524742547010010
51 1 8.4712449566360490 2.2111307017728863 11.2524742547010010
52 1 11.9243697227447836 2.2111307017728863 11.2524742547010010
53 1 15.3774944888535128 2.2111307017728863 11.2524742547010010
54 1 18.8306192549622367 2.2111307017728863 11.2524742547010010
55 1 22.2837440210709730 2.2111307017728863 11.2524742547010010
56 1 25.7368687871797022 2.2111307017728863 11.2524742547010010
57 1 3.2915929560365624 7.6266301624691675 11.2524742547010010
58 1 6.7447177221452899 7.6266301624691675 11.2524742547010010
59 1 10.1978424882540200 7.6266301624691675 11.2524742547010010
60 1 13.6509672543627509 7.6266301624691675 11.2524742547010010
61 1 17.1040920204714872 7.6266301624691675 11.2524742547010010
62 1 20.5572167865802129 7.6266301624691675 11.2524742547010010
63 1 24.0103415526889457 7.6266301624691675 11.2524742547010010
64 1 27.4634663187976784 7.6266301624691675 11.2524742547010010
65 1 5.0181904876545316 13.0421296231654438 11.2524742547010010
66 1 8.4713152537632581 13.0421296231654438 11.2524742547010010
67 1 11.9244400198719891 13.0421296231654438 11.2524742547010010
68 1 15.3775647859807201 13.0421296231654438 11.2524742547010010
69 1 18.8306895520894528 13.0421296231654438 11.2524742547010010
70 1 22.2838143181981785 13.0421296231654438 11.2524742547010010
71 1 25.7369390843069148 13.0421296231654438 11.2524742547010010
72 1 29.1900638504156404 13.0421296231654438 11.2524742547010010
73 1 6.7447880192725007 18.4576290838617183 11.2524742547010010
74 1 10.1979127853812273 18.4576290838617183 11.2524742547010010
75 1 13.6510375514899582 18.4576290838617183 11.2524742547010010
76 1 17.1041623175986892 18.4576290838617183 11.2524742547010010
77 1 20.5572870837074220 18.4576290838617183 11.2524742547010010
78 1 24.0104118498161512 18.4576290838617183 11.2524742547010010
79 1 27.4635366159248839 18.4576290838617183 11.2524742547010010
80 1 30.9166613820336167 18.4576290838617183 11.2524742547010010
81 1 8.4713855508904690 23.8731285445579964 11.2524742547010010
82 1 11.9245103169991964 23.8731285445579964 11.2524742547010010
83 1 15.3776350831079274 23.8731285445579964 11.2524742547010010
84 1 18.8307598492166619 23.8731285445579964 11.2524742547010010
85 1 22.2838846153253911 23.8731285445579964 11.2524742547010010
86 1 25.7370093814341203 23.8731285445579964 11.2524742547010010
87 1 29.1901341475428531 23.8731285445579964 11.2524742547010010
88 1 32.6432589136515858 23.8731285445579964 11.2524742547010010
89 1 10.1979830825084417 29.2886280052542780 11.2524742547010010
90 1 13.6511078486171726 29.2886280052542780 11.2524742547010010
91 1 17.1042326147259018 29.2886280052542780 11.2524742547010010
92 1 20.5573573808346310 29.2886280052542780 11.2524742547010010
93 1 24.0104821469433602 29.2886280052542780 11.2524742547010010
94 1 27.4636069130520895 29.2886280052542780 11.2524742547010010
95 1 30.9167316791608258 29.2886280052542780 11.2524742547010010
96 1 34.3698564452695550 29.2886280052542780 11.2524742547010010
97 1 3.2600401779947270 4.3284501573796348 18.7481752062048024
98 1 6.7131649441034593 4.3284501573796348 18.7481752062048024
99 1 10.1662897102121867 4.3284501573796348 18.7481752062048024
100 1 13.6194144763209160 4.3284501573796348 18.7481752062048024
101 1 17.0725392424296487 4.3284501573796348 18.7481752062048024
102 1 20.5256640085383744 4.3284501573796348 18.7481752062048024
103 1 23.9787887746471071 4.3284501573796348 18.7481752062048024
104 1 27.4319135407558399 4.3284501573796348 18.7481752062048024
105 1 4.9866377096126975 9.7439496180759164 18.7481752062048024
106 1 8.4397624757214267 9.7439496180759164 18.7481752062048024
107 1 11.8928872418301577 9.7439496180759164 18.7481752062048024
108 1 15.3460120079388869 9.7439496180759164 18.7481752062048024
109 1 18.7991367740476178 9.7439496180759164 18.7481752062048024
110 1 22.2522615401563471 9.7439496180759164 18.7481752062048024
111 1 25.7053863062650763 9.7439496180759164 18.7481752062048024
112 1 29.1585110723738055 9.7439496180759164 18.7481752062048024
113 1 6.7132352412306666 15.1594490787721927 18.7481752062048024
114 1 10.1663600073393958 15.1594490787721927 18.7481752062048024
115 1 13.6194847734481268 15.1594490787721927 18.7481752062048024
116 1 17.0726095395568578 15.1594490787721927 18.7481752062048024
117 1 20.5257343056655870 15.1594490787721927 18.7481752062048024
118 1 23.9788590717743162 15.1594490787721927 18.7481752062048024
119 1 27.4319838378830454 15.1594490787721927 18.7481752062048024
120 1 30.8851086039917817 15.1594490787721927 18.7481752062048024
121 1 8.4398327728486375 20.5749485394684655 18.7481752062048024
122 1 11.8929575389573685 20.5749485394684655 18.7481752062048024
123 1 15.3460823050660942 20.5749485394684655 18.7481752062048024
124 1 18.7992070711748234 20.5749485394684655 18.7481752062048024
125 1 22.2523318372835561 20.5749485394684655 18.7481752062048024
126 1 25.7054566033922853 20.5749485394684655 18.7481752062048024
127 1 29.1585813695010145 20.5749485394684655 18.7481752062048024
128 1 32.6117061356097508 20.5749485394684655 18.7481752062048024
129 1 10.1664303044666084 25.9904480001647471 18.7481752062048024
130 1 13.6195550705753377 25.9904480001647471 18.7481752062048024
131 1 17.0726798366840704 25.9904480001647471 18.7481752062048024
132 1 20.5258046027928032 25.9904480001647471 18.7481752062048024
133 1 23.9789293689015253 25.9904480001647471 18.7481752062048024
134 1 27.4320541350102545 25.9904480001647471 18.7481752062048024
135 1 30.8851789011189837 25.9904480001647471 18.7481752062048024
136 1 34.3383036672277200 25.9904480001647471 18.7481752062048024
137 1 11.8930278360845794 31.4059474608610252 18.7481752062048024
138 1 15.3461526021933086 31.4059474608610252 18.7481752062048024
139 1 18.7992773683020431 31.4059474608610252 18.7481752062048024
140 1 22.2524021344107723 31.4059474608610252 18.7481752062048024
141 1 25.7055269005194980 31.4059474608610252 18.7481752062048024
142 1 29.1586516666282236 31.4059474608610252 18.7481752062048024
143 1 32.6117764327369599 31.4059474608610252 18.7481752062048024
144 1 36.0649011988456891 31.4059474608610252 18.7481752062048024
145 1 1.5334727073198022 2.2514110537364620 17.8778291036670005
146 1 4.9865974734285352 2.2514110537364620 17.8778291036670005
147 1 8.4397222395372609 2.2514110537364620 17.8778291036670005
148 1 11.8928470056459901 2.2514110537364620 17.8778291036670005
149 1 15.3459717717547193 2.2514110537364620 17.8778291036670005
150 1 18.7990965378634556 2.2514110537364620 17.8778291036670005
151 1 22.2522213039721848 2.2514110537364620 17.8778291036670005
152 1 25.7053460700809104 2.2514110537364620 17.8778291036670005
153 1 3.2600702389377725 7.6669105144327432 17.8778291036670005
154 1 6.7131950050465061 7.6669105144327432 17.8778291036670005
155 1 10.1663197711552318 7.6669105144327432 17.8778291036670005
156 1 13.6194445372639610 7.6669105144327432 17.8778291036670005
157 1 17.0725693033726920 7.6669105144327432 17.8778291036670005
158 1 20.5256940694814247 7.6669105144327432 17.8778291036670005
159 1 23.9788188355901539 7.6669105144327432 17.8778291036670005
160 1 27.4319436016988796 7.6669105144327432 17.8778291036670005
161 1 4.9866677705557452 13.0824099751290195 17.8778291036670005
162 1 8.4397925366644753 13.0824099751290195 17.8778291036670005
163 1 11.8929173027732027 13.0824099751290195 17.8778291036670005
164 1 15.3460420688819319 13.0824099751290195 17.8778291036670005
165 1 18.7991668349906647 13.0824099751290195 17.8778291036670005
166 1 22.2522916010993939 13.0824099751290195 17.8778291036670005
167 1 25.7054163672081195 13.0824099751290195 17.8778291036670005
168 1 29.1585411333168523 13.0824099751290195 17.8778291036670005
169 1 6.7132653021737152 18.4979094358252993 17.8778291036670005
170 1 10.1663900682824462 18.4979094358252993 17.8778291036670005
171 1 13.6195148343911718 18.4979094358252993 17.8778291036670005
172 1 17.0726396004999010 18.4979094358252993 17.8778291036670005
173 1 20.5257643666086338 18.4979094358252993 17.8778291036670005
174 1 23.9788891327173630 18.4979094358252993 17.8778291036670005
175 1 27.4320138988260922 18.4979094358252993 17.8778291036670005
176 1 30.8851386649348214 18.4979094358252993 17.8778291036670005
177 1 8.4398628337916826 23.9134088965215774 17.8778291036670005
178 1 11.8929875999004153 23.9134088965215774 17.8778291036670005
179 1 15.3461123660091410 23.9134088965215774 17.8778291036670005
180 1 18.7992371321178702 23.9134088965215774 17.8778291036670005
181 1 22.2523618982266029 23.9134088965215774 17.8778291036670005
182 1 25.7054866643353392 23.9134088965215774 17.8778291036670005
183 1 29.1586114304440649 23.9134088965215774 17.8778291036670005
184 1 32.6117361965527834 23.9134088965215774 17.8778291036670005
185 1 10.1664603654096535 29.3289083572178519 17.8778291036670005
186 1 13.6195851315183845 29.3289083572178519 17.8778291036670005
187 1 17.0727098976271101 29.3289083572178519 17.8778291036670005
188 1 20.5258346637358393 29.3289083572178519 17.8778291036670005
189 1 23.9789594298445721 29.3289083572178519 17.8778291036670005
190 1 27.4320841959533084 29.3289083572178519 17.8778291036670005
191 1 30.8852089620620376 29.3289083572178519 17.8778291036670005
192 1 34.3383337281707597 29.3289083572178519 17.8778291036670005
193 2 1.5650009463940293 3.6444307148319242 12.6663219055271998
194 2 5.0181257125027594 3.6444307148319242 12.6663219055271998
195 2 8.4712504786114895 3.6444307148319242 12.6663219055271998
196 2 11.9243752447202169 3.6444307148319242 12.6663219055271998
197 2 15.3775000108289461 3.6444307148319242 12.6663219055271998
198 2 18.8306247769376789 3.6444307148319242 12.6663219055271998
199 2 22.2837495430464116 3.6444307148319242 12.6663219055271998
200 2 25.7368743091551408 3.6444307148319242 12.6663219055271998
201 2 3.2915984780119993 9.0599301755282049 12.6663219055271998
202 2 6.7447232441207294 9.0599301755282049 12.6663219055271998
203 2 10.1978480102294586 9.0599301755282049 12.6663219055271998
204 2 13.6509727763381896 9.0599301755282049 12.6663219055271998
205 2 17.1040975424469188 9.0599301755282049 12.6663219055271998
206 2 20.5572223085556480 9.0599301755282049 12.6663219055271998
207 2 24.0103470746643808 9.0599301755282049 12.6663219055271998
208 2 27.4634718407731100 9.0599301755282049 12.6663219055271998
209 2 5.0181960096299703 14.4754296362244865 12.6663219055271998
210 2 8.4713207757387003 14.4754296362244865 12.6663219055271998
211 2 11.9244455418474296 14.4754296362244865 12.6663219055271998
212 2 15.3775703079561588 14.4754296362244865 12.6663219055271998
213 2 18.8306950740648915 14.4754296362244865 12.6663219055271998
214 2 22.2838198401736207 14.4754296362244865 12.6663219055271998
215 2 25.7369446062823499 14.4754296362244865 12.6663219055271998
216 2 29.1900693723910791 14.4754296362244865 12.6663219055271998
217 2 6.7447935412479394 19.8909290969207646 12.6663219055271998
218 2 10.1979183073566695 19.8909290969207646 12.6663219055271998
219 2 13.6510430734653987 19.8909290969207646 12.6663219055271998
220 2 17.1041678395741314 19.8909290969207646 12.6663219055271998
221 2 20.5572926056828607 19.8909290969207646 12.6663219055271998
222 2 24.0104173717915899 19.8909290969207646 12.6663219055271998
223 2 27.4635421379003262 19.8909290969207646 12.6663219055271998
224 2 30.9166669040090483 19.8909290969207646 12.6663219055271998
225 2 8.4713910728659094 25.3064285576170391 12.6663219055271998
226 2 11.9245158389746386 25.3064285576170391 12.6663219055271998
227 2 15.3776406050833678 25.3064285576170391 12.6663219055271998
228 2 18.8307653711921006 25.3064285576170391 12.6663219055271998
229 2 22.2838901373008262 25.3064285576170391 12.6663219055271998
230 2 25.7370149034095590 25.3064285576170391 12.6663219055271998
231 2 29.1901396695182882 25.3064285576170391 12.6663219055271998
232 2 32.6432644356270174 25.3064285576170391 12.6663219055271998
233 2 10.1979886044838803 30.7219280183133208 12.6663219055271998
234 2 13.6511133705926095 30.7219280183133208 12.6663219055271998
235 2 17.1042381367013405 30.7219280183133208 12.6663219055271998
236 2 20.5573629028100697 30.7219280183133208 12.6663219055271998
237 2 24.0104876689187989 30.7219280183133208 12.6663219055271998
238 2 27.4636124350275281 30.7219280183133208 12.6663219055271998
239 2 30.9167372011362573 30.7219280183133208 12.6663219055271998
240 2 34.3698619672449865 30.7219280183133208 12.6663219055271998
241 2 1.5649789563030403 0.6786497183633124 12.2272015291292959
242 2 5.0181037224117713 0.6786497183633124 12.2272015291292959
243 2 8.4712284885204987 0.6786497183633124 12.2272015291292959
244 2 11.9243532546292297 0.6786497183633124 12.2272015291292959
245 2 15.3774780207379624 0.6786497183633124 12.2272015291292959
246 2 18.8306027868466934 0.6786497183633124 12.2272015291292959
247 2 22.2837275529554262 0.6786497183633124 12.2272015291292959
248 2 25.7368523190641554 0.6786497183633124 12.2272015291292959
249 2 3.2915764879210094 6.0941491790595892 12.2272015291292959
250 2 6.7447012540297404 6.0941491790595892 12.2272015291292959
251 2 10.1978260201384678 6.0941491790595892 12.2272015291292959
252 2 13.6509507862472041 6.0941491790595892 12.2272015291292959
253 2 17.1040755523559334 6.0941491790595892 12.2272015291292959
254 2 20.5572003184646626 6.0941491790595892 12.2272015291292959
255 2 24.0103250845733953 6.0941491790595892 12.2272015291292959
256 2 27.4634498506821245 6.0941491790595892 12.2272015291292959
257 2 5.0181740195389821 11.5096486397558664 12.2272015291292959
258 2 8.4712987856477113 11.5096486397558664 12.2272015291292959
259 2 11.9244235517564388 11.5096486397558664 12.2272015291292959
260 2 15.3775483178651733 11.5096486397558664 12.2272015291292959
261 2 18.8306730839739025 11.5096486397558664 12.2272015291292959
262 2 22.2837978500826317 11.5096486397558664 12.2272015291292959
263 2 25.7369226161913645 11.5096486397558664 12.2272015291292959
264 2 29.1900473823000937 11.5096486397558664 12.2272015291292959
265 2 6.7447715511569521 16.9251481004521480 12.2272015291292959
266 2 10.1978963172656805 16.9251481004521480 12.2272015291292959
267 2 13.6510210833744097 16.9251481004521480 12.2272015291292959
268 2 17.1041458494831389 16.9251481004521480 12.2272015291292959
269 2 20.5572706155918716 16.9251481004521480 12.2272015291292959
270 2 24.0103953817006008 16.9251481004521480 12.2272015291292959
271 2 27.4635201478093336 16.9251481004521480 12.2272015291292959
272 2 30.9166449139180592 16.9251481004521480 12.2272015291292959
273 2 8.4713690827749222 22.3406475611484261 12.2272015291292959
274 2 11.9244938488836496 22.3406475611484261 12.2272015291292959
275 2 15.3776186149923788 22.3406475611484261 12.2272015291292959
276 2 18.8307433811011080 22.3406475611484261 12.2272015291292959
277 2 22.2838681472098443 22.3406475611484261 12.2272015291292959
278 2 25.7369929133185735 22.3406475611484261 12.2272015291292959
279 2 29.1901176794273027 22.3406475611484261 12.2272015291292959
280 2 32.6432424455360319 22.3406475611484261 12.2272015291292959
281 2 10.1979666143928913 27.7561470218447042 12.2272015291292959
282 2 13.6510913805016187 27.7561470218447042 12.2272015291292959
283 2 17.1042161466103479 27.7561470218447042 12.2272015291292959
284 2 20.5573409127190772 27.7561470218447042 12.2272015291292959
285 2 24.0104656788278135 27.7561470218447042 12.2272015291292959
286 2 27.4635904449365356 27.7561470218447042 12.2272015291292959
287 2 30.9167152110452719 27.7561470218447042 12.2272015291292959
288 2 34.3698399771539940 27.7561470218447042 12.2272015291292959
289 2 3.2915588801019391 2.9147786168274918 10.6919961096620995
290 2 6.7446836462106701 2.9147786168274918 10.6919961096620995
291 2 10.1978084123193966 2.9147786168274918 10.6919961096620995
292 2 13.6509331784281294 2.9147786168274918 10.6919961096620995
293 2 17.1040579445368586 2.9147786168274918 10.6919961096620995
294 2 20.5571827106455878 2.9147786168274918 10.6919961096620995
295 2 24.0103074767543205 2.9147786168274918 10.6919961096620995
296 2 27.4634322428630497 2.9147786168274918 10.6919961096620995
297 2 5.0181564117199091 8.3302780775237721 10.6919961096620995
298 2 8.4712811778286401 8.3302780775237721 10.6919961096620995
299 2 11.9244059439373693 8.3302780775237721 10.6919961096620995
300 2 15.3775307100461003 8.3302780775237721 10.6919961096620995
301 2 18.8306554761548242 8.3302780775237721 10.6919961096620995
302 2 22.2837802422635569 8.3302780775237721 10.6919961096620995
303 2 25.7369050083722897 8.3302780775237721 10.6919961096620995
304 2 29.1900297744810153 8.3302780775237721 10.6919961096620995
305 2 6.7447539433378783 13.7457775382200484 10.6919961096620995
306 2 10.1978787094466092 13.7457775382200484 10.6919961096620995
307 2 13.6510034755553349 13.7457775382200484 10.6919961096620995
308 2 17.1041282416640676 13.7457775382200484 10.6919961096620995
309 2 20.5572530077727968 13.7457775382200484 10.6919961096620995
310 2 24.0103777738815261 13.7457775382200484 10.6919961096620995
311 2 27.4635025399902624 13.7457775382200484 10.6919961096620995
312 2 30.9166273060989880 13.7457775382200484 10.6919961096620995
313 2 8.4713514749558492 19.1612769989163318 10.6919961096620995
314 2 11.9244762410645766 19.1612769989163318 10.6919961096620995
315 2 15.3776010071733076 19.1612769989163318 10.6919961096620995
316 2 18.8307257732820403 19.1612769989163318 10.6919961096620995
317 2 22.2838505393907660 19.1612769989163318 10.6919961096620995
318 2 25.7369753054994987 19.1612769989163318 10.6919961096620995
319 2 29.1901000716082315 19.1612769989163318 10.6919961096620995
320 2 32.6432248377169500 19.1612769989163318 10.6919961096620995
321 2 10.1979490065738183 24.5767764596126099 10.6919961096620995
322 2 13.6510737726825475 24.5767764596126099 10.6919961096620995
323 2 17.1041985387912767 24.5767764596126099 10.6919961096620995
324 2 20.5573233049000095 24.5767764596126099 10.6919961096620995
325 2 24.0104480710087351 24.5767764596126099 10.6919961096620995
326 2 27.4635728371174679 24.5767764596126099 10.6919961096620995
327 2 30.9166976032261971 24.5767764596126099 10.6919961096620995
328 2 34.3698223693349263 24.5767764596126099 10.6919961096620995
329 2 11.9245465381917910 29.9922759203088916 10.6919961096620995
330 2 15.3776713043005202 29.9922759203088916 10.6919961096620995
331 2 18.8307960704092494 29.9922759203088916 10.6919961096620995
332 2 22.2839208365179786 29.9922759203088916 10.6919961096620995
333 2 25.7370456026267078 29.9922759203088916 10.6919961096620995
334 2 29.1901703687354370 29.9922759203088916 10.6919961096620995
335 2 32.6432951348441733 29.9922759203088916 10.6919961096620995
336 2 36.0964199009529025 29.9922759203088916 10.6919961096620995
337 2 1.5334767223351053 3.6248022423747432 19.3086533512413006
338 2 4.9866014884438332 3.6248022423747432 19.3086533512413006
339 2 8.4397262545525660 3.6248022423747432 19.3086533512413006
340 2 11.8928510206612970 3.6248022423747432 19.3086533512413006
341 2 15.3459757867700262 3.6248022423747432 19.3086533512413006
342 2 18.7991005528787554 3.6248022423747432 19.3086533512413006
343 2 22.2522253189874846 3.6248022423747432 19.3086533512413006
344 2 25.7053500850962173 3.6248022423747432 19.3086533512413006
345 2 3.2600742539530745 9.0403017030710213 19.3086533512413006
346 2 6.7131990200618024 9.0403017030710213 19.3086533512413006
347 2 10.1663237861705316 9.0403017030710213 19.3086533512413006
348 2 13.6194485522792661 9.0403017030710213 19.3086533512413006
349 2 17.0725733183879953 9.0403017030710213 19.3086533512413006
350 2 20.5256980844967245 9.0403017030710213 19.3086533512413006
351 2 23.9788228506054502 9.0403017030710213 19.3086533512413006
352 2 27.4319476167141865 9.0403017030710213 19.3086533512413006
353 2 4.9866717855710450 14.4558011637673012 19.3086533512413006
354 2 8.4397965516797733 14.4558011637673012 19.3086533512413006
355 2 11.8929213177885060 14.4558011637673012 19.3086533512413006
356 2 15.3460460838972352 14.4558011637673012 19.3086533512413006
357 2 18.7991708500059644 14.4558011637673012 19.3086533512413006
358 2 22.2522956161146936 14.4558011637673012 19.3086533512413006
359 2 25.7054203822234193 14.4558011637673012 19.3086533512413006
360 2 29.1585451483321556 14.4558011637673012 19.3086533512413006
361 2 6.7132693171890150 19.8713006244635828 19.3086533512413006
362 2 10.1663940832977460 19.8713006244635828 19.3086533512413006
363 2 13.6195188494064752 19.8713006244635828 19.3086533512413006
364 2 17.0726436155152044 19.8713006244635828 19.3086533512413006
365 2 20.5257683816239336 19.8713006244635828 19.3086533512413006
366 2 23.9788931477326628 19.8713006244635828 19.3086533512413006
367 2 27.4320179138413920 19.8713006244635828 19.3086533512413006
368 2 30.8851426799501283 19.8713006244635828 19.3086533512413006
369 2 8.4398668488069841 25.2868000851598609 19.3086533512413006
370 2 11.8929916149157151 25.2868000851598609 19.3086533512413006
371 2 15.3461163810244443 25.2868000851598609 19.3086533512413006
372 2 18.7992411471331735 25.2868000851598609 19.3086533512413006
373 2 22.2523659132419027 25.2868000851598609 19.3086533512413006
374 2 25.7054906793506319 25.2868000851598609 19.3086533512413006
375 2 29.1586154454593611 25.2868000851598609 19.3086533512413006
376 2 32.6117402115680974 25.2868000851598609 19.3086533512413006
377 2 10.1664643804249550 30.7022995458561390 19.3086533512413006
378 2 13.6195891465336825 30.7022995458561390 19.3086533512413006
379 2 17.0727139126424134 30.7022995458561390 19.3086533512413006
380 2 20.5258386787511427 30.7022995458561390 19.3086533512413006
381 2 23.9789634448598754 30.7022995458561390 19.3086533512413006
382 2 27.4320882109686046 30.7022995458561390 19.3086533512413006
383 2 30.8852129770773303 30.7022995458561390 19.3086533512413006
384 2 34.3383377431860666 30.7022995458561390 19.3086533512413006
385 2 1.5334591143450884 0.4454316809104003 17.7734479332698996
386 2 4.9865838804538187 0.4454316809104003 17.7734479332698996
387 2 8.4397086465625488 0.4454316809104003 17.7734479332698996
388 2 11.8928334126712798 0.4454316809104003 17.7734479332698996
389 2 15.3459581787800090 0.4454316809104003 17.7734479332698996
390 2 18.7990829448887347 0.4454316809104003 17.7734479332698996
391 2 22.2522077109974639 0.4454316809104003 17.7734479332698996
392 2 25.7053324771061966 0.4454316809104003 17.7734479332698996
393 2 3.2600566459630587 5.8609311416066809 17.7734479332698996
394 2 6.7131814120717888 5.8609311416066809 17.7734479332698996
395 2 10.1663061781805180 5.8609311416066809 17.7734479332698996
396 2 13.6194309442892489 5.8609311416066809 17.7734479332698996
397 2 17.0725557103979781 5.8609311416066809 17.7734479332698996
398 2 20.5256804765067109 5.8609311416066809 17.7734479332698996
399 2 23.9788052426154401 5.8609311416066809 17.7734479332698996
400 2 27.4319300087241693 5.8609311416066809 17.7734479332698996
401 2 4.9866541775810269 11.2764306023029537 17.7734479332698996
402 2 8.4397789436897579 11.2764306023029537 17.7734479332698996
403 2 11.8929037097984871 11.2764306023029537 17.7734479332698996
404 2 15.3460284759072181 11.2764306023029537 17.7734479332698996
405 2 18.7991532420159437 11.2764306023029537 17.7734479332698996
406 2 22.2522780081246765 11.2764306023029537 17.7734479332698996
407 2 25.7054027742334057 11.2764306023029537 17.7734479332698996
408 2 29.1585275403421349 11.2764306023029537 17.7734479332698996
409 2 6.7132517091989978 16.6919300629992371 17.7734479332698996
410 2 10.1663764753077288 16.6919300629992371 17.7734479332698996
411 2 13.6195012414164580 16.6919300629992371 17.7734479332698996
412 2 17.0726260075251872 16.6919300629992371 17.7734479332698996
413 2 20.5257507736339164 16.6919300629992371 17.7734479332698996
414 2 23.9788755397426492 16.6919300629992371 17.7734479332698996
415 2 27.4320003058513784 16.6919300629992371 17.7734479332698996
416 2 30.8851250719601076 16.6919300629992371 17.7734479332698996
417 2 8.4398492408169687 22.1074295236955187 17.7734479332698996
418 2 11.8929740069257015 22.1074295236955187 17.7734479332698996
419 2 15.3460987730344272 22.1074295236955187 17.7734479332698996
420 2 18.7992235391431635 22.1074295236955187 17.7734479332698996
421 2 22.2523483052518856 22.1074295236955187 17.7734479332698996
422 2 25.7054730713606148 22.1074295236955187 17.7734479332698996
423 2 29.1585978374693440 22.1074295236955187 17.7734479332698996
424 2 32.6117226035780803 22.1074295236955187 17.7734479332698996
425 2 10.1664467724349379 27.5229289843917968 17.7734479332698996
426 2 13.6195715385436689 27.5229289843917968 17.7734479332698996
427 2 17.0726963046523963 27.5229289843917968 17.7734479332698996
428 2 20.5258210707611326 27.5229289843917968 17.7734479332698996
429 2 23.9789458368698547 27.5229289843917968 17.7734479332698996
430 2 27.4320706029785839 27.5229289843917968 17.7734479332698996
431 2 30.8851953690873131 27.5229289843917968 17.7734479332698996
432 2 34.3383201351960494 27.5229289843917968 17.7734479332698996
433 2 3.2600346560520821 2.8951501451497634 17.3343275544965998
434 2 6.7131594221608122 2.8951501451497634 17.3343275544965998
435 2 10.1662841882695449 2.8951501451497634 17.3343275544965998
436 2 13.6194089543782741 2.8951501451497634 17.3343275544965998
437 2 17.0725337204870016 2.8951501451497634 17.3343275544965998
438 2 20.5256584865957308 2.8951501451497634 17.3343275544965998
439 2 23.9787832527044564 2.8951501451497634 17.3343275544965998
440 2 27.4319080188131856 2.8951501451497634 17.3343275544965998
441 2 4.9866321876700521 8.3106496058460433 17.3343275544965998
442 2 8.4397569537787831 8.3106496058460433 17.3343275544965998
443 2 11.8928817198875088 8.3106496058460433 17.3343275544965998
444 2 15.3460064859962433 8.3106496058460433 17.3343275544965998
445 2 18.7991312521049707 8.3106496058460433 17.3343275544965998
446 2 22.2522560182137070 8.3106496058460433 17.3343275544965998
447 2 25.7053807843224291 8.3106496058460433 17.3343275544965998
448 2 29.1585055504311654 8.3106496058460433 17.3343275544965998
449 2 6.7132297192880213 13.7261490665423196 17.3343275544965998
450 2 10.1663544853967522 13.7261490665423196 17.3343275544965998
451 2 13.6194792515054814 13.7261490665423196 17.3343275544965998
452 2 17.0726040176142106 13.7261490665423196 17.3343275544965998
453 2 20.5257287837229399 13.7261490665423196 17.3343275544965998
454 2 23.9788535498316691 13.7261490665423196 17.3343275544965998
455 2 27.4319783159403983 13.7261490665423196 17.3343275544965998
456 2 30.8851030820491275 13.7261490665423196 17.3343275544965998
457 2 8.4398272509059922 19.1416485272386012 17.3343275544965998
458 2 11.8929520170147214 19.1416485272386012 17.3343275544965998
459 2 15.3460767831234524 19.1416485272386012 17.3343275544965998
460 2 18.7992015492321833 19.1416485272386012 17.3343275544965998
461 2 22.2523263153409125 19.1416485272386012 17.3343275544965998
462 2 25.7054510814496417 19.1416485272386012 17.3343275544965998
463 2 29.1585758475583710 19.1416485272386012 17.3343275544965998
464 2 32.6117006136670966 19.1416485272386012 17.3343275544965998
465 2 10.1664247825239613 24.5571479879348793 17.3343275544965998
466 2 13.6195495486326941 24.5571479879348793 17.3343275544965998
467 2 17.0726743147414268 24.5571479879348793 17.3343275544965998
468 2 20.5257990808501525 24.5571479879348793 17.3343275544965998
469 2 23.9789238469588817 24.5571479879348793 17.3343275544965998
470 2 27.4320486130676109 24.5571479879348793 17.3343275544965998
471 2 30.8851733791763365 24.5571479879348793 17.3343275544965998
472 2 34.3382981452850728 24.5571479879348793 17.3343275544965998
473 2 11.8930223141419322 29.9726474486311574 17.3343275544965998
474 2 15.3461470802506632 29.9726474486311574 17.3343275544965998
475 2 18.7992718463593924 29.9726474486311574 17.3343275544965998
476 2 22.2523966124681252 29.9726474486311574 17.3343275544965998
477 2 25.7055213785768544 29.9726474486311574 17.3343275544965998
478 2 29.1586461446855836 29.9726474486311574 17.3343275544965998
479 2 32.6117709107943128 29.9726474486311574 17.3343275544965998
480 2 36.0648956769030420 29.9726474486311574 17.3343275544965998
