ITEM: TIMESTEP
0
ITEM: NUMBER OF ATOMS
240
ITEM: BOX BOUNDS xy xz yz pp pp pp
0.0000000000000000e+00 2.7625138723124262e+01 6.9063901264718801e+00
0.0000000000000000e+00 2.1661997842785119e+01 0.0000000000000000e+00
0.0000000000000000e+00 3.0000000000000000e+01 0.0000000000000000e+00
ITEM: ATOMS id type fx fy fz
1 1 0.113275 0.0574839 -0.0268513
2 1 -0.000796785 0.000214176 0.000135093
3 1 -3.23465e-10 2.09135e-08 3.13912e-09
4 1 -3.23366e-10 2.09135e-08 3.13913e-09
5 1 0.000504254 0.000400538 -0.000573178
6 1 -0.00511253 0.0203982 -0.00559107
7 1 -1.13429e-05 -8.5627e-05 4.00835e-05
8 1 -3.23467e-10 2.09135e-08 3.13914e-09
9 1 -3.2346e-10 2.09135e-08 3.13914e-09
10 1 -3.23452e-10 2.09135e-08 3.13914e-09
11 1 -1.1452e-06 -4.36713e-05 2.92459e-05
12 1 1.24891e-05 -0.000129322 6.93265e-05
13 1 -3.23507e-10 2.09135e-08 3.13914e-09
14 1 -3.2352e-10 2.09135e-08 3.13913e-09
15 1 -3.23467e-10 2.09135e-08 3.13913e-09
16 1 -3.23486e-10 2.09135e-08 3.13913e-09
17 1 -3.23516e-10 2.09135e-08 3.13913e-09
18 1 -3.23331e-10 2.09135e-08 3.13913e-09
19 1 -0.000238759 -0.0122213 -0.000565435
20 1 -8.65316e-05 -7.80802e-05 -2.63046e-05
21 1 3.67488e-06 -1.85391e-06 -1.38046e-07
22 1 -3.23376e-10 2.09135e-08 3.13914e-09
23 1 -7.16618e-06 -3.38656e-06 -4.29881e-07
24 1 0.000499012 0.000169514 -6.11749e-05
25 1 0.00899262 0.036752 0.0177933
26 1 0.00180493 -0.00333975 -0.000615997
27 1 -0.00038256 0.000113158 0.000108835
28 1 1.20836e-10 -4.40012e-08 -4.4857e-08
29 1 -8.77021e-05 -0.000149288 -0.000152988
30 1 0.036961 0.0156194 0.0188125
31 1 0.00261354 -0.00556307 0.00610908
32 1 -0.000341499 -0.000114304 0.000116891
33 1 1.20807e-10 -4.40012e-08 -4.4857e-08
34 1 1.20819e-10 -4.40012e-08 -4.4857e-08
35 1 0.000170084 -7.38815e-05 5.88529e-05
36 1 -0.00172744 -0.00426099 0.00381573
37 1 1.20902e-10 -4.40012e-08 -4.4857e-08
38 1 1.20857e-10 -4.40012e-08 -4.4857e-08
39 1 1.20897e-10 -4.40012e-08 -4.4857e-08
40 1 1.20888e-10 -4.40012e-08 -4.4857e-08
41 1 1.2084e-10 -4.40012e-08 -4.4857e-08
42 1 1.20845e-10 -4.40012e-08 -4.4857e-08
43 1 -1.77673e-05 -5.74861e-05 -1.21262e-05
44 1 1.83948e-05 -5.60806e-05 -1.17733e-05
45 1 5.70774e-07 -1.32741e-06 -3.67022e-07
46 1 1.20753e-10 -4.40012e-08 -4.4857e-08
47 1 1.20825e-10 -4.40012e-08 -4.4857e-08
48 1 -1.19687e-06 -2.736e-06 -7.2061e-07
49 1 1.55988e-10 4.49694e-08 4.5562e-08
50 1 1.56015e-10 4.49694e-08 4.5562e-08
51 1 1.56072e-10 4.49694e-08 4.55619e-08
52 1 1.56036e-10 4.49694e-08 4.5562e-08
53 1 1.56021e-10 4.49694e-08 4.55619e-08
54 1 1.56052e-10 4.49694e-08 4.55619e-08
55 1 1.56034e-10 4.49694e-08 4.5562e-08
56 1 1.56015e-10 4.49693e-08 4.5562e-08
57 1 1.56058e-10 4.49694e-08 4.5562e-08
58 1 1.55946e-10 4.49693e-08 4.5562e-08
59 1 1.56016e-10 4.49694e-08 4.55619e-08
60 1 1.56089e-10 4.49693e-08 4.5562e-08
61 1 1.5602e-10 4.49694e-08 4.55619e-08
62 1 1.56046e-10 4.49694e-08 4.5562e-08
63 1 1.56093e-10 4.49694e-08 4.55619e-08
64 1 1.55991e-10 4.49694e-08 4.55619e-08
65 1 1.56061e-10 4.49694e-08 4.55619e-08
66 1 1.56127e-10 4.49694e-08 4.5562e-08
67 1 1.56035e-10 4.49694e-08 4.55619e-08
68 1 1.56062e-10 4.49694e-08 4.55619e-08
69 1 1.56072e-10 4.49694e-08 4.55619e-08
70 1 1.56102e-10 4.49694e-08 4.55619e-08
71 1 1.55985e-10 4.49694e-08 4.55619e-08
72 1 1.56096e-10 4.49694e-08 4.55619e-08
73 1 -3.412e-10 -2.13462e-08 -2.95367e-09
74 1 -3.41096e-10 -2.13463e-08 -2.95365e-09
75 1 -3.41037e-10 -2.13463e-08 -2.95366e-09
76 1 -3.41053e-10 -2.13463e-08 -2.95365e-09
77 1 -3.41059e-10 -2.13463e-08 -2.95365e-09
78 1 -3.41115e-10 -2.13463e-08 -2.95365e-09
79 1 -3.4119e-10 -2.13463e-08 -2.95365e-09
80 1 -3.41105e-10 -2.13463e-08 -2.95365e-09
81 1 -3.41108e-10 -2.13463e-08 -2.95366e-09
82 1 -3.41078e-10 -2.13463e-08 -2.95365e-09
83 1 -3.41021e-10 -2.13463e-08 -2.95367e-09
84 1 -3.41056e-10 -2.13463e-08 -2.95367e-09
85 1 -3.41139e-10 -2.13463e-08 -2.95364e-09
86 1 -3.4112e-10 -2.13463e-08 -2.95366e-09
87 1 -3.41052e-10 -2.13463e-08 -2.95367e-09
88 1 -3.41047e-10 -2.13463e-08 -2.95366e-09
89 1 -3.41088e-10 -2.13463e-08 -2.95366e-09
90 1 -3.41081e-10 -2.13463e-08 -2.95366e-09
91 1 -3.41196e-10 -2.13463e-08 -2.95366e-09
92 1 -3.41174e-10 -2.13464e-08 -2.95366e-09
93 1 -3.41099e-10 -2.13464e-08 -2.95367e-09
94 1 -3.41032e-10 -2.13463e-08 -2.95367e-09
95 1 -3.41118e-10 -2.13463e-08 -2.95366e-09
96 1 -3.41054e-10 -2.13464e-08 -2.95365e-09
97 2 -0.184236 -0.255673 -0.0261313
98 2 -0.0123749 0.00794046 -0.00473299
99 2 0.000508579 -0.000483091 2.52638e-06
100 2 -1.64526e-11 1.40085e-08 -6.22558e-08
101 2 0.000453414 -0.000482826 -8.80377e-06
102 2 0.00137846 0.00307747 0.00193595
103 2 -0.000139749 0.00202579 0.000433354
104 2 -2.3912e-06 -6.84419e-06 2.68959e-06
105 2 -1.64566e-11 1.40085e-08 -6.22558e-08
106 2 -1.64657e-11 1.40085e-08 -6.22558e-08
107 2 2.1857e-07 -3.74867e-06 2.18375e-06
108 2 0.000186402 0.00122635 0.000338439
109 2 -1.64961e-11 1.40085e-08 -6.22559e-08
110 2 -1.6382e-11 1.40085e-08 -6.22558e-08
111 2 -1.63922e-11 1.40085e-08 -6.22558e-08
112 2 -1.63982e-11 1.40085e-08 -6.22558e-08
113 2 -1.64358e-11 1.40085e-08 -6.22558e-08
114 2 -1.64627e-11 1.40085e-08 -6.22558e-08
115 2 0.00124004 0.00151913 -0.000365859
116 2 -0.00119496 0.00163522 -0.000308598
117 2 3.56763e-06 -4.7028e-06 6.25587e-07
118 2 -1.64398e-11 1.40085e-08 -6.22558e-08
119 2 -1.6483e-11 1.40085e-08 -6.22558e-08
120 2 -5.50089e-06 -5.30705e-06 -2.43013e-07
121 2 -3.14132e-05 0.0539273 0.00740458
122 2 -0.00384527 0.00162196 -0.000446297
123 2 8.83189e-06 -3.35016e-07 -4.86031e-07
124 2 3.695e-10 2.38355e-08 9.53311e-08
125 2 1.31869e-05 8.47594e-06 -1.14892e-05
126 2 0.00524656 0.00352715 1.21657e-06
127 2 0.0367795 0.0506306 -0.0140176
128 2 -0.0023881 0.000394729 -0.0002643
129 2 3.6949e-10 2.38355e-08 9.53311e-08
130 2 3.6949e-10 2.38355e-08 9.53311e-08
131 2 1.39011e-05 0.00126298 -0.000270211
132 2 -0.020748 0.0309573 -0.00793463
133 2 2.02209e-06 4.57062e-06 1.23668e-06
134 2 3.69494e-10 2.38354e-08 9.53311e-08
135 2 3.69501e-10 2.38354e-08 9.53311e-08
136 2 3.69502e-10 2.38354e-08 9.53311e-08
137 2 -1.50394e-06 3.40705e-06 9.44595e-07
138 2 -5.17143e-07 7.95388e-06 2.08596e-06
139 2 8.86866e-07 1.87711e-06 4.17377e-08
140 2 -8.86142e-07 1.87718e-06 4.17354e-08
141 2 3.69507e-10 2.38354e-08 9.53311e-08
142 2 3.69486e-10 2.38354e-08 9.53311e-08
143 2 3.69537e-10 2.38354e-08 9.53311e-08
144 2 3.69526e-10 2.38354e-08 9.53311e-08
145 2 -0.00836817 -0.0120092 0.00378369
146 2 0.000587846 -0.00051998 -0.000283084
147 2 -1.50468e-10 -1.47563e-08 8.64262e-09
148 2 -1.50398e-10 -1.47563e-08 8.64263e-09
149 2 -0.000278621 -0.000401476 0.000105999
150 2 0.0309542 0.00148724 0.0304188
151 2 0.00152702 0.00168196 -0.00163574
152 2 -1.5039e-10 -1.47563e-08 8.64262e-09
153 2 -1.50405e-10 -1.47562e-08 8.64261e-09
154 2 -1.50331e-10 -1.47563e-08 8.64263e-09
155 2 -0.00115561 0.000975461 -0.00104732
156 2 -4.79219e-05 -6.97544e-06 -6.39468e-05
157 2 -1.50458e-10 -1.47563e-08 8.64262e-09
158 2 -1.50493e-10 -1.47563e-08 8.64263e-09
159 2 -1.50513e-10 -1.47563e-08 8.64262e-09
160 2 -1.50477e-10 -1.47563e-08 8.64263e-09
161 2 -1.50425e-10 -1.47563e-08 8.64262e-09
162 2 -1.50517e-10 -1.47562e-08 8.64261e-09
163 2 -0.000128335 0.000716259 0.000466233
164 2 -1.6035e-06 -2.63271e-06 -9.70418e-07
165 2 4.56837e-09 -1.9101e-08 6.54475e-09
166 2 -1.50421e-10 -1.47563e-08 8.6426e-09
167 2 -1.00408e-08 -2.38625e-08 4.24551e-09
168 2 1.60334e-06 -4.27438e-06 -2.55331e-06
169 2 -1.32099e-10 1.51554e-08 -8.78188e-09
170 2 -1.32036e-10 1.51553e-08 -8.78184e-09
171 2 -1.32123e-10 1.51554e-08 -8.78183e-09
172 2 -1.32102e-10 1.51553e-08 -8.78184e-09
173 2 -1.32107e-10 1.51554e-08 -8.78183e-09
174 2 -1.32102e-10 1.51554e-08 -8.78183e-09
175 2 -1.32104e-10 1.51554e-08 -8.78185e-09
176 2 -1.32043e-10 1.51554e-08 -8.78184e-09
177 2 -1.321e-10 1.51554e-08 -8.78182e-09
178 2 -1.32037e-10 1.51554e-08 -8.78185e-09
179 2 -1.32082e-10 1.51554e-08 -8.78183e-09
180 2 -1.32074e-10 1.51554e-08 -8.78183e-09
181 2 -1.32161e-10 1.51554e-08 -8.78187e-09
182 2 -1.32078e-10 1.51553e-08 -8.78183e-09
183 2 -1.32135e-10 1.51553e-08 -8.78182e-09
184 2 -1.32059e-10 1.51554e-08 -8.78186e-09
185 2 -1.32081e-10 1.51553e-08 -8.78182e-09
186 2 -1.32077e-10 1.51553e-08 -8.78182e-09
187 2 -1.32097e-10 1.51554e-08 -8.78186e-09
188 2 -1.32133e-10 1.51554e-08 -8.78183e-09
189 2 -1.32089e-10 1.51554e-08 -8.78184e-09
190 2 -1.32143e-10 1.51554e-08 -8.78185e-09
191 2 -1.32049e-10 1.51554e-08 -8.78188e-09
192 2 -1.32086e-10 1.51554e-08 -8.78179e-09
193 2 3.52449e-10 -2.44093e-08 -9.74359e-08
194 2 3.52464e-10 -2.44093e-08 -9.74359e-08
195 2 3.52462e-10 -2.44093e-08 -9.74359e-08
196 2 3.52471e-10 -2.44093e-08 -9.74359e-08
197 2 3.52451e-10 -2.44093e-08 -9.74359e-08
198 2 3.52478e-10 -2.44093e-08 -9.74359e-08
199 2 3.52464e-10 -2.44092e-08 -9.74359e-08
200 2 3.52473e-10 -2.44093e-08 -9.74359e-08
201 2 3.52481e-10 -2.44092e-08 -9.74359e-08
202 2 3.52475e-10 -2.44093e-08 -9.74359e-08
203 2 3.52473e-10 -2.44093e-08 -9.74359e-08
204 2 3.5248e-10 -2.44093e-08 -9.74359e-08
205 2 3.52474e-10 -2.44092e-08 -9.74359e-08
206 2 3.52466e-10 -2.44092e-08 -9.74359e-08
207 2 3.52502e-10 -2.44092e-08 -9.74359e-08
208 2 3.52496e-10 -2.44092e-08 -9.74359e-08
209 2 3.5249e-10 -2.44092e-08 -9.74359e-08
210 2 3.52478e-10 -2.44092e-08 -9.74359e-08
211 2 3.52455e-10 -2.44092e-08 -9.74359e-08
212 2 3.52485e-10 -2.44092e-08 -9.74359e-08
213 2 3.52496e-10 -2.44092e-08 -9.74359e-08
214 2 3.52477e-10 -2.44092e-08 -9.74359e-08
215 2 3.52499e-10 -2.44092e-08 -9.74359e-08
216 2 3.52517e-10 -2.44092e-08 -9.74359e-08
217 2 -3.53424e-11 -1.43692e-08 6.36094e-08
218 2 -3.53719e-11 -1.43692e-08 6.36094e-08
219 2 -3.53525e-11 -1.43692e-08 6.36095e-08
220 2 -3.53645e-11 -1.43692e-08 6.36095e-08
221 2 -3.53172e-11 -1.43692e-08 6.36095e-08
222 2 -3.51261e-11 -1.43692e-08 6.36095e-08
223 2 -3.5274e-11 -1.43692e-08 6.36094e-08
224 2 -3.53492e-11 -1.43692e-08 6.36095e-08
225 2 -3.53209e-11 -1.43692e-08 6.36094e-08
226 2 -3.53402e-11 -1.43692e-08 6.36095e-08
227 2 -3.53788e-11 -1.43692e-08 6.36095e-08
228 2 -3.53415e-11 -1.43692e-08 6.36095e-08
229 2 -3.52933e-11 -1.43692e-08 6.36094e-08
230 2 -3.53443e-11 -1.43692e-08 6.36094e-08
231 2 -3.53947e-11 -1.43692e-08 6.36095e-08
232 2 -3.53991e-11 -1.43692e-08 6.36095e-08
233 2 -3.53784e-11 -1.43692e-08 6.36094e-08
234 2 -3.5342e-11 -1.43692e-08 6.36095e-08
235 2 -3.52596e-11 -1.43692e-08 6.36095e-08
236 2 -3.52822e-11 -1.43692e-08 6.36095e-08
237 2 -3.53341e-11 -1.43692e-08 6.36095e-08
238 2 -3.53635e-11 -1.43692e-08 6.36095e-08
239 2 -3.54666e-11 -1.43692e-08 6.36095e-08
240 2 -3.52229e-11 -1.43692e-08 6.36095e-08
