ITEM: TIMESTEP
0
ITEM: NUMBER OF ATOMS
240
ITEM: BOX BOUNDS xy xz yz pp pp pp
0.0000000000000000e+00 2.7625138723124262e+01 6.9063901264718801e+00
0.0000000000000000e+00 2.1661997842785119e+01 0.0000000000000000e+00
0.0000000000000000e+00 3.0000000000000000e+01 0.0000000000000000e+00
ITEM: ATOMS id type fx fy fz
1 1 -0.0693184 -0.0523077 -0.0217258
2 1 -0.000574745 -0.000795019 -0.000870016
3 1 -3.23465e-10 2.09135e-08 3.13912e-09
4 1 -3.23366e-10 2.09135e-08 3.13913e-09
5 1 -0.000229832 -0.000807428 -0.000291269
6 1 0.0505718 -0.0135898 0.00574722
7 1 1.62276e-05 3.39464e-05 -9.77927e-07
8 1 -3.23467e-10 2.09135e-08 3.13914e-09
9 1 -3.2346e-10 2.09135e-08 3.13914e-09
10 1 -3.23452e-10 2.09135e-08 3.13914e-09
11 1 -1.23654e-05 2.58714e-05 -7.44413e-07
12 1 -3.86372e-06 5.97972e-05 -1.72549e-06
13 1 4.99909e-07 2.24617e-06 -2.91324e-07
14 1 -5.00588e-07 1.9765e-06 -3.2211e-07
15 1 -3.23467e-10 2.09135e-08 3.13913e-09
16 1 -3.23486e-10 2.09135e-08 3.13913e-09
17 1 -3.23516e-10 2.09135e-08 3.13913e-09
18 1 -3.23331e-10 2.09135e-08 3.13913e-09
19 1 -0.00021608 -0.0949824 0.0095188
20 1 0.000820898 -0.00112981 0.000102365
21 1 8.00489e-05 -4.00155e-05 -4.5153e-06
22 1 -3.23376e-10 2.09135e-08 3.13914e-09
23 1 -0.000562539 -0.000294424 -2.96532e-05
24 1 -8.0092e-05 -0.00243762 -5.25323e-05
25 1 0.159169 0.526302 -0.169641
26 1 -0.0260709 0.00375984 -0.0125425
27 1 -0.000596262 -0.000688533 -5.55059e-05
28 1 1.20836e-10 -4.40012e-08 -4.4857e-08
29 1 -0.00187985 -0.000245663 -0.000292562
30 1 0.00692649 -0.00590706 -0.00132771
31 1 -0.000723661 0.000701034 -0.000962306
32 1 3.62627e-05 2.20889e-05 -1.38709e-05
33 1 1.20807e-10 -4.40012e-08 -4.4857e-08
34 1 1.20819e-10 -4.40012e-08 -4.4857e-08
35 1 -2.56022e-05 9.75632e-06 -7.9095e-06
36 1 0.000599343 -0.00011967 -0.000673784
37 1 1.20902e-10 -4.40012e-08 -4.4857e-08
38 1 1.20857e-10 -4.40012e-08 -4.4857e-08
39 1 1.20897e-10 -4.40012e-08 -4.4857e-08
40 1 1.20888e-10 -4.40012e-08 -4.4857e-08
41 1 1.2084e-10 -4.40012e-08 -4.4857e-08
42 1 1.20845e-10 -4.40012e-08 -4.4857e-08
43 1 0.00113934 -1.62323e-05 0.00111802
44 1 -0.00126962 0.000413805 0.0010253
45 1 -1.47164e-05 5.87138e-06 5.82776e-06
46 1 1.20753e-10 -4.40012e-08 -4.4857e-08
47 1 1.20825e-10 -4.40012e-08 -4.4857e-08
48 1 2.56402e-05 2.54991e-05 1.14117e-05
49 1 1.55988e-10 4.49694e-08 4.5562e-08
50 1 1.56015e-10 4.49694e-08 4.5562e-08
51 1 1.56072e-10 4.49694e-08 4.55619e-08
52 1 1.56036e-10 4.49694e-08 4.5562e-08
53 1 1.56021e-10 4.49694e-08 4.55619e-08
54 1 1.56052e-10 4.49694e-08 4.55619e-08
55 1 1.56034e-10 4.49694e-08 4.5562e-08
56 1 1.56015e-10 4.49693e-08 4.5562e-08
57 1 1.56058e-10 4.49694e-08 4.5562e-08
58 1 1.55946e-10 4.49693e-08 4.5562e-08
59 1 1.56016e-10 4.49694e-08 4.55619e-08
60 1 1.56089e-10 4.49693e-08 4.5562e-08
61 1 1.5602e-10 4.49694e-08 4.55619e-08
62 1 1.56046e-10 4.49694e-08 4.5562e-08
63 1 1.56093e-10 4.49694e-08 4.55619e-08
64 1 1.55991e-10 4.49694e-08 4.55619e-08
65 1 1.56061e-10 4.49694e-08 4.55619e-08
66 1 1.56127e-10 4.49694e-08 4.5562e-08
67 1 1.56035e-10 4.49694e-08 4.55619e-08
68 1 1.56062e-10 4.49694e-08 4.55619e-08
69 1 1.56072e-10 4.49694e-08 4.55619e-08
70 1 1.56102e-10 4.49694e-08 4.55619e-08
71 1 1.55985e-10 4.49694e-08 4.55619e-08
72 1 1.56096e-10 4.49694e-08 4.55619e-08
73 1 -3.412e-10 -2.13462e-08 -2.95367e-09
74 1 -3.41096e-10 -2.13463e-08 -2.95365e-09
75 1 -3.41037e-10 -2.13463e-08 -2.95366e-09
76 1 -3.41053e-10 -2.13463e-08 -2.95365e-09
77 1 -3.41059e-10 -2.13463e-08 -2.95365e-09
78 1 -3.41115e-10 -2.13463e-08 -2.95365e-09
79 1 -3.4119e-10 -2.13463e-08 -2.95365e-09
80 1 -3.41105e-10 -2.13463e-08 -2.95365e-09
81 1 -3.41108e-10 -2.13463e-08 -2.95366e-09
82 1 -3.41078e-10 -2.13463e-08 -2.95365e-09
83 1 -3.41021e-10 -2.13463e-08 -2.95367e-09
84 1 -3.41056e-10 -2.13463e-08 -2.95367e-09
85 1 -3.41139e-10 -2.13463e-08 -2.95364e-09
86 1 -3.4112e-10 -2.13463e-08 -2.95366e-09
87 1 -3.41052e-10 -2.13463e-08 -2.95367e-09
88 1 -3.41047e-10 -2.13463e-08 -2.95366e-09
89 1 -3.41088e-10 -2.13463e-08 -2.95366e-09
90 1 -3.41081e-10 -2.13463e-08 -2.95366e-09
91 1 -3.41196e-10 -2.13463e-08 -2.95366e-09
92 1 -3.41174e-10 -2.13464e-08 -2.95366e-09
93 1 -3.41099e-10 -2.13464e-08 -2.95367e-09
94 1 -3.41032e-10 -2.13463e-08 -2.95367e-09
95 1 -3.41118e-10 -2.13463e-08 -2.95366e-09
96 1 -3.41054e-10 -2.13464e-08 -2.95365e-09
97 2 -0.00943579 -0.0372194 -0.0505115
98 2 -0.0430135 -0.013827 -0.0125091
99 2 -7.29048e-07 -8.17798e-05 -7.9899e-05
100 2 -1.64526e-11 1.40085e-08 -6.22558e-08
101 2 -0.000484699 0.000159637 0.000161599
102 2 0.00331389 0.00182782 -5.21914e-05
103 2 2.01496e-06 5.77199e-05 9.17115e-06
104 2 2.64395e-06 2.28482e-06 2.73965e-07
105 2 -1.64566e-11 1.40085e-08 -6.22558e-08
106 2 -1.64657e-11 1.40085e-08 -6.22558e-08
107 2 -2.01488e-06 1.74453e-06 1.93969e-07
108 2 -2.64404e-06 4.84555e-05 7.5151e-06
109 2 -1.64961e-11 1.40085e-08 -6.22559e-08
110 2 -1.6382e-11 1.40085e-08 -6.22558e-08
111 2 -1.63922e-11 1.40085e-08 -6.22558e-08
112 2 -1.63982e-11 1.40085e-08 -6.22558e-08
113 2 -1.64358e-11 1.40085e-08 -6.22558e-08
114 2 -1.64627e-11 1.40085e-08 -6.22558e-08
115 2 0.00181631 0.00408862 -0.00123582
116 2 -0.00272872 0.00543203 -0.000981408
117 2 1.28305e-05 1.64228e-05 7.49897e-06
118 2 -1.64398e-11 1.40085e-08 -6.22558e-08
119 2 -1.6483e-11 1.40085e-08 -6.22558e-08
120 2 0.00024552 0.000195265 -5.26946e-05
121 2 0.00683949 -0.265414 0.19385
122 2 -0.00822621 0.0039995 -0.00124534
123 2 -0.00150792 0.000627413 -0.000420073
124 2 3.695e-10 2.38355e-08 9.53311e-08
125 2 0.000697682 -4.69952e-05 1.23804e-05
126 2 -0.000770241 0.00922006 -0.000849388
127 2 0.000937836 -0.00151143 0.00178909
128 2 0.00302714 0.00150727 -5.28834e-05
129 2 3.6949e-10 2.38355e-08 9.53311e-08
130 2 3.6949e-10 2.38355e-08 9.53311e-08
131 2 -0.00183987 0.000918218 -1.57787e-05
132 2 0.00108968 -0.00076668 0.00108868
133 2 3.69498e-10 2.38354e-08 9.53311e-08
134 2 3.69494e-10 2.38354e-08 9.53311e-08
135 2 3.69501e-10 2.38354e-08 9.53311e-08
136 2 3.69502e-10 2.38354e-08 9.53311e-08
137 2 3.6949e-10 2.38354e-08 9.53311e-08
138 2 3.69506e-10 2.38354e-08 9.53311e-08
139 2 -0.000113045 -0.000193151 8.65051e-06
140 2 0.000113012 -0.000205836 6.60696e-06
141 2 -1.04281e-06 4.59452e-07 2.9811e-07
142 2 3.69486e-10 2.38354e-08 9.53311e-08
143 2 3.69537e-10 2.38354e-08 9.53311e-08
144 2 1.07894e-06 -6.65512e-08 3.87365e-07
145 2 -0.0762183 -0.0502178 0.0533808
146 2 -0.000176266 8.13477e-06 0.000607597
147 2 -1.50468e-10 -1.47563e-08 8.64262e-09
148 2 -1.50398e-10 -1.47563e-08 8.64263e-09
149 2 -0.000569124 -2.84413e-05 0.000426368
150 2 0.00931636 -0.0216908 0.00673699
151 2 5.1023e-06 -2.24356e-05 -6.20628e-06
152 2 -1.5039e-10 -1.47563e-08 8.64262e-09
153 2 -1.50405e-10 -1.47562e-08 8.64261e-09
154 2 -1.50331e-10 -1.47563e-08 8.64263e-09
155 2 -8.72792e-06 -5.7683e-06 -8.73765e-06
156 2 3.62884e-06 -2.81923e-05 -1.49515e-05
157 2 -1.50458e-10 -1.47563e-08 8.64262e-09
158 2 -1.50493e-10 -1.47563e-08 8.64263e-09
159 2 -1.50513e-10 -1.47563e-08 8.64262e-09
160 2 -1.50477e-10 -1.47563e-08 8.64263e-09
161 2 -1.50425e-10 -1.47563e-08 8.64262e-09
162 2 -1.50517e-10 -1.47562e-08 8.64261e-09
163 2 -8.98362e-05 0.00717633 0.00204101
164 2 0.000405073 -0.000412953 -0.000284706
165 2 7.65766e-07 -3.10774e-07 -3.08223e-07
166 2 -1.50421e-10 -1.47563e-08 8.6426e-09
167 2 -1.62283e-06 -6.05023e-07 -6.60538e-07
168 2 -0.000446265 -0.00161571 -0.000847897
169 2 -1.32099e-10 1.51554e-08 -8.78188e-09
170 2 -1.32036e-10 1.51553e-08 -8.78184e-09
171 2 -1.32123e-10 1.51554e-08 -8.78183e-09
172 2 -1.32102e-10 1.51553e-08 -8.78184e-09
173 2 -1.32107e-10 1.51554e-08 -8.78183e-09
174 2 -1.32102e-10 1.51554e-08 -8.78183e-09
175 2 -1.32104e-10 1.51554e-08 -8.78185e-09
176 2 -1.32043e-10 1.51554e-08 -8.78184e-09
177 2 -1.321e-10 1.51554e-08 -8.78182e-09
178 2 -1.32037e-10 1.51554e-08 -8.78185e-09
179 2 -1.32082e-10 1.51554e-08 -8.78183e-09
180 2 -1.32074e-10 1.51554e-08 -8.78183e-09
181 2 -1.32161e-10 1.51554e-08 -8.78187e-09
182 2 -1.32078e-10 1.51553e-08 -8.78183e-09
183 2 -1.32135e-10 1.51553e-08 -8.78182e-09
184 2 -1.32059e-10 1.51554e-08 -8.78186e-09
185 2 -1.32081e-10 1.51553e-08 -8.78182e-09
186 2 -1.32077e-10 1.51553e-08 -8.78182e-09
187 2 -1.32097e-10 1.51554e-08 -8.78186e-09
188 2 -1.32133e-10 1.51554e-08 -8.78183e-09
189 2 -1.32089e-10 1.51554e-08 -8.78184e-09
190 2 -1.32143e-10 1.51554e-08 -8.78185e-09
191 2 -1.32049e-10 1.51554e-08 -8.78188e-09
192 2 -1.32086e-10 1.51554e-08 -8.78179e-09
193 2 3.52449e-10 -2.44093e-08 -9.74359e-08
194 2 3.52464e-10 -2.44093e-08 -9.74359e-08
195 2 3.52462e-10 -2.44093e-08 -9.74359e-08
196 2 3.52471e-10 -2.44093e-08 -9.74359e-08
197 2 3.52451e-10 -2.44093e-08 -9.74359e-08
198 2 3.52478e-10 -2.44093e-08 -9.74359e-08
199 2 3.52464e-10 -2.44092e-08 -9.74359e-08
200 2 3.52473e-10 -2.44093e-08 -9.74359e-08
201 2 3.52481e-10 -2.44092e-08 -9.74359e-08
202 2 3.52475e-10 -2.44093e-08 -9.74359e-08
203 2 3.52473e-10 -2.44093e-08 -9.74359e-08
204 2 3.5248e-10 -2.44093e-08 -9.74359e-08
205 2 3.52474e-10 -2.44092e-08 -9.74359e-08
206 2 3.52466e-10 -2.44092e-08 -9.74359e-08
207 2 3.52502e-10 -2.44092e-08 -9.74359e-08
208 2 3.52496e-10 -2.44092e-08 -9.74359e-08
209 2 3.5249e-10 -2.44092e-08 -9.74359e-08
210 2 3.52478e-10 -2.44092e-08 -9.74359e-08
211 2 3.52455e-10 -2.44092e-08 -9.74359e-08
212 2 3.52485e-10 -2.44092e-08 -9.74359e-08
213 2 3.52496e-10 -2.44092e-08 -9.74359e-08
214 2 3.52477e-10 -2.44092e-08 -9.74359e-08
215 2 3.52499e-10 -2.44092e-08 -9.74359e-08
216 2 3.52517e-10 -2.44092e-08 -9.74359e-08
217 2 -3.53424e-11 -1.43692e-08 6.36094e-08
218 2 -3.53719e-11 -1.43692e-08 6.36094e-08
219 2 -3.53525e-11 -1.43692e-08 6.36095e-08
220 2 -3.53645e-11 -1.43692e-08 6.36095e-08
221 2 -3.53172e-11 -1.43692e-08 6.36095e-08
222 2 -3.51261e-11 -1.43692e-08 6.36095e-08
223 2 -3.5274e-11 -1.43692e-08 6.36094e-08
224 2 -3.53492e-11 -1.43692e-08 6.36095e-08
225 2 -3.53209e-11 -1.43692e-08 6.36094e-08
226 2 -3.53402e-11 -1.43692e-08 6.36095e-08
227 2 -3.53788e-11 -1.43692e-08 6.36095e-08
228 2 -3.53415e-11 -1.43692e-08 6.36095e-08
229 2 -3.52933e-11 -1.43692e-08 6.36094e-08
230 2 -3.53443e-11 -1.43692e-08 6.36094e-08
231 2 -3.53947e-11 -1.43692e-08 6.36095e-08
232 2 -3.53991e-11 -1.43692e-08 6.36095e-08
233 2 -3.53784e-11 -1.43692e-08 6.36094e-08
234 2 -3.5342e-11 -1.43692e-08 6.36095e-08
235 2 -3.52596e-11 -1.43692e-08 6.36095e-08
236 2 -3.52822e-11 -1.43692e-08 6.36095e-08
237 2 -3.53341e-11 -1.43692e-08 6.36095e-08
238 2 -3.53635e-11 -1.43692e-08 6.36095e-08
239 2 -3.54666e-11 -1.43692e-08 6.36095e-08
240 2 -3.52229e-11 -1.43692e-08 6.36095e-08
