ITEM: TIMESTEP
0
ITEM: NUMBER OF ATOMS
240
ITEM: BOX BOUNDS xy xz yz pp pp pp
0.0000000000000000e+00 2.7625138723124262e+01 6.9063901264718801e+00
0.0000000000000000e+00 2.1661997842785119e+01 0.0000000000000000e+00
0.0000000000000000e+00 3.0000000000000000e+01 0.0000000000000000e+00
ITEM: ATOMS id type fx fy fz
1 1 -0.0109637 -0.0598661 -0.0215227
2 1 -0.00130896 0.000933142 -0.00500853
3 1 -0.000330213 0.000220506 0.000230108
4 1 -3.23366e-10 2.09135e-08 3.13913e-09
5 1 0.000402727 -0.000115844 -0.000118847
6 1 0.00116842 0.00267266 -0.000368773
7 1 1.94672e-05 5.8711e-05 -1.25058e-05
8 1 4.38343e-08 1.13228e-07 4.69568e-10
9 1 -3.2346e-10 2.09135e-08 3.13914e-09
10 1 -3.23452e-10 2.09135e-08 3.13914e-09
11 1 -2.73763e-08 7.74704e-08 1.50361e-09
12 1 -1.94855e-05 5.86785e-05 -1.25049e-05
13 1 -3.23507e-10 2.09135e-08 3.13914e-09
14 1 -3.2352e-10 2.09135e-08 3.13913e-09
15 1 -3.23467e-10 2.09135e-08 3.13913e-09
16 1 -3.23486e-10 2.09135e-08 3.13913e-09
17 1 -3.23516e-10 2.09135e-08 3.13913e-09
18 1 -3.23331e-10 2.09135e-08 3.13913e-09
19 1 0.000365132 0.00149009 0.00167005
20 1 -0.001118 0.00165676 0.000594482
21 1 -0.000733869 0.000373883 5.5e-05
22 1 -3.23376e-10 2.09135e-08 3.13914e-09
23 1 -3.23524e-10 2.09136e-08 3.13912e-09
24 1 0.00122705 0.000605625 0.000113796
25 1 -0.0909364 -0.0514989 0.0310566
26 1 0.00816584 -0.0210508 0.00327365
27 1 -0.000482028 -7.54767e-05 0.000622643
28 1 1.20836e-10 -4.40012e-08 -4.4857e-08
29 1 1.20777e-10 -4.40012e-08 -4.4857e-08
30 1 -9.80066e-05 4.8702e-05 0.000217933
31 1 -6.56567e-05 0.00744781 -0.000529298
32 1 -0.00183147 -0.00111158 0.000565811
33 1 -6.60314e-07 -7.39958e-07 1.1828e-07
34 1 1.20819e-10 -4.40012e-08 -4.4857e-08
35 1 2.36014e-08 -1.01906e-07 -4.09733e-08
36 1 0.00178898 -0.000860992 0.000493852
37 1 1.20902e-10 -4.40012e-08 -4.4857e-08
38 1 1.20857e-10 -4.40012e-08 -4.4857e-08
39 1 1.20897e-10 -4.40012e-08 -4.4857e-08
40 1 1.20888e-10 -4.40012e-08 -4.4857e-08
41 1 1.2084e-10 -4.40012e-08 -4.4857e-08
42 1 1.20845e-10 -4.40012e-08 -4.4857e-08
43 1 -3.08386e-05 -1.41907e-05 -1.42639e-05
44 1 4.60109e-06 -3.20292e-05 -2.66963e-05
45 1 2.6237e-05 -1.78834e-05 -1.24775e-05
46 1 1.20753e-10 -4.40012e-08 -4.4857e-08
47 1 1.20825e-10 -4.40012e-08 -4.4857e-08
48 1 1.20928e-10 -4.40012e-08 -4.4857e-08
49 1 1.55988e-10 4.49694e-08 4.5562e-08
50 1 1.56015e-10 4.49694e-08 4.5562e-08
51 1 1.56072e-10 4.49694e-08 4.55619e-08
52 1 1.56036e-10 4.49694e-08 4.5562e-08
53 1 1.56021e-10 4.49694e-08 4.55619e-08
54 1 1.56052e-10 4.49694e-08 4.55619e-08
55 1 1.56034e-10 4.49694e-08 4.5562e-08
56 1 1.56015e-10 4.49693e-08 4.5562e-08
57 1 1.56058e-10 4.49694e-08 4.5562e-08
58 1 1.55946e-10 4.49693e-08 4.5562e-08
59 1 1.56016e-10 4.49694e-08 4.55619e-08
60 1 1.56089e-10 4.49693e-08 4.5562e-08
61 1 1.5602e-10 4.49694e-08 4.55619e-08
62 1 1.56046e-10 4.49694e-08 4.5562e-08
63 1 1.56093e-10 4.49694e-08 4.55619e-08
64 1 1.55991e-10 4.49694e-08 4.55619e-08
65 1 1.56061e-10 4.49694e-08 4.55619e-08
66 1 1.56127e-10 4.49694e-08 4.5562e-08
67 1 1.56035e-10 4.49694e-08 4.55619e-08
68 1 1.56062e-10 4.49694e-08 4.55619e-08
69 1 1.56072e-10 4.49694e-08 4.55619e-08
70 1 1.56102e-10 4.49694e-08 4.55619e-08
71 1 1.55985e-10 4.49694e-08 4.55619e-08
72 1 1.56096e-10 4.49694e-08 4.55619e-08
73 1 -3.412e-10 -2.13462e-08 -2.95367e-09
74 1 -3.41096e-10 -2.13463e-08 -2.95365e-09
75 1 -3.41037e-10 -2.13463e-08 -2.95366e-09
76 1 -3.41053e-10 -2.13463e-08 -2.95365e-09
77 1 -3.41059e-10 -2.13463e-08 -2.95365e-09
78 1 -3.41115e-10 -2.13463e-08 -2.95365e-09
79 1 -3.4119e-10 -2.13463e-08 -2.95365e-09
80 1 -3.41105e-10 -2.13463e-08 -2.95365e-09
81 1 -3.41108e-10 -2.13463e-08 -2.95366e-09
82 1 -3.41078e-10 -2.13463e-08 -2.95365e-09
83 1 -3.41021e-10 -2.13463e-08 -2.95367e-09
84 1 -3.41056e-10 -2.13463e-08 -2.95367e-09
85 1 -3.41139e-10 -2.13463e-08 -2.95364e-09
86 1 -3.4112e-10 -2.13463e-08 -2.95366e-09
87 1 -3.41052e-10 -2.13463e-08 -2.95367e-09
88 1 -3.41047e-10 -2.13463e-08 -2.95366e-09
89 1 -3.41088e-10 -2.13463e-08 -2.95366e-09
90 1 -3.41081e-10 -2.13463e-08 -2.95366e-09
91 1 -3.41196e-10 -2.13463e-08 -2.95366e-09
92 1 -3.41174e-10 -2.13464e-08 -2.95366e-09
93 1 -3.41099e-10 -2.13464e-08 -2.95367e-09
94 1 -3.41032e-10 -2.13463e-08 -2.95367e-09
95 1 -3.41118e-10 -2.13463e-08 -2.95366e-09
96 1 -3.41054e-10 -2.13464e-08 -2.95365e-09
97 2 0.00949814 0.0116155 -0.00497591
98 2 -0.0330129 -0.0016145 -0.0299122
99 2 4.14835e-05 0.000685117 -0.000160769
100 2 -1.64526e-11 1.40085e-08 -6.22558e-08
101 2 -1.63948e-11 1.40085e-08 -6.22559e-08
102 2 -0.000488543 0.000489033 0.000241945
103 2 0.000124479 -0.000186275 -0.000632612
104 2 3.33511e-06 2.94724e-06 -6.59195e-07
105 2 7.17803e-09 2.01876e-08 -6.1341e-08
106 2 -1.64657e-11 1.40085e-08 -6.22558e-08
107 2 -4.42466e-09 1.77946e-08 -6.16953e-08
108 2 -3.33607e-06 4.20864e-06 -5.18258e-07
109 2 -1.64961e-11 1.40085e-08 -6.22559e-08
110 2 -1.6382e-11 1.40085e-08 -6.22558e-08
111 2 -1.63922e-11 1.40085e-08 -6.22558e-08
112 2 -1.63982e-11 1.40085e-08 -6.22558e-08
113 2 -1.64358e-11 1.40085e-08 -6.22558e-08
114 2 -1.64627e-11 1.40085e-08 -6.22558e-08
115 2 -0.00129231 -0.00173799 -0.000258307
116 2 5.17253e-05 1.90091e-06 0.000173492
117 2 0.000924449 -0.000901369 -0.000182358
118 2 -1.64398e-11 1.40085e-08 -6.22558e-08
119 2 -1.6483e-11 1.40085e-08 -6.22558e-08
120 2 -1.62695e-11 1.40085e-08 -6.22558e-08
121 2 -0.0223935 -0.0252302 0.0107087
122 2 0.0109598 -0.0167649 0.00800394
123 2 -0.000235767 -0.00102547 0.000612437
124 2 3.695e-10 2.38355e-08 9.53311e-08
125 2 3.69481e-10 2.38355e-08 9.53311e-08
126 2 0.0029454 4.69854e-05 -9.93063e-05
127 2 -0.00014987 0.0040542 -0.00434999
128 2 -0.00655239 -0.00707898 -0.00176561
129 2 -0.000332678 -0.000181242 1.22572e-05
130 2 3.6949e-10 2.38355e-08 9.53311e-08
131 2 3.82031e-05 -2.14398e-05 1.75659e-06
132 2 0.00568265 -0.00374912 -0.00106673
133 2 -5.80912e-07 -1.28345e-06 -2.32826e-07
134 2 3.69494e-10 2.38354e-08 9.53311e-08
135 2 3.69501e-10 2.38354e-08 9.53311e-08
136 2 3.69502e-10 2.38354e-08 9.53311e-08
137 2 3.6949e-10 2.38354e-08 9.53311e-08
138 2 5.81667e-07 -1.28351e-06 -2.32843e-07
139 2 -4.04459e-06 -8.43238e-06 3.3987e-07
140 2 1.02928e-06 -1.47381e-05 5.22221e-07
141 2 3.01654e-06 -6.28179e-06 2.77679e-07
142 2 3.69486e-10 2.38354e-08 9.53311e-08
143 2 3.69537e-10 2.38354e-08 9.53311e-08
144 2 3.69526e-10 2.38354e-08 9.53311e-08
145 2 0.117862 0.166354 0.00977158
146 2 -0.0020527 -0.0028961 -0.0015592
147 2 -0.000368444 0.000448014 -2.74186e-05
148 2 -1.50398e-10 -1.47563e-08 8.64263e-09
149 2 -0.000513364 0.000482408 -3.62165e-06
150 2 0.0141314 -0.00847093 0.00303814
151 2 0.00043727 0.00112703 -0.000131238
152 2 -2.0011e-06 -4.79268e-06 1.66142e-06
153 2 -1.50405e-10 -1.47562e-08 8.64261e-09
154 2 -1.50331e-10 -1.47563e-08 8.64263e-09
155 2 1.91304e-07 -5.20278e-07 1.63996e-07
156 2 -0.000496926 0.00120053 -0.000149541
157 2 -1.50458e-10 -1.47563e-08 8.64262e-09
158 2 -1.50493e-10 -1.47563e-08 8.64263e-09
159 2 -1.50513e-10 -1.47563e-08 8.64262e-09
160 2 -1.50477e-10 -1.47563e-08 8.64263e-09
161 2 -1.50425e-10 -1.47563e-08 8.64262e-09
162 2 -1.50517e-10 -1.47562e-08 8.64261e-09
163 2 -0.000120033 0.0014074 0.000826148
164 2 6.68885e-05 0.00106017 0.000622046
165 2 6.20537e-06 -2.4261e-06 -2.55938e-06
166 2 -1.50421e-10 -1.47563e-08 8.6426e-09
167 2 -1.50459e-10 -1.47563e-08 8.64259e-09
168 2 -8.28653e-06 -3.21562e-06 -3.41939e-06
169 2 -1.32099e-10 1.51554e-08 -8.78188e-09
170 2 -1.32036e-10 1.51553e-08 -8.78184e-09
171 2 -1.32123e-10 1.51554e-08 -8.78183e-09
172 2 -1.32102e-10 1.51553e-08 -8.78184e-09
173 2 -1.32107e-10 1.51554e-08 -8.78183e-09
174 2 -1.32102e-10 1.51554e-08 -8.78183e-09
175 2 -1.32104e-10 1.51554e-08 -8.78185e-09
176 2 -1.32043e-10 1.51554e-08 -8.78184e-09
177 2 -1.321e-10 1.51554e-08 -8.78182e-09
178 2 -1.32037e-10 1.51554e-08 -8.78185e-09
179 2 -1.32082e-10 1.51554e-08 -8.78183e-09
180 2 -1.32074e-10 1.51554e-08 -8.78183e-09
181 2 -1.32161e-10 1.51554e-08 -8.78187e-09
182 2 -1.32078e-10 1.51553e-08 -8.78183e-09
183 2 -1.32135e-10 1.51553e-08 -8.78182e-09
184 2 -1.32059e-10 1.51554e-08 -8.78186e-09
185 2 -1.32081e-10 1.51553e-08 -8.78182e-09
186 2 -1.32077e-10 1.51553e-08 -8.78182e-09
187 2 -1.32097e-10 1.51554e-08 -8.78186e-09
188 2 -1.32133e-10 1.51554e-08 -8.78183e-09
189 2 -1.32089e-10 1.51554e-08 -8.78184e-09
190 2 -1.32143e-10 1.51554e-08 -8.78185e-09
191 2 -1.32049e-10 1.51554e-08 -8.78188e-09
192 2 -1.32086e-10 1.51554e-08 -8.78179e-09
193 2 3.52449e-10 -2.44093e-08 -9.74359e-08
194 2 3.52464e-10 -2.44093e-08 -9.74359e-08
195 2 3.52462e-10 -2.44093e-08 -9.74359e-08
196 2 3.52471e-10 -2.44093e-08 -9.74359e-08
197 2 3.52451e-10 -2.44093e-08 -9.74359e-08
198 2 3.52478e-10 -2.44093e-08 -9.74359e-08
199 2 3.52464e-10 -2.44092e-08 -9.74359e-08
200 2 3.52473e-10 -2.44093e-08 -9.74359e-08
201 2 3.52481e-10 -2.44092e-08 -9.74359e-08
202 2 3.52475e-10 -2.44093e-08 -9.74359e-08
203 2 3.52473e-10 -2.44093e-08 -9.74359e-08
204 2 3.5248e-10 -2.44093e-08 -9.74359e-08
205 2 3.52474e-10 -2.44092e-08 -9.74359e-08
206 2 3.52466e-10 -2.44092e-08 -9.74359e-08
207 2 3.52502e-10 -2.44092e-08 -9.74359e-08
208 2 3.52496e-10 -2.44092e-08 -9.74359e-08
209 2 3.5249e-10 -2.44092e-08 -9.74359e-08
210 2 3.52478e-10 -2.44092e-08 -9.74359e-08
211 2 3.52455e-10 -2.44092e-08 -9.74359e-08
212 2 3.52485e-10 -2.44092e-08 -9.74359e-08
213 2 3.52496e-10 -2.44092e-08 -9.74359e-08
214 2 3.52477e-10 -2.44092e-08 -9.74359e-08
215 2 3.52499e-10 -2.44092e-08 -9.74359e-08
216 2 3.52517e-10 -2.44092e-08 -9.74359e-08
217 2 -3.53424e-11 -1.43692e-08 6.36094e-08
218 2 -3.53719e-11 -1.43692e-08 6.36094e-08
219 2 -3.53525e-11 -1.43692e-08 6.36095e-08
220 2 -3.53645e-11 -1.43692e-08 6.36095e-08
221 2 -3.53172e-11 -1.43692e-08 6.36095e-08
222 2 -3.51261e-11 -1.43692e-08 6.36095e-08
223 2 -3.5274e-11 -1.43692e-08 6.36094e-08
224 2 -3.53492e-11 -1.43692e-08 6.36095e-08
225 2 -3.53209e-11 -1.43692e-08 6.36094e-08
226 2 -3.53402e-11 -1.43692e-08 6.36095e-08
227 2 -3.53788e-11 -1.43692e-08 6.36095e-08
228 2 -3.53415e-11 -1.43692e-08 6.36095e-08
229 2 -3.52933e-11 -1.43692e-08 6.36094e-08
230 2 -3.53443e-11 -1.43692e-08 6.36094e-08
231 2 -3.53947e-11 -1.43692e-08 6.36095e-08
232 2 -3.53991e-11 -1.43692e-08 6.36095e-08
233 2 -3.53784e-11 -1.43692e-08 6.36094e-08
234 2 -3.5342e-11 -1.43692e-08 6.36095e-08
235 2 -3.52596e-11 -1.43692e-08 6.36095e-08
236 2 -3.52822e-11 -1.43692e-08 6.36095e-08
237 2 -3.53341e-11 -1.43692e-08 6.36095e-08
238 2 -3.53635e-11 -1.43692e-08 6.36095e-08
239 2 -3.54666e-11 -1.43692e-08 6.36095e-08
240 2 -3.52229e-11 -1.43692e-08 6.36095e-08
