ITEM: TIMESTEP
0
ITEM: NUMBER OF ATOMS
240
ITEM: BOX BOUNDS xy xz yz pp pp pp
0.0000000000000000e+00 2.7625138723124262e+01 6.9063901264718801e+00
0.0000000000000000e+00 2.1661997842785119e+01 0.0000000000000000e+00
0.0000000000000000e+00 3.0000000000000000e+01 0.0000000000000000e+00
ITEM: ATOMS id type fx fy fz
1 1 8.46296e-07 0.0830535 0.105665
2 1 0.00446186 0.00200579 0.00928535
3 1 0.000454225 -7.13789e-05 -7.0964e-05
4 1 -3.23366e-10 2.09135e-08 3.13913e-09
5 1 -0.000454268 -7.13905e-05 -7.09749e-05
6 1 -0.00446628 0.0020075 0.00928723
7 1 -1.76606e-05 -3.9478e-05 2.63692e-06
8 1 -2.96154e-08 -4.0323e-08 4.91e-09
9 1 -3.2346e-10 2.09135e-08 3.13914e-09
10 1 -3.23452e-10 2.09135e-08 3.13914e-09
11 1 2.89909e-08 -4.03715e-08 4.9114e-09
12 1 1.76603e-05 -3.94798e-05 2.63698e-06
13 1 -3.23507e-10 2.09135e-08 3.13914e-09
14 1 -3.2352e-10 2.09135e-08 3.13913e-09
15 1 -3.23467e-10 2.09135e-08 3.13913e-09
16 1 -3.23486e-10 2.09135e-08 3.13913e-09
17 1 -3.23516e-10 2.09135e-08 3.13913e-09
18 1 -3.23331e-10 2.09135e-08 3.13913e-09
19 1 -0.000217432 0.0010741 0.00133286
20 1 0.000217594 0.00107453 0.00133298
21 1 -0.000706853 0.000361613 3.69913e-05
22 1 -3.23376e-10 2.09135e-08 3.13914e-09
23 1 -3.23524e-10 2.09136e-08 3.13912e-09
24 1 0.000707045 0.000361716 3.69927e-05
25 1 -0.0817483 -0.0323453 0.0390028
26 1 0.0817494 -0.032346 0.0390028
27 1 0.000359059 -0.000590739 -9.61364e-06
28 1 1.20836e-10 -4.40012e-08 -4.4857e-08
29 1 1.20777e-10 -4.40012e-08 -4.4857e-08
30 1 -0.000359144 -0.000590712 -9.64302e-06
31 1 -1.05735e-08 -0.00113244 0.00102583
32 1 0.000903208 0.000600203 -0.000277704
33 1 4.01695e-07 3.8235e-07 -1.43868e-07
34 1 1.20819e-10 -4.40012e-08 -4.4857e-08
35 1 -4.01738e-07 3.82664e-07 -1.4394e-07
36 1 -0.000903261 0.000600264 -0.000277724
37 1 1.20902e-10 -4.40012e-08 -4.4857e-08
38 1 1.20857e-10 -4.40012e-08 -4.4857e-08
39 1 1.20897e-10 -4.40012e-08 -4.4857e-08
40 1 1.20888e-10 -4.40012e-08 -4.4857e-08
41 1 1.2084e-10 -4.40012e-08 -4.4857e-08
42 1 1.20845e-10 -4.40012e-08 -4.4857e-08
43 1 -3.73962e-06 8.56161e-06 -1.17266e-06
44 1 -1.9229e-09 1.71667e-05 -2.30103e-06
45 1 3.74127e-06 8.56113e-06 -1.17322e-06
46 1 1.20753e-10 -4.40012e-08 -4.4857e-08
47 1 1.20825e-10 -4.40012e-08 -4.4857e-08
48 1 1.20928e-10 -4.40012e-08 -4.4857e-08
49 1 1.55988e-10 4.49694e-08 4.5562e-08
50 1 1.56015e-10 4.49694e-08 4.5562e-08
51 1 1.56072e-10 4.49694e-08 4.55619e-08
52 1 1.56036e-10 4.49694e-08 4.5562e-08
53 1 1.56021e-10 4.49694e-08 4.55619e-08
54 1 1.56052e-10 4.49694e-08 4.55619e-08
55 1 1.56034e-10 4.49694e-08 4.5562e-08
56 1 1.56015e-10 4.49693e-08 4.5562e-08
57 1 1.56058e-10 4.49694e-08 4.5562e-08
58 1 1.55946e-10 4.49693e-08 4.5562e-08
59 1 1.56016e-10 4.49694e-08 4.55619e-08
60 1 1.56089e-10 4.49693e-08 4.5562e-08
61 1 1.5602e-10 4.49694e-08 4.55619e-08
62 1 1.56046e-10 4.49694e-08 4.5562e-08
63 1 1.56093e-10 4.49694e-08 4.55619e-08
64 1 1.55991e-10 4.49694e-08 4.55619e-08
65 1 1.56061e-10 4.49694e-08 4.55619e-08
66 1 1.56127e-10 4.49694e-08 4.5562e-08
67 1 1.56035e-10 4.49694e-08 4.55619e-08
68 1 1.56062e-10 4.49694e-08 4.55619e-08
69 1 1.56072e-10 4.49694e-08 4.55619e-08
70 1 1.56102e-10 4.49694e-08 4.55619e-08
71 1 1.55985e-10 4.49694e-08 4.55619e-08
72 1 1.56096e-10 4.49694e-08 4.55619e-08
73 1 -3.412e-10 -2.13462e-08 -2.95367e-09
74 1 -3.41096e-10 -2.13463e-08 -2.95365e-09
75 1 -3.41037e-10 -2.13463e-08 -2.95366e-09
76 1 -3.41053e-10 -2.13463e-08 -2.95365e-09
77 1 -3.41059e-10 -2.13463e-08 -2.95365e-09
78 1 -3.41115e-10 -2.13463e-08 -2.95365e-09
79 1 -3.4119e-10 -2.13463e-08 -2.95365e-09
80 1 -3.41105e-10 -2.13463e-08 -2.95365e-09
81 1 -3.41108e-10 -2.13463e-08 -2.95366e-09
82 1 -3.41078e-10 -2.13463e-08 -2.95365e-09
83 1 -3.41021e-10 -2.13463e-08 -2.95367e-09
84 1 -3.41056e-10 -2.13463e-08 -2.95367e-09
85 1 -3.41139e-10 -2.13463e-08 -2.95364e-09
86 1 -3.4112e-10 -2.13463e-08 -2.95366e-09
87 1 -3.41052e-10 -2.13463e-08 -2.95367e-09
88 1 -3.41047e-10 -2.13463e-08 -2.95366e-09
89 1 -3.41088e-10 -2.13463e-08 -2.95366e-09
90 1 -3.41081e-10 -2.13463e-08 -2.95366e-09
91 1 -3.41196e-10 -2.13463e-08 -2.95366e-09
92 1 -3.41174e-10 -2.13464e-08 -2.95366e-09
93 1 -3.41099e-10 -2.13464e-08 -2.95367e-09
94 1 -3.41032e-10 -2.13463e-08 -2.95367e-09
95 1 -3.41118e-10 -2.13463e-08 -2.95366e-09
96 1 -3.41054e-10 -2.13464e-08 -2.95365e-09
97 2 -0.0443112 0.01773 0.0100982
98 2 0.0443103 0.0177299 0.0100976
99 2 0.000653214 -9.47252e-05 0.000395956
100 2 -1.64526e-11 1.40085e-08 -6.22558e-08
101 2 -1.63948e-11 1.40085e-08 -6.22559e-08
102 2 -0.000653221 -9.47565e-05 0.000395943
103 2 1.64333e-09 0.000523761 3.80956e-05
104 2 -2.90366e-06 -1.87176e-06 -2.24018e-07
105 2 -4.7889e-09 9.90963e-09 -6.28627e-08
106 2 -1.64657e-11 1.40085e-08 -6.22558e-08
107 2 4.7603e-09 9.9059e-09 -6.28633e-08
108 2 2.90413e-06 -1.87231e-06 -2.24097e-07
109 2 -1.64961e-11 1.40085e-08 -6.22559e-08
110 2 -1.6382e-11 1.40085e-08 -6.22558e-08
111 2 -1.63922e-11 1.40085e-08 -6.22558e-08
112 2 -1.63982e-11 1.40085e-08 -6.22558e-08
113 2 -1.64358e-11 1.40085e-08 -6.22558e-08
114 2 -1.64627e-11 1.40085e-08 -6.22558e-08
115 2 -0.000997451 -0.00142659 -0.000189883
116 2 -1.80425e-08 -7.30522e-05 0.000163331
117 2 0.000997375 -0.0014265 -0.000189888
118 2 -1.64398e-11 1.40085e-08 -6.22558e-08
119 2 -1.6483e-11 1.40085e-08 -6.22558e-08
120 2 -1.62695e-11 1.40085e-08 -6.22558e-08
121 2 -0.00576299 -0.0078085 -0.00132181
122 2 0.00576423 -0.00781106 -0.00132102
123 2 -0.00110933 -0.000271508 0.000382797
124 2 3.695e-10 2.38355e-08 9.53311e-08
125 2 3.69481e-10 2.38355e-08 9.53311e-08
126 2 0.00110907 -0.000271632 0.00038286
127 2 -1.5308e-07 -0.0136937 -0.00182014
128 2 0.0053239 0.00526017 0.000666025
129 2 0.000250151 0.000136572 -8.84978e-06
130 2 3.6949e-10 2.38355e-08 9.53311e-08
131 2 -0.000250179 0.000136592 -8.85858e-06
132 2 -0.00532546 0.0052617 0.000666461
133 2 8.05606e-08 2.04182e-07 1.40602e-07
134 2 3.69494e-10 2.38354e-08 9.53311e-08
135 2 3.69501e-10 2.38354e-08 9.53311e-08
136 2 3.69502e-10 2.38354e-08 9.53311e-08
137 2 3.6949e-10 2.38354e-08 9.53311e-08
138 2 -7.98239e-08 2.04191e-07 1.40605e-07
139 2 -1.24635e-06 -2.58251e-06 1.70702e-07
140 2 2.32482e-10 -5.18929e-06 2.46086e-07
141 2 1.24727e-06 -2.58295e-06 1.70715e-07
142 2 3.69486e-10 2.38354e-08 9.53311e-08
143 2 3.69537e-10 2.38354e-08 9.53311e-08
144 2 3.69526e-10 2.38354e-08 9.53311e-08
145 2 4.20129e-06 -0.0355949 -0.235326
146 2 -0.00755775 -0.000519009 0.00589989
147 2 -5.47698e-05 2.20898e-05 -0.000481061
148 2 -1.50398e-10 -1.47563e-08 8.64263e-09
149 2 5.47713e-05 2.20905e-05 -0.000481061
150 2 0.00755758 -0.000519011 0.00589988
151 2 -0.000351482 -0.000783595 0.000199386
152 2 1.22806e-06 2.92263e-06 -1.00559e-06
153 2 -1.50405e-10 -1.47562e-08 8.64261e-09
154 2 -1.50331e-10 -1.47563e-08 8.64263e-09
155 2 -1.22846e-06 2.92301e-06 -1.0057e-06
156 2 0.000351475 -0.000783581 0.000199396
157 2 -1.50458e-10 -1.47563e-08 8.64262e-09
158 2 -1.50493e-10 -1.47563e-08 8.64263e-09
159 2 -1.50513e-10 -1.47563e-08 8.64262e-09
160 2 -1.50477e-10 -1.47563e-08 8.64263e-09
161 2 -1.50425e-10 -1.47563e-08 8.64262e-09
162 2 -1.50517e-10 -1.47562e-08 8.64261e-09
163 2 -3.05173e-05 0.000205878 0.000186991
164 2 3.05269e-05 0.00020588 0.000187001
165 2 2.50649e-06 -9.57525e-07 -1.02687e-06
166 2 -1.50421e-10 -1.47563e-08 8.6426e-09
167 2 -1.50459e-10 -1.47563e-08 8.64259e-09
168 2 -2.50651e-06 -9.57456e-07 -1.02675e-06
169 2 -1.32099e-10 1.51554e-08 -8.78188e-09
170 2 -1.32036e-10 1.51553e-08 -8.78184e-09
171 2 -1.32123e-10 1.51554e-08 -8.78183e-09
172 2 -1.32102e-10 1.51553e-08 -8.78184e-09
173 2 -1.32107e-10 1.51554e-08 -8.78183e-09
174 2 -1.32102e-10 1.51554e-08 -8.78183e-09
175 2 -1.32104e-10 1.51554e-08 -8.78185e-09
176 2 -1.32043e-10 1.51554e-08 -8.78184e-09
177 2 -1.321e-10 1.51554e-08 -8.78182e-09
178 2 -1.32037e-10 1.51554e-08 -8.78185e-09
179 2 -1.32082e-10 1.51554e-08 -8.78183e-09
180 2 -1.32074e-10 1.51554e-08 -8.78183e-09
181 2 -1.32161e-10 1.51554e-08 -8.78187e-09
182 2 -1.32078e-10 1.51553e-08 -8.78183e-09
183 2 -1.32135e-10 1.51553e-08 -8.78182e-09
184 2 -1.32059e-10 1.51554e-08 -8.78186e-09
185 2 -1.32081e-10 1.51553e-08 -8.78182e-09
186 2 -1.32077e-10 1.51553e-08 -8.78182e-09
187 2 -1.32097e-10 1.51554e-08 -8.78186e-09
188 2 -1.32133e-10 1.51554e-08 -8.78183e-09
189 2 -1.32089e-10 1.51554e-08 -8.78184e-09
190 2 -1.32143e-10 1.51554e-08 -8.78185e-09
191 2 -1.32049e-10 1.51554e-08 -8.78188e-09
192 2 -1.32086e-10 1.51554e-08 -8.78179e-09
193 2 3.52449e-10 -2.44093e-08 -9.74359e-08
194 2 3.52464e-10 -2.44093e-08 -9.74359e-08
195 2 3.52462e-10 -2.44093e-08 -9.74359e-08
196 2 3.52471e-10 -2.44093e-08 -9.74359e-08
197 2 3.52451e-10 -2.44093e-08 -9.74359e-08
198 2 3.52478e-10 -2.44093e-08 -9.74359e-08
199 2 3.52464e-10 -2.44092e-08 -9.74359e-08
200 2 3.52473e-10 -2.44093e-08 -9.74359e-08
201 2 3.52481e-10 -2.44092e-08 -9.74359e-08
202 2 3.52475e-10 -2.44093e-08 -9.74359e-08
203 2 3.52473e-10 -2.44093e-08 -9.74359e-08
204 2 3.5248e-10 -2.44093e-08 -9.74359e-08
205 2 3.52474e-10 -2.44092e-08 -9.74359e-08
206 2 3.52466e-10 -2.44092e-08 -9.74359e-08
207 2 3.52502e-10 -2.44092e-08 -9.74359e-08
208 2 3.52496e-10 -2.44092e-08 -9.74359e-08
209 2 3.5249e-10 -2.44092e-08 -9.74359e-08
210 2 3.52478e-10 -2.44092e-08 -9.74359e-08
211 2 3.52455e-10 -2.44092e-08 -9.74359e-08
212 2 3.52485e-10 -2.44092e-08 -9.74359e-08
213 2 3.52496e-10 -2.44092e-08 -9.74359e-08
214 2 3.52477e-10 -2.44092e-08 -9.74359e-08
215 2 3.52499e-10 -2.44092e-08 -9.74359e-08
216 2 3.52517e-10 -2.44092e-08 -9.74359e-08
217 2 -3.53424e-11 -1.43692e-08 6.36094e-08
218 2 -3.53719e-11 -1.43692e-08 6.36094e-08
219 2 -3.53525e-11 -1.43692e-08 6.36095e-08
220 2 -3.53645e-11 -1.43692e-08 6.36095e-08
221 2 -3.53172e-11 -1.43692e-08 6.36095e-08
222 2 -3.51261e-11 -1.43692e-08 6.36095e-08
223 2 -3.5274e-11 -1.43692e-08 6.36094e-08
224 2 -3.53492e-11 -1.43692e-08 6.36095e-08
225 2 -3.53209e-11 -1.43692e-08 6.36094e-08
226 2 -3.53402e-11 -1.43692e-08 6.36095e-08
227 2 -3.53788e-11 -1.43692e-08 6.36095e-08
228 2 -3.53415e-11 -1.43692e-08 6.36095e-08
229 2 -3.52933e-11 -1.43692e-08 6.36094e-08
230 2 -3.53443e-11 -1.43692e-08 6.36094e-08
231 2 -3.53947e-11 -1.43692e-08 6.36095e-08
232 2 -3.53991e-11 -1.43692e-08 6.36095e-08
233 2 -3.53784e-11 -1.43692e-08 6.36094e-08
234 2 -3.5342e-11 -1.43692e-08 6.36095e-08
235 2 -3.52596e-11 -1.43692e-08 6.36095e-08
236 2 -3.52822e-11 -1.43692e-08 6.36095e-08
237 2 -3.53341e-11 -1.43692e-08 6.36095e-08
238 2 -3.53635e-11 -1.43692e-08 6.36095e-08
239 2 -3.54666e-11 -1.43692e-08 6.36095e-08
240 2 -3.52229e-11 -1.43692e-08 6.36095e-08
