ITEM: TIMESTEP
0
ITEM: NUMBER OF ATOMS
240
ITEM: BOX BOUNDS xy xz yz pp pp pp
0.0000000000000000e+00 2.7625138723124262e+01 6.9063901264718801e+00
0.0000000000000000e+00 2.1661997842785119e+01 0.0000000000000000e+00
0.0000000000000000e+00 3.0000000000000000e+01 0.0000000000000000e+00
ITEM: ATOMS id type fx fy fz
1 1 0.179506 0.0661264 -0.0361903
2 1 0.00028151 0.000215544 0.00115698
3 1 -3.23465e-10 2.09135e-08 3.13912e-09
4 1 -3.23366e-10 2.09135e-08 3.13913e-09
5 1 -0.000520467 0.00041651 -0.00131514
6 1 0.146258 -0.04973 0.0261791
7 1 -2.17469e-05 -6.90947e-05 1.63626e-05
8 1 -3.23467e-10 2.09135e-08 3.13914e-09
9 1 -3.2346e-10 2.09135e-08 3.13914e-09
10 1 -3.23452e-10 2.09135e-08 3.13914e-09
11 1 -2.22503e-05 6.93278e-05 -1.58378e-05
12 1 4.39962e-05 2.04246e-07 5.22125e-07
13 1 -3.23507e-10 2.09135e-08 3.13914e-09
14 1 -3.2352e-10 2.09135e-08 3.13913e-09
15 1 -3.23467e-10 2.09135e-08 3.13913e-09
16 1 -3.23486e-10 2.09135e-08 3.13913e-09
17 1 -3.23516e-10 2.09135e-08 3.13913e-09
18 1 -3.23331e-10 2.09135e-08 3.13913e-09
19 1 -0.000831248 -6.19471e-05 -5.33785e-07
20 1 0.000611293 -0.000555138 0.000101646
21 1 -6.75295e-06 3.04631e-06 5.29244e-07
22 1 -3.23376e-10 2.09135e-08 3.13914e-09
23 1 -6.03729e-06 -2.65492e-06 -4.85586e-07
24 1 0.000637946 0.000392944 -6.2382e-05
25 1 0.0296704 -0.000600152 -0.000469075
26 1 0.00329442 -0.0058015 -0.0104019
27 1 -4.52447e-05 0.000581809 0.000579555
28 1 1.20836e-10 -4.40012e-08 -4.4857e-08
29 1 -0.000664366 -0.000421014 -0.000420394
30 1 0.0385924 0.0198814 0.0219112
31 1 0.0015719 -0.00192466 0.0036187
32 1 -0.000337356 -8.94046e-05 0.000110303
33 1 1.20807e-10 -4.40012e-08 -4.4857e-08
34 1 1.20819e-10 -4.40012e-08 -4.4857e-08
35 1 -0.000485782 0.000158605 -0.00015256
36 1 0.00154991 0.00205458 -0.00361597
37 1 1.20902e-10 -4.40012e-08 -4.4857e-08
38 1 1.20857e-10 -4.40012e-08 -4.4857e-08
39 1 1.20897e-10 -4.40012e-08 -4.4857e-08
40 1 1.20888e-10 -4.40012e-08 -4.4857e-08
41 1 1.2084e-10 -4.40012e-08 -4.4857e-08
42 1 1.20845e-10 -4.40012e-08 -4.4857e-08
43 1 9.53999e-07 -2.77906e-06 -7.22468e-07
44 1 1.31197e-06 2.3165e-06 5.56635e-07
45 1 -1.19094e-06 2.6347e-06 6.27559e-07
46 1 1.20753e-10 -4.40012e-08 -4.4857e-08
47 1 1.20825e-10 -4.40012e-08 -4.4857e-08
48 1 -1.07455e-06 -2.46089e-06 -6.51552e-07
49 1 1.55988e-10 4.49694e-08 4.5562e-08
50 1 1.56015e-10 4.49694e-08 4.5562e-08
51 1 1.56072e-10 4.49694e-08 4.55619e-08
52 1 1.56036e-10 4.49694e-08 4.5562e-08
53 1 1.56021e-10 4.49694e-08 4.55619e-08
54 1 1.56052e-10 4.49694e-08 4.55619e-08
55 1 1.56034e-10 4.49694e-08 4.5562e-08
56 1 1.56015e-10 4.49693e-08 4.5562e-08
57 1 1.56058e-10 4.49694e-08 4.5562e-08
58 1 1.55946e-10 4.49693e-08 4.5562e-08
59 1 1.56016e-10 4.49694e-08 4.55619e-08
60 1 1.56089e-10 4.49693e-08 4.5562e-08
61 1 1.5602e-10 4.49694e-08 4.55619e-08
62 1 1.56046e-10 4.49694e-08 4.5562e-08
63 1 1.56093e-10 4.49694e-08 4.55619e-08
64 1 1.55991e-10 4.49694e-08 4.55619e-08
65 1 1.56061e-10 4.49694e-08 4.55619e-08
66 1 1.56127e-10 4.49694e-08 4.5562e-08
67 1 1.56035e-10 4.49694e-08 4.55619e-08
68 1 1.56062e-10 4.49694e-08 4.55619e-08
69 1 1.56072e-10 4.49694e-08 4.55619e-08
70 1 1.56102e-10 4.49694e-08 4.55619e-08
71 1 1.55985e-10 4.49694e-08 4.55619e-08
72 1 1.56096e-10 4.49694e-08 4.55619e-08
73 1 -3.412e-10 -2.13462e-08 -2.95367e-09
74 1 -3.41096e-10 -2.13463e-08 -2.95365e-09
75 1 -3.41037e-10 -2.13463e-08 -2.95366e-09
76 1 -3.41053e-10 -2.13463e-08 -2.95365e-09
77 1 -3.41059e-10 -2.13463e-08 -2.95365e-09
78 1 -3.41115e-10 -2.13463e-08 -2.95365e-09
79 1 -3.4119e-10 -2.13463e-08 -2.95365e-09
80 1 -3.41105e-10 -2.13463e-08 -2.95365e-09
81 1 -3.41108e-10 -2.13463e-08 -2.95366e-09
82 1 -3.41078e-10 -2.13463e-08 -2.95365e-09
83 1 -3.41021e-10 -2.13463e-08 -2.95367e-09
84 1 -3.41056e-10 -2.13463e-08 -2.95367e-09
85 1 -3.41139e-10 -2.13463e-08 -2.95364e-09
86 1 -3.4112e-10 -2.13463e-08 -2.95366e-09
87 1 -3.41052e-10 -2.13463e-08 -2.95367e-09
88 1 -3.41047e-10 -2.13463e-08 -2.95366e-09
89 1 -3.41088e-10 -2.13463e-08 -2.95366e-09
90 1 -3.41081e-10 -2.13463e-08 -2.95366e-09
91 1 -3.41196e-10 -2.13463e-08 -2.95366e-09
92 1 -3.41174e-10 -2.13464e-08 -2.95366e-09
93 1 -3.41099e-10 -2.13464e-08 -2.95367e-09
94 1 -3.41032e-10 -2.13463e-08 -2.95367e-09
95 1 -3.41118e-10 -2.13463e-08 -2.95366e-09
96 1 -3.41054e-10 -2.13464e-08 -2.95365e-09
97 2 -0.500799 -0.0268631 0.000588497
98 2 -0.0146925 0.00749795 -0.0113752
99 2 0.00182057 -3.65897e-05 -3.57996e-05
100 2 -1.64526e-11 1.40085e-08 -6.22558e-08
101 2 0.00121467 -1.43654e-05 -1.45801e-05
102 2 -0.0158826 -0.00725011 0.00997117
103 2 6.14343e-05 0.00129165 0.000154716
104 2 -3.75056e-06 -5.04203e-06 6.27858e-07
105 2 -1.64566e-11 1.40085e-08 -6.22558e-08
106 2 -1.64657e-11 1.40085e-08 -6.22558e-08
107 2 -3.82597e-06 5.06796e-06 -7.00195e-07
108 2 5.87186e-05 -0.00126745 -0.000153532
109 2 -1.64961e-11 1.40085e-08 -6.22559e-08
110 2 -1.6382e-11 1.40085e-08 -6.22558e-08
111 2 -1.63922e-11 1.40085e-08 -6.22558e-08
112 2 -1.63982e-11 1.40085e-08 -6.22558e-08
113 2 -1.64358e-11 1.40085e-08 -6.22558e-08
114 2 -1.64627e-11 1.40085e-08 -6.22558e-08
115 2 6.10628e-05 -0.00018653 -8.93949e-05
116 2 5.96187e-05 0.000195367 8.56102e-05
117 2 -4.09707e-06 2.13386e-06 1.24478e-06
118 2 -1.64398e-11 1.40085e-08 -6.22558e-08
119 2 -1.6483e-11 1.40085e-08 -6.22558e-08
120 2 -3.49118e-06 -1.42464e-06 -1.40989e-06
121 2 0.000318041 0.00118902 0.000161878
122 2 0.00242364 -0.00532657 0.000183708
123 2 -0.00015966 7.05846e-05 3.82292e-06
124 2 3.695e-10 2.38355e-08 9.53311e-08
125 2 2.32453e-05 9.13944e-06 -1.74173e-05
126 2 0.00255437 0.00333075 0.000689578
127 2 0.0252112 0.0309552 -0.00984492
128 2 -0.00375827 -0.00130229 -4.54396e-06
129 2 3.6949e-10 2.38355e-08 9.53311e-08
130 2 3.6949e-10 2.38355e-08 9.53311e-08
131 2 -0.00426009 0.00154167 2.80805e-06
132 2 0.0270518 -0.0330677 0.0098371
133 2 7.72464e-07 1.76025e-06 5.31211e-07
134 2 3.69494e-10 2.38354e-08 9.53311e-08
135 2 3.69501e-10 2.38354e-08 9.53311e-08
136 2 3.69502e-10 2.38354e-08 9.53311e-08
137 2 7.44303e-07 -1.64928e-06 -3.2466e-07
138 2 -1.51566e-06 8.73012e-08 1.11262e-07
139 2 3.76402e-09 3.09318e-08 9.51259e-08
140 2 -3.02506e-09 3.09321e-08 9.51259e-08
141 2 3.69507e-10 2.38354e-08 9.53311e-08
142 2 3.69486e-10 2.38354e-08 9.53311e-08
143 2 3.69537e-10 2.38354e-08 9.53311e-08
144 2 3.69526e-10 2.38354e-08 9.53311e-08
145 2 0.039732 -0.0231554 -0.0445924
146 2 0.000952297 0.000239618 -0.000772451
147 2 -1.50468e-10 -1.47563e-08 8.64262e-09
148 2 -1.50398e-10 -1.47563e-08 8.64263e-09
149 2 0.000269327 7.18273e-05 0.000485337
150 2 0.0379232 0.0215082 0.0436518
151 2 0.000619431 0.00117181 -0.000985948
152 2 -1.5039e-10 -1.47563e-08 8.64262e-09
153 2 -1.50405e-10 -1.47562e-08 8.64261e-09
154 2 -1.50331e-10 -1.47563e-08 8.64263e-09
155 2 0.000668069 -0.00124763 0.00104362
156 2 -0.000108069 9.12883e-07 -2.22583e-07
157 2 -1.50458e-10 -1.47563e-08 8.64262e-09
158 2 -1.50493e-10 -1.47563e-08 8.64263e-09
159 2 -1.50513e-10 -1.47563e-08 8.64262e-09
160 2 -1.50477e-10 -1.47563e-08 8.64263e-09
161 2 -1.50425e-10 -1.47563e-08 8.64262e-09
162 2 -1.50517e-10 -1.47562e-08 8.64261e-09
163 2 -0.000424594 -1.96844e-06 -4.0276e-06
164 2 -5.87823e-09 3.48843e-06 3.06617e-06
165 2 -9.99924e-09 -5.68815e-09 1.30213e-08
166 2 -1.50421e-10 -1.47563e-08 8.6426e-09
167 2 -9.03008e-09 -2.29319e-08 4.69487e-09
168 2 5.58079e-09 -2.9872e-06 -2.72367e-06
169 2 -1.32099e-10 1.51554e-08 -8.78188e-09
170 2 -1.32036e-10 1.51553e-08 -8.78184e-09
171 2 -1.32123e-10 1.51554e-08 -8.78183e-09
172 2 -1.32102e-10 1.51553e-08 -8.78184e-09
173 2 -1.32107e-10 1.51554e-08 -8.78183e-09
174 2 -1.32102e-10 1.51554e-08 -8.78183e-09
175 2 -1.32104e-10 1.51554e-08 -8.78185e-09
176 2 -1.32043e-10 1.51554e-08 -8.78184e-09
177 2 -1.321e-10 1.51554e-08 -8.78182e-09
178 2 -1.32037e-10 1.51554e-08 -8.78185e-09
179 2 -1.32082e-10 1.51554e-08 -8.78183e-09
180 2 -1.32074e-10 1.51554e-08 -8.78183e-09
181 2 -1.32161e-10 1.51554e-08 -8.78187e-09
182 2 -1.32078e-10 1.51553e-08 -8.78183e-09
183 2 -1.32135e-10 1.51553e-08 -8.78182e-09
184 2 -1.32059e-10 1.51554e-08 -8.78186e-09
185 2 -1.32081e-10 1.51553e-08 -8.78182e-09
186 2 -1.32077e-10 1.51553e-08 -8.78182e-09
187 2 -1.32097e-10 1.51554e-08 -8.78186e-09
188 2 -1.32133e-10 1.51554e-08 -8.78183e-09
189 2 -1.32089e-10 1.51554e-08 -8.78184e-09
190 2 -1.32143e-10 1.51554e-08 -8.78185e-09
191 2 -1.32049e-10 1.51554e-08 -8.78188e-09
192 2 -1.32086e-10 1.51554e-08 -8.78179e-09
193 2 3.52449e-10 -2.44093e-08 -9.74359e-08
194 2 3.52464e-10 -2.44093e-08 -9.74359e-08
195 2 3.52462e-10 -2.44093e-08 -9.74359e-08
196 2 3.52471e-10 -2.44093e-08 -9.74359e-08
197 2 3.52451e-10 -2.44093e-08 -9.74359e-08
198 2 3.52478e-10 -2.44093e-08 -9.74359e-08
199 2 3.52464e-10 -2.44092e-08 -9.74359e-08
200 2 3.52473e-10 -2.44093e-08 -9.74359e-08
201 2 3.52481e-10 -2.44092e-08 -9.74359e-08
202 2 3.52475e-10 -2.44093e-08 -9.74359e-08
203 2 3.52473e-10 -2.44093e-08 -9.74359e-08
204 2 3.5248e-10 -2.44093e-08 -9.74359e-08
205 2 3.52474e-10 -2.44092e-08 -9.74359e-08
206 2 3.52466e-10 -2.44092e-08 -9.74359e-08
207 2 3.52502e-10 -2.44092e-08 -9.74359e-08
208 2 3.52496e-10 -2.44092e-08 -9.74359e-08
209 2 3.5249e-10 -2.44092e-08 -9.74359e-08
210 2 3.52478e-10 -2.44092e-08 -9.74359e-08
211 2 3.52455e-10 -2.44092e-08 -9.74359e-08
212 2 3.52485e-10 -2.44092e-08 -9.74359e-08
213 2 3.52496e-10 -2.44092e-08 -9.74359e-08
214 2 3.52477e-10 -2.44092e-08 -9.74359e-08
215 2 3.52499e-10 -2.44092e-08 -9.74359e-08
216 2 3.52517e-10 -2.44092e-08 -9.74359e-08
217 2 -3.53424e-11 -1.43692e-08 6.36094e-08
218 2 -3.53719e-11 -1.43692e-08 6.36094e-08
219 2 -3.53525e-11 -1.43692e-08 6.36095e-08
220 2 -3.53645e-11 -1.43692e-08 6.36095e-08
221 2 -3.53172e-11 -1.43692e-08 6.36095e-08
222 2 -3.51261e-11 -1.43692e-08 6.36095e-08
223 2 -3.5274e-11 -1.43692e-08 6.36094e-08
224 2 -3.53492e-11 -1.43692e-08 6.36095e-08
225 2 -3.53209e-11 -1.43692e-08 6.36094e-08
226 2 -3.53402e-11 -1.43692e-08 6.36095e-08
227 2 -3.53788e-11 -1.43692e-08 6.36095e-08
228 2 -3.53415e-11 -1.43692e-08 6.36095e-08
229 2 -3.52933e-11 -1.43692e-08 6.36094e-08
230 2 -3.53443e-11 -1.43692e-08 6.36094e-08
231 2 -3.53947e-11 -1.43692e-08 6.36095e-08
232 2 -3.53991e-11 -1.43692e-08 6.36095e-08
233 2 -3.53784e-11 -1.43692e-08 6.36094e-08
234 2 -3.5342e-11 -1.43692e-08 6.36095e-08
235 2 -3.52596e-11 -1.43692e-08 6.36095e-08
236 2 -3.52822e-11 -1.43692e-08 6.36095e-08
237 2 -3.53341e-11 -1.43692e-08 6.36095e-08
238 2 -3.53635e-11 -1.43692e-08 6.36095e-08
239 2 -3.54666e-11 -1.43692e-08 6.36095e-08
240 2 -3.52229e-11 -1.43692e-08 6.36095e-08
