ITEM: TIMESTEP
0
ITEM: NUMBER OF ATOMS
240
ITEM: BOX BOUNDS xy xz yz pp pp pp
0.0000000000000000e+00 2.7625138723124262e+01 6.9063901264718801e+00
0.0000000000000000e+00 2.1661997842785119e+01 0.0000000000000000e+00
0.0000000000000000e+00 3.0000000000000000e+01 0.0000000000000000e+00
ITEM: ATOMS id type fx fy fz
1 1 -0.0823864 -0.0345962 0.0366001
2 1 -0.00014905 -0.0004281 -0.000107935
3 1 -3.23465e-10 2.09135e-08 3.13912e-09
4 1 -3.23366e-10 2.09135e-08 3.13913e-09
5 1 0.000148837 -0.000427999 -0.000107908
6 1 0.0823879 -0.0345969 0.0366004
7 1 -8.54557e-06 9.45758e-07 -1.14313e-05
8 1 -3.23467e-10 2.09135e-08 3.13914e-09
9 1 -3.2346e-10 2.09135e-08 3.13914e-09
10 1 -3.23452e-10 2.09135e-08 3.13914e-09
11 1 8.5468e-06 9.44422e-07 -1.14326e-05
12 1 -2.54623e-09 1.86927e-06 -2.2867e-05
13 1 -3.23507e-10 2.09135e-08 3.13914e-09
14 1 -3.2352e-10 2.09135e-08 3.13913e-09
15 1 -3.23467e-10 2.09135e-08 3.13913e-09
16 1 -3.23486e-10 2.09135e-08 3.13913e-09
17 1 -3.23516e-10 2.09135e-08 3.13913e-09
18 1 -3.23331e-10 2.09135e-08 3.13913e-09
19 1 -1.86069e-08 -0.00248469 -0.000726781
20 1 -2.19266e-06 7.55389e-05 -4.0578e-05
21 1 5.24115e-07 -5.1418e-08 -1.41162e-07
22 1 -3.23376e-10 2.09135e-08 3.13914e-09
23 1 -5.24892e-07 -5.16371e-08 -1.4107e-07
24 1 2.17984e-06 7.54777e-05 -4.05608e-05
25 1 8.73225e-07 0.0516571 0.0691065
26 1 -0.0332531 0.0147398 0.0214274
27 1 -0.000155655 -2.33747e-05 -2.3703e-05
28 1 1.20836e-10 -4.40012e-08 -4.4857e-08
29 1 0.000155397 -2.33346e-05 -2.36635e-05
30 1 0.0332548 0.0147406 0.021427
31 1 0.000363258 0.00109138 -0.00130352
32 1 0.000101654 2.73872e-05 -3.55065e-05
33 1 1.20807e-10 -4.40012e-08 -4.4857e-08
34 1 1.20819e-10 -4.40012e-08 -4.4857e-08
35 1 -0.000101653 2.73741e-05 -3.55065e-05
36 1 -0.000362954 0.00109082 -0.00130333
37 1 1.20902e-10 -4.40012e-08 -4.4857e-08
38 1 1.20857e-10 -4.40012e-08 -4.4857e-08
39 1 1.20897e-10 -4.40012e-08 -4.4857e-08
40 1 1.20888e-10 -4.40012e-08 -4.4857e-08
41 1 1.2084e-10 -4.40012e-08 -4.4857e-08
42 1 1.20845e-10 -4.40012e-08 -4.4857e-08
43 1 -3.20954e-06 -9.61806e-06 -2.12143e-06
44 1 3.2099e-06 -9.61864e-06 -2.12157e-06
45 1 1.4792e-07 -3.76403e-07 -1.28297e-07
46 1 1.20753e-10 -4.40012e-08 -4.4857e-08
47 1 1.20825e-10 -4.40012e-08 -4.4857e-08
48 1 -1.4765e-07 -3.76332e-07 -1.2828e-07
49 1 1.55984e-10 4.41478e-08 4.47515e-08
50 1 4.36243e-11 4.49227e-08 4.55159e-08
51 1 1.56072e-10 4.49694e-08 4.55619e-08
52 1 1.56036e-10 4.49694e-08 4.5562e-08
53 1 1.56021e-10 4.49694e-08 4.55619e-08
54 1 2.68445e-10 4.49227e-08 4.55159e-08
55 1 1.56034e-10 4.49694e-08 4.5562e-08
56 1 1.56015e-10 4.49693e-08 4.5562e-08
57 1 1.56058e-10 4.49694e-08 4.5562e-08
58 1 1.55946e-10 4.49693e-08 4.5562e-08
59 1 1.56016e-10 4.49694e-08 4.55619e-08
60 1 1.56089e-10 4.49693e-08 4.5562e-08
61 1 1.5602e-10 4.49694e-08 4.55619e-08
62 1 1.56046e-10 4.49694e-08 4.5562e-08
63 1 1.56093e-10 4.49694e-08 4.55619e-08
64 1 1.55991e-10 4.49694e-08 4.55619e-08
65 1 1.56061e-10 4.49694e-08 4.55619e-08
66 1 1.56127e-10 4.49694e-08 4.5562e-08
67 1 1.65299e-10 4.49908e-08 4.55543e-08
68 1 1.46797e-10 4.49908e-08 4.55543e-08
69 1 1.56072e-10 4.49694e-08 4.55619e-08
70 1 1.56102e-10 4.49694e-08 4.55619e-08
71 1 1.55985e-10 4.49694e-08 4.55619e-08
72 1 1.56096e-10 4.49694e-08 4.55619e-08
73 1 7.60905e-10 -2.09353e-08 -3.3006e-09
74 1 -1.4432e-09 -2.09354e-08 -3.30058e-09
75 1 -3.41037e-10 -2.13463e-08 -2.95366e-09
76 1 -3.41053e-10 -2.13463e-08 -2.95365e-09
77 1 -3.41059e-10 -2.13463e-08 -2.95365e-09
78 1 -3.41115e-10 -2.13463e-08 -2.95365e-09
79 1 -3.4119e-10 -2.13513e-08 -2.95422e-09
80 1 -3.41105e-10 -2.13463e-08 -2.95365e-09
81 1 -3.41108e-10 -2.13463e-08 -2.95366e-09
82 1 -3.41078e-10 -2.13463e-08 -2.95365e-09
83 1 -3.41021e-10 -2.13463e-08 -2.95367e-09
84 1 -3.41056e-10 -2.13463e-08 -2.95367e-09
85 1 -3.41139e-10 -2.13463e-08 -2.95364e-09
86 1 -3.4112e-10 -2.13463e-08 -2.95366e-09
87 1 -3.41052e-10 -2.13463e-08 -2.95367e-09
88 1 -3.41047e-10 -2.13463e-08 -2.95366e-09
89 1 -3.41088e-10 -2.13463e-08 -2.95366e-09
90 1 -3.41081e-10 -2.13463e-08 -2.95366e-09
91 1 -3.41196e-10 -2.13463e-08 -2.95366e-09
92 1 -3.41174e-10 -2.13464e-08 -2.95366e-09
93 1 -3.41099e-10 -2.13464e-08 -2.95367e-09
94 1 -3.41032e-10 -2.13463e-08 -2.95367e-09
95 1 -3.41118e-10 -2.13463e-08 -2.95366e-09
96 1 -3.41054e-10 -2.13464e-08 -2.95365e-09
97 2 0.000916982 -0.0442452 -0.213019
98 2 0.0105552 -0.00153457 0.00645178
99 2 -6.48539e-06 -3.10859e-06 -0.00050729
100 2 -1.64526e-11 1.40085e-08 -6.22558e-08
101 2 6.52705e-06 -3.1259e-06 -0.000507307
102 2 -0.0105556 -0.00153466 0.00645168
103 2 -8.80862e-05 -0.000356788 -0.000100755
104 2 -1.22749e-06 4.17303e-07 -1.14541e-06
105 2 -1.64566e-11 1.40085e-08 -6.22558e-08
106 2 -1.64657e-11 1.40085e-08 -6.22558e-08
107 2 1.22752e-06 4.17449e-07 -1.14554e-06
108 2 8.80811e-05 -0.000356794 -0.000100754
109 2 -1.64961e-11 1.40085e-08 -6.22559e-08
110 2 -1.6382e-11 1.40085e-08 -6.22558e-08
111 2 -1.63922e-11 1.40085e-08 -6.22558e-08
112 2 -1.63982e-11 1.40085e-08 -6.22558e-08
113 2 -1.64358e-11 1.40085e-08 -6.22558e-08
114 2 -1.64627e-11 1.40085e-08 -6.22558e-08
115 2 0.000157925 0.000415428 -0.000100761
116 2 -0.000157921 0.000415423 -0.00010076
117 2 -6.35168e-07 2.38854e-06 -1.1609e-06
118 2 -1.64398e-11 1.40085e-08 -6.22558e-08
119 2 -1.6483e-11 1.40085e-08 -6.22558e-08
120 2 6.35149e-07 2.38831e-06 -1.16077e-06
121 2 -1.29269e-07 -0.00102166 0.00335441
122 2 -0.00212965 0.00101498 -0.000695133
123 2 -7.66376e-06 4.0537e-06 -6.2305e-06
124 2 3.695e-10 2.38355e-08 9.53311e-08
125 2 7.72498e-06 4.0798e-06 -6.23261e-06
126 2 0.00212845 0.0010137 -0.000694559
127 2 -0.00222948 -0.00105228 -0.00175022
128 2 1.49006e-05 -0.000271071 0.000111798
129 2 3.6949e-10 2.38355e-08 9.53311e-08
130 2 3.6949e-10 2.38355e-08 9.53311e-08
131 2 -1.52126e-05 -0.000270897 0.000111823
132 2 0.00223006 -0.00105302 -0.00175052
133 2 -6.12953e-07 -1.3555e-06 -2.50915e-07
134 2 3.69494e-10 2.38354e-08 9.53311e-08
135 2 3.69501e-10 2.38354e-08 9.53311e-08
136 2 3.69502e-10 2.38354e-08 9.53311e-08
137 2 6.13776e-07 -1.35572e-06 -2.5097e-07
138 2 3.19864e-10 -2.73506e-06 -5.97216e-07
139 2 1.24261e-07 2.82837e-07 8.78412e-08
140 2 -1.23524e-07 2.82848e-07 8.78409e-08
141 2 3.69507e-10 2.38354e-08 9.53311e-08
142 2 3.69486e-10 2.38354e-08 9.53311e-08
143 2 3.69537e-10 2.38354e-08 9.53311e-08
144 2 3.69526e-10 2.38354e-08 9.53311e-08
145 2 -0.0408259 0.0182238 0.0116557
146 2 -0.000552381 0.00010478 0.000418317
147 2 -1.50468e-10 -1.47563e-08 8.64262e-09
148 2 -1.50398e-10 -1.47563e-08 8.64263e-09
149 2 0.000552289 0.000104956 0.000418319
150 2 0.0408248 0.018223 0.0116553
151 2 0.000106554 0.000205998 -0.000182693
152 2 -1.5039e-10 -1.47563e-08 8.64262e-09
153 2 -1.50405e-10 -1.47562e-08 8.64261e-09
154 2 -1.50331e-10 -1.47563e-08 8.64263e-09
155 2 -0.000106573 0.000206024 -0.0001827
156 2 -1.80983e-08 -0.00022956 0.00018285
157 2 -1.50458e-10 -1.47563e-08 8.64262e-09
158 2 -1.50493e-10 -1.47563e-08 8.64263e-09
159 2 -1.50513e-10 -1.47563e-08 8.64262e-09
160 2 -1.50477e-10 -1.47563e-08 8.64263e-09
161 2 -1.50425e-10 -1.47563e-08 8.64262e-09
162 2 -1.50517e-10 -1.47562e-08 8.64261e-09
163 2 2.59867e-09 0.000660129 4.94551e-05
164 2 -2.18369e-07 6.4642e-07 -1.58729e-07
165 2 1.07177e-09 -1.58815e-08 8.09929e-09
166 2 -1.50421e-10 -1.47563e-08 8.6426e-09
167 2 -1.37144e-09 -1.58804e-08 8.09976e-09
168 2 2.18109e-07 6.46564e-07 -1.58649e-07
169 2 8.41158e-11 1.5064e-08 -9.02912e-09
170 2 -3.48249e-10 1.5064e-08 -9.02908e-09
171 2 -1.32123e-10 1.51554e-08 -8.78183e-09
172 2 -1.32102e-10 1.51553e-08 -8.78184e-09
173 2 -1.32107e-10 1.51554e-08 -8.78183e-09
174 2 -1.32102e-10 1.51554e-08 -8.78183e-09
175 2 -1.32104e-10 1.51554e-08 -8.78185e-09
176 2 -1.32043e-10 1.51554e-08 -8.78184e-09
177 2 -1.321e-10 1.51554e-08 -8.78182e-09
178 2 -1.32037e-10 1.51554e-08 -8.78185e-09
179 2 -1.32082e-10 1.51554e-08 -8.78183e-09
180 2 -1.32074e-10 1.51554e-08 -8.78183e-09
181 2 -1.32161e-10 1.51554e-08 -8.78187e-09
182 2 -1.32078e-10 1.51553e-08 -8.78183e-09
183 2 -1.32135e-10 1.51553e-08 -8.78182e-09
184 2 -1.32059e-10 1.51554e-08 -8.78186e-09
185 2 -1.32081e-10 1.51553e-08 -8.78182e-09
186 2 -1.32077e-10 1.51553e-08 -8.78182e-09
187 2 -1.32097e-10 1.51554e-08 -8.78186e-09
188 2 -1.32133e-10 1.51554e-08 -8.78183e-09
189 2 -1.32089e-10 1.51554e-08 -8.78184e-09
190 2 -1.32143e-10 1.51554e-08 -8.78185e-09
191 2 -1.32049e-10 1.51554e-08 -8.78188e-09
192 2 -1.32086e-10 1.51554e-08 -8.78179e-09
193 2 4.97972e-10 -2.42028e-08 -9.74729e-08
194 2 2.06941e-10 -2.42028e-08 -9.74729e-08
195 2 3.52462e-10 -2.44093e-08 -9.74359e-08
196 2 3.52471e-10 -2.44093e-08 -9.74359e-08
197 2 3.52451e-10 -2.44093e-08 -9.74359e-08
198 2 3.52478e-10 -2.44093e-08 -9.74359e-08
199 2 3.52462e-10 -2.46698e-08 -9.74745e-08
200 2 3.43428e-10 -2.4417e-08 -9.74371e-08
201 2 3.52481e-10 -2.44092e-08 -9.74359e-08
202 2 3.52475e-10 -2.44093e-08 -9.74359e-08
203 2 3.52473e-10 -2.44093e-08 -9.74359e-08
204 2 3.61526e-10 -2.4417e-08 -9.74371e-08
205 2 3.52474e-10 -2.44092e-08 -9.74359e-08
206 2 3.52466e-10 -2.44092e-08 -9.74359e-08
207 2 3.52502e-10 -2.44092e-08 -9.74359e-08
208 2 3.52496e-10 -2.44092e-08 -9.74359e-08
209 2 3.5249e-10 -2.44092e-08 -9.74359e-08
210 2 3.52478e-10 -2.44092e-08 -9.74359e-08
211 2 3.52455e-10 -2.44092e-08 -9.74359e-08
212 2 3.52485e-10 -2.44092e-08 -9.74359e-08
213 2 3.52496e-10 -2.44092e-08 -9.74359e-08
214 2 3.52477e-10 -2.44092e-08 -9.74359e-08
215 2 3.52499e-10 -2.44092e-08 -9.74359e-08
216 2 3.52517e-10 -2.44092e-08 -9.74359e-08
217 2 -0.000918235 0.000405887 -0.00251244
218 2 -1.92626e-10 -1.43692e-08 6.36094e-08
219 2 -3.53525e-11 -1.43692e-08 6.36095e-08
220 2 -3.53645e-11 -1.43692e-08 6.36095e-08
221 2 -3.53172e-11 -1.43692e-08 6.36095e-08
222 2 1.22128e-10 -1.43692e-08 6.36095e-08
223 2 -3.5274e-11 -1.43692e-08 6.36094e-08
224 2 -3.53492e-11 -1.43692e-08 6.36095e-08
225 2 -3.53209e-11 -1.43692e-08 6.36094e-08
226 2 -3.53402e-11 -1.43692e-08 6.36095e-08
227 2 -3.53788e-11 -1.43692e-08 6.36095e-08
228 2 -3.53415e-11 -1.43692e-08 6.36095e-08
229 2 -3.52933e-11 -1.43692e-08 6.36094e-08
230 2 -3.53443e-11 -1.43692e-08 6.36094e-08
231 2 -3.53947e-11 -1.43692e-08 6.36095e-08
232 2 -3.53991e-11 -1.43692e-08 6.36095e-08
233 2 -3.53784e-11 -1.43692e-08 6.36094e-08
234 2 -3.5342e-11 -1.43692e-08 6.36095e-08
235 2 -3.52596e-11 -1.43692e-08 6.36095e-08
236 2 -3.52822e-11 -1.43692e-08 6.36095e-08
237 2 -3.53341e-11 -1.43692e-08 6.36095e-08
238 2 -3.53635e-11 -1.43692e-08 6.36095e-08
239 2 -3.54666e-11 -1.43692e-08 6.36095e-08
240 2 -3.52229e-11 -1.43692e-08 6.36095e-08
