ITEM: TIMESTEP
0
ITEM: NUMBER OF ATOMS
240
ITEM: BOX BOUNDS xy xz yz pp pp pp
0.0000000000000000e+00 2.7625138723124262e+01 6.9063901264718801e+00
0.0000000000000000e+00 2.1661997842785119e+01 0.0000000000000000e+00
0.0000000000000000e+00 3.0000000000000000e+01 0.0000000000000000e+00
ITEM: ATOMS id type fx fy fz
1 1 -3.54984e-06 0.0858892 0.166969
2 1 -0.0146927 -0.0120699 0.00411604
3 1 -3.72077e-05 3.2359e-05 -0.000732894
4 1 -3.23366e-10 2.09135e-08 3.13913e-09
5 1 3.72073e-05 3.23585e-05 -0.000732895
6 1 0.0146927 -0.0120699 0.00411603
7 1 -0.000354968 -0.000562948 -0.000252014
8 1 -2.06615e-06 3.38607e-06 -1.44124e-06
9 1 -3.2346e-10 2.09135e-08 3.13914e-09
10 1 -3.23452e-10 2.09135e-08 3.13914e-09
11 1 2.06484e-06 3.38766e-06 -1.4409e-06
12 1 0.000354964 -0.000562958 -0.000252005
13 1 -3.23507e-10 2.09135e-08 3.13914e-09
14 1 -3.2352e-10 2.09135e-08 3.13913e-09
15 1 -3.23467e-10 2.09135e-08 3.13913e-09
16 1 -3.23486e-10 2.09135e-08 3.13913e-09
17 1 -3.23516e-10 2.09135e-08 3.13913e-09
18 1 -3.23331e-10 2.09135e-08 3.13913e-09
19 1 0.000137189 0.00096859 -0.000249095
20 1 -0.000137168 0.000968569 -0.000249086
21 1 4.03387e-06 1.27048e-06 -1.44639e-06
22 1 -3.23376e-10 2.09135e-08 3.13914e-09
23 1 -3.23524e-10 2.09136e-08 3.13912e-09
24 1 -4.03199e-06 1.27225e-06 -1.44672e-06
25 1 -0.0476123 -0.0097871 0.022685
26 1 0.0476119 -0.00978666 0.022685
27 1 0.000519036 -0.000473667 0.000129191
28 1 1.20836e-10 -4.40012e-08 -4.4857e-08
29 1 1.20777e-10 -4.40012e-08 -4.4857e-08
30 1 -0.00051891 -0.000473612 0.000129143
31 1 1.87032e-09 0.00822671 -0.00142399
32 1 -0.000299973 -3.93868e-05 0.000148697
33 1 -3.85458e-05 -1.75228e-05 1.20448e-05
34 1 1.20819e-10 -4.40012e-08 -4.4857e-08
35 1 3.85767e-05 -1.75367e-05 1.20546e-05
36 1 0.000301238 -4.05985e-05 0.000149052
37 1 4.55544e-08 -3.35197e-07 -1.29167e-07
38 1 1.20857e-10 -4.40012e-08 -4.4857e-08
39 1 1.20897e-10 -4.40012e-08 -4.4857e-08
40 1 1.20888e-10 -4.40012e-08 -4.4857e-08
41 1 1.2084e-10 -4.40012e-08 -4.4857e-08
42 1 -4.53217e-08 -3.35236e-07 -1.29177e-07
43 1 -4.79731e-07 -1.12317e-06 -3.15753e-07
44 1 1.14168e-10 -2.20244e-06 -5.86674e-07
45 1 4.80006e-07 -1.12327e-06 -3.15778e-07
46 1 1.20753e-10 -4.40012e-08 -4.4857e-08
47 1 1.20825e-10 -4.40012e-08 -4.4857e-08
48 1 1.20928e-10 -4.40012e-08 -4.4857e-08
49 1 1.55988e-10 4.49694e-08 4.5562e-08
50 1 1.56015e-10 4.49694e-08 4.5562e-08
51 1 1.56072e-10 4.49694e-08 4.55619e-08
52 1 1.56036e-10 4.49694e-08 4.5562e-08
53 1 1.56021e-10 4.49694e-08 4.55619e-08
54 1 1.56052e-10 4.49694e-08 4.55619e-08
55 1 1.56034e-10 4.49694e-08 4.5562e-08
56 1 1.56015e-10 4.49693e-08 4.5562e-08
57 1 1.56058e-10 4.49694e-08 4.5562e-08
58 1 1.55946e-10 4.49693e-08 4.5562e-08
59 1 1.56016e-10 4.49694e-08 4.55619e-08
60 1 1.56089e-10 4.49693e-08 4.5562e-08
61 1 1.5602e-10 4.49694e-08 4.55619e-08
62 1 1.56046e-10 4.49694e-08 4.5562e-08
63 1 1.56093e-10 4.49694e-08 4.55619e-08
64 1 1.55991e-10 4.49694e-08 4.55619e-08
65 1 1.56061e-10 4.49694e-08 4.55619e-08
66 1 1.56127e-10 4.49694e-08 4.5562e-08
67 1 1.56035e-10 4.49694e-08 4.55619e-08
68 1 1.56062e-10 4.49694e-08 4.55619e-08
69 1 1.56072e-10 4.49694e-08 4.55619e-08
70 1 1.56102e-10 4.49694e-08 4.55619e-08
71 1 1.55985e-10 4.49694e-08 4.55619e-08
72 1 1.56096e-10 4.49694e-08 4.55619e-08
73 1 -3.412e-10 -2.13462e-08 -2.95367e-09
74 1 -3.41096e-10 -2.13463e-08 -2.95365e-09
75 1 -3.41037e-10 -2.13463e-08 -2.95366e-09
76 1 -3.41053e-10 -2.13463e-08 -2.95365e-09
77 1 -3.41059e-10 -2.13463e-08 -2.95365e-09
78 1 -3.41115e-10 -2.13463e-08 -2.95365e-09
79 1 -3.4119e-10 -2.13463e-08 -2.95365e-09
80 1 -3.41105e-10 -2.13463e-08 -2.95365e-09
81 1 -3.41108e-10 -2.13463e-08 -2.95366e-09
82 1 -3.41078e-10 -2.13463e-08 -2.95365e-09
83 1 -3.41021e-10 -2.13463e-08 -2.95367e-09
84 1 -3.41056e-10 -2.13463e-08 -2.95367e-09
85 1 -3.41139e-10 -2.13463e-08 -2.95364e-09
86 1 -3.4112e-10 -2.13463e-08 -2.95366e-09
87 1 -3.41052e-10 -2.13463e-08 -2.95367e-09
88 1 -3.41047e-10 -2.13463e-08 -2.95366e-09
89 1 -3.41088e-10 -2.13463e-08 -2.95366e-09
90 1 -3.41081e-10 -2.13463e-08 -2.95366e-09
91 1 -3.41196e-10 -2.13463e-08 -2.95366e-09
92 1 -3.41174e-10 -2.13464e-08 -2.95366e-09
93 1 -3.41099e-10 -2.13464e-08 -2.95367e-09
94 1 -3.41032e-10 -2.13463e-08 -2.95367e-09
95 1 -3.41118e-10 -2.13463e-08 -2.95366e-09
96 1 -3.41054e-10 -2.13464e-08 -2.95365e-09
97 2 0.0303454 0.0158829 -0.0359412
98 2 -0.0303458 0.015883 -0.0359412
99 2 0.00124534 0.000233026 0.000127201
100 2 -1.64526e-11 1.40085e-08 -6.22558e-08
101 2 -1.63948e-11 1.40085e-08 -6.22559e-08
102 2 -0.00124536 0.000233019 0.000127206
103 2 5.69607e-09 0.000800574 0.000763054
104 2 8.83059e-05 5.7697e-05 4.8538e-05
105 2 5.47086e-07 3.56067e-07 8.86218e-08
106 2 -1.64657e-11 1.40085e-08 -6.22558e-08
107 2 -5.47381e-07 3.56202e-07 8.87151e-08
108 2 -8.83244e-05 5.77148e-05 4.8545e-05
109 2 -1.64961e-11 1.40085e-08 -6.22559e-08
110 2 -1.6382e-11 1.40085e-08 -6.22558e-08
111 2 -1.63922e-11 1.40085e-08 -6.22558e-08
112 2 -1.63982e-11 1.40085e-08 -6.22558e-08
113 2 -1.64358e-11 1.40085e-08 -6.22558e-08
114 2 -1.64627e-11 1.40085e-08 -6.22558e-08
115 2 -1.6363e-05 -3.47726e-05 1.14586e-05
116 2 7.16826e-10 -6.9563e-05 2.29808e-05
117 2 1.63642e-05 -3.47764e-05 1.14599e-05
118 2 -1.64398e-11 1.40085e-08 -6.22558e-08
119 2 -1.6483e-11 1.40085e-08 -6.22558e-08
120 2 -1.62695e-11 1.40085e-08 -6.22558e-08
121 2 0.000347826 -0.00341185 -0.00080186
122 2 -0.000348196 -0.00341121 -0.000802062
123 2 -0.000227385 0.000104294 -0.00025522
124 2 3.695e-10 2.38355e-08 9.53311e-08
125 2 3.69481e-10 2.38355e-08 9.53311e-08
126 2 0.000227746 0.000104476 -0.000255289
127 2 -2.33552e-07 -0.0398409 -0.0184301
128 2 0.00584145 0.00478289 0.000752732
129 2 7.18564e-05 1.68526e-05 -3.05729e-05
130 2 3.6949e-10 2.38355e-08 9.53311e-08
131 2 -7.18372e-05 1.68552e-05 -3.05857e-05
132 2 -0.00584263 0.00478368 0.000752809
133 2 1.31357e-05 2.31645e-05 4.06164e-06
134 2 4.59334e-08 1.37233e-07 1.22041e-07
135 2 3.69501e-10 2.38354e-08 9.53311e-08
136 2 3.69502e-10 2.38354e-08 9.53311e-08
137 2 -4.52265e-08 1.37318e-07 1.2206e-07
138 2 -1.31353e-05 2.31653e-05 4.06163e-06
139 2 3.69496e-10 2.38354e-08 9.53311e-08
140 2 3.69517e-10 2.38354e-08 9.53311e-08
141 2 3.69507e-10 2.38354e-08 9.53311e-08
142 2 3.69486e-10 2.38354e-08 9.53311e-08
143 2 3.69537e-10 2.38354e-08 9.53311e-08
144 2 3.69526e-10 2.38354e-08 9.53311e-08
145 2 1.60717e-07 -0.0367184 -0.106524
146 2 0.0166856 -0.0060665 -0.00915858
147 2 -0.000618198 6.74749e-05 6.80492e-05
148 2 -1.50398e-10 -1.47563e-08 8.64263e-09
149 2 0.000618147 6.74656e-05 6.80404e-05
150 2 -0.0166811 -0.00606452 -0.0091567
151 2 0.00152621 0.0010672 -0.00132311
152 2 9.87891e-05 9.38689e-05 -4.16186e-05
153 2 -1.50405e-10 -1.47562e-08 8.64261e-09
154 2 -1.50331e-10 -1.47563e-08 8.64263e-09
155 2 -9.88157e-05 9.38832e-05 -4.16167e-05
156 2 -0.00152635 0.00106738 -0.00132324
157 2 -1.50458e-10 -1.47563e-08 8.64262e-09
158 2 -1.50493e-10 -1.47563e-08 8.64263e-09
159 2 -1.50513e-10 -1.47563e-08 8.64262e-09
160 2 -1.50477e-10 -1.47563e-08 8.64263e-09
161 2 -1.50425e-10 -1.47563e-08 8.64262e-09
162 2 -1.50517e-10 -1.47562e-08 8.64261e-09
163 2 -4.21653e-09 -1.46868e-05 -2.80102e-06
164 2 3.7164e-09 -1.4687e-05 -2.8011e-06
165 2 3.8178e-09 -1.84099e-08 6.87845e-09
166 2 -1.50421e-10 -1.47563e-08 8.6426e-09
167 2 -1.50459e-10 -1.47563e-08 8.64259e-09
168 2 -4.11542e-09 -1.84068e-08 6.87992e-09
169 2 -1.32099e-10 1.51554e-08 -8.78188e-09
170 2 -1.32036e-10 1.51553e-08 -8.78184e-09
171 2 -1.32123e-10 1.51554e-08 -8.78183e-09
172 2 -1.32102e-10 1.51553e-08 -8.78184e-09
173 2 -1.32107e-10 1.51554e-08 -8.78183e-09
174 2 -1.32102e-10 1.51554e-08 -8.78183e-09
175 2 -1.32104e-10 1.51554e-08 -8.78185e-09
176 2 -1.32043e-10 1.51554e-08 -8.78184e-09
177 2 -1.321e-10 1.51554e-08 -8.78182e-09
178 2 -1.32037e-10 1.51554e-08 -8.78185e-09
179 2 -1.32082e-10 1.51554e-08 -8.78183e-09
180 2 -1.32074e-10 1.51554e-08 -8.78183e-09
181 2 -1.32161e-10 1.51554e-08 -8.78187e-09
182 2 -1.32078e-10 1.51553e-08 -8.78183e-09
183 2 -1.32135e-10 1.51553e-08 -8.78182e-09
184 2 -1.32059e-10 1.51554e-08 -8.78186e-09
185 2 -1.32081e-10 1.51553e-08 -8.78182e-09
186 2 -1.32077e-10 1.51553e-08 -8.78182e-09
187 2 -1.32097e-10 1.51554e-08 -8.78186e-09
188 2 -1.32133e-10 1.51554e-08 -8.78183e-09
189 2 -1.32089e-10 1.51554e-08 -8.78184e-09
190 2 -1.32143e-10 1.51554e-08 -8.78185e-09
191 2 -1.32049e-10 1.51554e-08 -8.78188e-09
192 2 -1.32086e-10 1.51554e-08 -8.78179e-09
193 2 3.52449e-10 -2.44093e-08 -9.74359e-08
194 2 3.52464e-10 -2.44093e-08 -9.74359e-08
195 2 3.52462e-10 -2.44093e-08 -9.74359e-08
196 2 3.52471e-10 -2.44093e-08 -9.74359e-08
197 2 3.52451e-10 -2.44093e-08 -9.74359e-08
198 2 3.52478e-10 -2.44093e-08 -9.74359e-08
199 2 3.52464e-10 -2.44092e-08 -9.74359e-08
200 2 3.52473e-10 -2.44093e-08 -9.74359e-08
201 2 3.52481e-10 -2.44092e-08 -9.74359e-08
202 2 3.52475e-10 -2.44093e-08 -9.74359e-08
203 2 3.52473e-10 -2.44093e-08 -9.74359e-08
204 2 3.5248e-10 -2.44093e-08 -9.74359e-08
205 2 3.52474e-10 -2.44092e-08 -9.74359e-08
206 2 3.52466e-10 -2.44092e-08 -9.74359e-08
207 2 3.52502e-10 -2.44092e-08 -9.74359e-08
208 2 3.52496e-10 -2.44092e-08 -9.74359e-08
209 2 3.5249e-10 -2.44092e-08 -9.74359e-08
210 2 3.52478e-10 -2.44092e-08 -9.74359e-08
211 2 3.52455e-10 -2.44092e-08 -9.74359e-08
212 2 3.52485e-10 -2.44092e-08 -9.74359e-08
213 2 3.52496e-10 -2.44092e-08 -9.74359e-08
214 2 3.52477e-10 -2.44092e-08 -9.74359e-08
215 2 3.52499e-10 -2.44092e-08 -9.74359e-08
216 2 3.52517e-10 -2.44092e-08 -9.74359e-08
217 2 -3.53424e-11 -1.43692e-08 6.36094e-08
218 2 -3.53719e-11 -1.43692e-08 6.36094e-08
219 2 -3.53525e-11 -1.43692e-08 6.36095e-08
220 2 -3.53645e-11 -1.43692e-08 6.36095e-08
221 2 -3.53172e-11 -1.43692e-08 6.36095e-08
222 2 -3.51261e-11 -1.43692e-08 6.36095e-08
223 2 -3.5274e-11 -1.43692e-08 6.36094e-08
224 2 -3.53492e-11 -1.43692e-08 6.36095e-08
225 2 -3.53209e-11 -1.43692e-08 6.36094e-08
226 2 -3.53402e-11 -1.43692e-08 6.36095e-08
227 2 -3.53788e-11 -1.43692e-08 6.36095e-08
228 2 -3.53415e-11 -1.43692e-08 6.36095e-08
229 2 -3.52933e-11 -1.43692e-08 6.36094e-08
230 2 -3.53443e-11 -1.43692e-08 6.36094e-08
231 2 -3.53947e-11 -1.43692e-08 6.36095e-08
232 2 -3.53991e-11 -1.43692e-08 6.36095e-08
233 2 -3.53784e-11 -1.43692e-08 6.36094e-08
234 2 -3.5342e-11 -1.43692e-08 6.36095e-08
235 2 -3.52596e-11 -1.43692e-08 6.36095e-08
236 2 -3.52822e-11 -1.43692e-08 6.36095e-08
237 2 -3.53341e-11 -1.43692e-08 6.36095e-08
238 2 -3.53635e-11 -1.43692e-08 6.36095e-08
239 2 -3.54666e-11 -1.43692e-08 6.36095e-08
240 2 -3.52229e-11 -1.43692e-08 6.36095e-08
