ITEM: TIMESTEP
0
ITEM: NUMBER OF ATOMS
240
ITEM: BOX BOUNDS xy xz yz pp pp pp
0.0000000000000000e+00 2.7625138723124262e+01 6.9063901264718801e+00
0.0000000000000000e+00 2.1661997842785119e+01 0.0000000000000000e+00
0.0000000000000000e+00 3.0000000000000000e+01 0.0000000000000000e+00
ITEM: ATOMS id type fx fy fz
1 1 0.637045 0.0433587 -0.0229133
2 1 -0.0331153 -0.0173671 0.0141926
3 1 -0.0042803 0.000757848 5.15841e-05
4 1 -3.23366e-10 2.09135e-08 3.13913e-09
5 1 -0.00399869 -0.000784233 -1.21581e-05
6 1 -0.0304079 0.0165574 -0.0147394
7 1 -0.00022545 -0.00065586 0.000138926
8 1 4.53232e-05 8.92269e-05 -3.06692e-06
9 1 -3.2346e-10 2.09135e-08 3.13914e-09
10 1 -3.23452e-10 2.09135e-08 3.13914e-09
11 1 4.53981e-05 -9.11017e-05 4.37139e-06
12 1 -0.000242146 0.00068505 -0.000127708
13 1 -3.23507e-10 2.09135e-08 3.13914e-09
14 1 -3.2352e-10 2.09135e-08 3.13913e-09
15 1 -3.23467e-10 2.09135e-08 3.13913e-09
16 1 -3.23486e-10 2.09135e-08 3.13913e-09
17 1 -3.23516e-10 2.09135e-08 3.13913e-09
18 1 -3.23331e-10 2.09135e-08 3.13913e-09
19 1 -0.000286783 0.00173966 -0.000330892
20 1 -1.58817e-05 -0.00167205 0.000366896
21 1 4.49663e-05 -3.1946e-05 2.1161e-06
22 1 -3.23376e-10 2.09135e-08 3.13914e-09
23 1 -3.23524e-10 2.09136e-08 3.13912e-09
24 1 -1.526e-07 4.75924e-06 -3.5027e-06
25 1 -0.0352933 -0.0665382 -0.0511634
26 1 -0.032421 0.0636254 0.0494081
27 1 -0.00230329 0.000420215 0.000169526
28 1 1.20836e-10 -4.40012e-08 -4.4857e-08
29 1 1.20777e-10 -4.40012e-08 -4.4857e-08
30 1 -0.00377459 -0.000865801 0.000478014
31 1 -0.00119188 7.52791e-05 3.07144e-05
32 1 0.00187161 -0.000169863 0.000528757
33 1 -0.00061519 -0.000270669 0.000184294
34 1 1.20819e-10 -4.40012e-08 -4.4857e-08
35 1 -0.000789854 0.000345123 -0.000239776
36 1 0.00133475 0.00243291 -0.00187035
37 1 1.36915e-09 4.19186e-07 8.87854e-09
38 1 1.20857e-10 -4.40012e-08 -4.4857e-08
39 1 1.20897e-10 -4.40012e-08 -4.4857e-08
40 1 1.20888e-10 -4.40012e-08 -4.4857e-08
41 1 1.2084e-10 -4.40012e-08 -4.4857e-08
42 1 -1.12765e-09 -5.22411e-07 -1.03125e-07
43 1 6.99322e-06 1.56832e-05 3.90304e-06
44 1 -1.3893e-05 1.66531e-07 7.9915e-09
45 1 6.90015e-06 -1.55622e-05 -3.94029e-06
46 1 1.20753e-10 -4.40012e-08 -4.4857e-08
47 1 1.20825e-10 -4.40012e-08 -4.4857e-08
48 1 1.20928e-10 -4.40012e-08 -4.4857e-08
49 1 1.55988e-10 4.49694e-08 4.5562e-08
50 1 1.56015e-10 4.49694e-08 4.5562e-08
51 1 1.56072e-10 4.49694e-08 4.55619e-08
52 1 1.56036e-10 4.49694e-08 4.5562e-08
53 1 1.56021e-10 4.49694e-08 4.55619e-08
54 1 1.56052e-10 4.49694e-08 4.55619e-08
55 1 1.56034e-10 4.49694e-08 4.5562e-08
56 1 1.56015e-10 4.49693e-08 4.5562e-08
57 1 1.56058e-10 4.49694e-08 4.5562e-08
58 1 1.55946e-10 4.49693e-08 4.5562e-08
59 1 1.56016e-10 4.49694e-08 4.55619e-08
60 1 1.56089e-10 4.49693e-08 4.5562e-08
61 1 1.5602e-10 4.49694e-08 4.55619e-08
62 1 1.56046e-10 4.49694e-08 4.5562e-08
63 1 1.56093e-10 4.49694e-08 4.55619e-08
64 1 1.55991e-10 4.49694e-08 4.55619e-08
65 1 1.56061e-10 4.49694e-08 4.55619e-08
66 1 1.56127e-10 4.49694e-08 4.5562e-08
67 1 1.56035e-10 4.49694e-08 4.55619e-08
68 1 1.56062e-10 4.49694e-08 4.55619e-08
69 1 1.56072e-10 4.49694e-08 4.55619e-08
70 1 1.56102e-10 4.49694e-08 4.55619e-08
71 1 1.55985e-10 4.49694e-08 4.55619e-08
72 1 1.56096e-10 4.49694e-08 4.55619e-08
73 1 -3.412e-10 -2.13462e-08 -2.95367e-09
74 1 -3.41096e-10 -2.13463e-08 -2.95365e-09
75 1 -3.41037e-10 -2.13463e-08 -2.95366e-09
76 1 -3.41053e-10 -2.13463e-08 -2.95365e-09
77 1 -3.41059e-10 -2.13463e-08 -2.95365e-09
78 1 -3.41115e-10 -2.13463e-08 -2.95365e-09
79 1 -3.4119e-10 -2.13463e-08 -2.95365e-09
80 1 -3.41105e-10 -2.13463e-08 -2.95365e-09
81 1 -3.41108e-10 -2.13463e-08 -2.95366e-09
82 1 -3.41078e-10 -2.13463e-08 -2.95365e-09
83 1 -3.41021e-10 -2.13463e-08 -2.95367e-09
84 1 -3.41056e-10 -2.13463e-08 -2.95367e-09
85 1 -3.41139e-10 -2.13463e-08 -2.95364e-09
86 1 -3.4112e-10 -2.13463e-08 -2.95366e-09
87 1 -3.41052e-10 -2.13463e-08 -2.95367e-09
88 1 -3.41047e-10 -2.13463e-08 -2.95366e-09
89 1 -3.41088e-10 -2.13463e-08 -2.95366e-09
90 1 -3.41081e-10 -2.13463e-08 -2.95366e-09
91 1 -3.41196e-10 -2.13463e-08 -2.95366e-09
92 1 -3.41174e-10 -2.13464e-08 -2.95366e-09
93 1 -3.41099e-10 -2.13464e-08 -2.95367e-09
94 1 -3.41032e-10 -2.13463e-08 -2.95367e-09
95 1 -3.41118e-10 -2.13463e-08 -2.95366e-09
96 1 -3.41054e-10 -2.13464e-08 -2.95365e-09
97 2 -0.174973 -0.0664441 0.0878945
98 2 -0.146134 0.0517758 -0.0774335
99 2 0.000163146 -0.000819065 -0.000259172
100 2 -1.64526e-11 1.40085e-08 -6.22558e-08
101 2 -1.63948e-11 1.40085e-08 -6.22559e-08
102 2 -0.000171218 0.000927672 0.000323765
103 2 0.000831432 0.000147613 2.44413e-05
104 2 -0.000657771 -0.000202114 -2.3616e-06
105 2 6.38687e-06 5.91078e-06 4.88316e-07
106 2 -1.64657e-11 1.40085e-08 -6.22558e-08
107 2 6.37227e-06 -6.04498e-06 -4.99879e-07
108 2 -0.000592938 0.000274763 1.61305e-05
109 2 -1.64961e-11 1.40085e-08 -6.22559e-08
110 2 -1.6382e-11 1.40085e-08 -6.22558e-08
111 2 -1.63922e-11 1.40085e-08 -6.22558e-08
112 2 -1.63982e-11 1.40085e-08 -6.22558e-08
113 2 -1.64358e-11 1.40085e-08 -6.22558e-08
114 2 -1.64627e-11 1.40085e-08 -6.22558e-08
115 2 0.000112761 0.00015134 -9.95332e-06
116 2 -0.000113931 -0.000124397 2.07359e-06
117 2 2.17432e-05 -7.67262e-06 -9.26527e-06
118 2 -1.64398e-11 1.40085e-08 -6.22558e-08
119 2 -1.6483e-11 1.40085e-08 -6.22558e-08
120 2 -1.62695e-11 1.40085e-08 -6.22558e-08
121 2 -0.0129249 -0.0245598 0.00241536
122 2 0.00177369 -0.00550984 -0.00181585
123 2 0.000881536 -0.000263854 0.000487081
124 2 3.695e-10 2.38355e-08 9.53311e-08
125 2 3.69481e-10 2.38355e-08 9.53311e-08
126 2 0.000486261 6.67653e-05 -0.000552354
127 2 -0.000115891 -0.000969603 -0.000653514
128 2 -0.0201297 0.00412539 -0.00268205
129 2 -0.000973353 -0.00139141 -8.06138e-05
130 2 3.6949e-10 2.38355e-08 9.53311e-08
131 2 -0.00128202 0.00120876 7.0391e-05
132 2 -0.00536771 -0.0135348 0.0041112
133 2 -3.50164e-08 6.20778e-06 3.26692e-06
134 2 -1.63149e-07 -3.56612e-07 1.87115e-09
135 2 3.69501e-10 2.38354e-08 9.53311e-08
136 2 3.69502e-10 2.38354e-08 9.53311e-08
137 2 -2.36211e-07 5.69198e-07 2.30094e-07
138 2 4.35857e-07 -7.24148e-06 -3.44607e-06
139 2 3.69496e-10 2.38354e-08 9.53311e-08
140 2 3.69517e-10 2.38354e-08 9.53311e-08
141 2 3.69507e-10 2.38354e-08 9.53311e-08
142 2 3.69486e-10 2.38354e-08 9.53311e-08
143 2 3.69537e-10 2.38354e-08 9.53311e-08
144 2 3.69526e-10 2.38354e-08 9.53311e-08
145 2 -0.0360407 -0.000107736 8.42318e-06
146 2 -0.0665482 0.0258736 0.0221715
147 2 -0.000351243 0.000436955 0.000455324
148 2 -1.50398e-10 -1.47563e-08 8.64263e-09
149 2 0.000262504 -0.000376253 -0.000392039
150 2 -0.0291105 -0.012888 -0.00808487
151 2 -0.00113252 0.00102036 0.000115615
152 2 0.0008934 0.00112831 -0.000783506
153 2 -1.50405e-10 -1.47562e-08 8.64261e-09
154 2 -1.50331e-10 -1.47563e-08 8.64263e-09
155 2 0.000881082 -0.00100677 0.000645146
156 2 -0.00114018 -0.000806365 -0.000231018
157 2 -1.50458e-10 -1.47563e-08 8.64262e-09
158 2 -1.50493e-10 -1.47563e-08 8.64263e-09
159 2 -1.50513e-10 -1.47563e-08 8.64262e-09
160 2 -1.50477e-10 -1.47563e-08 8.64263e-09
161 2 -1.50425e-10 -1.47563e-08 8.64262e-09
162 2 -1.50517e-10 -1.47562e-08 8.64261e-09
163 2 1.33708e-05 0.000248973 0.00011422
164 2 -5.80407e-08 -1.84523e-05 -1.74515e-05
165 2 5.6906e-08 -6.72897e-08 -1.67239e-08
166 2 -1.50421e-10 -1.47563e-08 8.6426e-09
167 2 -1.50459e-10 -1.47563e-08 8.64259e-09
168 2 5.76311e-08 3.84443e-08 3.43313e-08
169 2 -1.32099e-10 1.51554e-08 -8.78188e-09
170 2 -1.32036e-10 1.51553e-08 -8.78184e-09
171 2 -1.32123e-10 1.51554e-08 -8.78183e-09
172 2 -1.32102e-10 1.51553e-08 -8.78184e-09
173 2 -1.32107e-10 1.51554e-08 -8.78183e-09
174 2 -1.32102e-10 1.51554e-08 -8.78183e-09
175 2 -1.32104e-10 1.51554e-08 -8.78185e-09
176 2 -1.32043e-10 1.51554e-08 -8.78184e-09
177 2 -1.321e-10 1.51554e-08 -8.78182e-09
178 2 -1.32037e-10 1.51554e-08 -8.78185e-09
179 2 -1.32082e-10 1.51554e-08 -8.78183e-09
180 2 -1.32074e-10 1.51554e-08 -8.78183e-09
181 2 -1.32161e-10 1.51554e-08 -8.78187e-09
182 2 -1.32078e-10 1.51553e-08 -8.78183e-09
183 2 -1.32135e-10 1.51553e-08 -8.78182e-09
184 2 -1.32059e-10 1.51554e-08 -8.78186e-09
185 2 -1.32081e-10 1.51553e-08 -8.78182e-09
186 2 -1.32077e-10 1.51553e-08 -8.78182e-09
187 2 -1.32097e-10 1.51554e-08 -8.78186e-09
188 2 -1.32133e-10 1.51554e-08 -8.78183e-09
189 2 -1.32089e-10 1.51554e-08 -8.78184e-09
190 2 -1.32143e-10 1.51554e-08 -8.78185e-09
191 2 -1.32049e-10 1.51554e-08 -8.78188e-09
192 2 -1.32086e-10 1.51554e-08 -8.78179e-09
193 2 3.52449e-10 -2.44093e-08 -9.74359e-08
194 2 3.52464e-10 -2.44093e-08 -9.74359e-08
195 2 3.52462e-10 -2.44093e-08 -9.74359e-08
196 2 3.52471e-10 -2.44093e-08 -9.74359e-08
197 2 3.52451e-10 -2.44093e-08 -9.74359e-08
198 2 3.52478e-10 -2.44093e-08 -9.74359e-08
199 2 3.52464e-10 -2.44092e-08 -9.74359e-08
200 2 3.52473e-10 -2.44093e-08 -9.74359e-08
201 2 3.52481e-10 -2.44092e-08 -9.74359e-08
202 2 3.52475e-10 -2.44093e-08 -9.74359e-08
203 2 3.52473e-10 -2.44093e-08 -9.74359e-08
204 2 3.5248e-10 -2.44093e-08 -9.74359e-08
205 2 3.52474e-10 -2.44092e-08 -9.74359e-08
206 2 3.52466e-10 -2.44092e-08 -9.74359e-08
207 2 3.52502e-10 -2.44092e-08 -9.74359e-08
208 2 3.52496e-10 -2.44092e-08 -9.74359e-08
209 2 3.5249e-10 -2.44092e-08 -9.74359e-08
210 2 3.52478e-10 -2.44092e-08 -9.74359e-08
211 2 3.52455e-10 -2.44092e-08 -9.74359e-08
212 2 3.52485e-10 -2.44092e-08 -9.74359e-08
213 2 3.52496e-10 -2.44092e-08 -9.74359e-08
214 2 3.52477e-10 -2.44092e-08 -9.74359e-08
215 2 3.52499e-10 -2.44092e-08 -9.74359e-08
216 2 3.52517e-10 -2.44092e-08 -9.74359e-08
217 2 -3.53424e-11 -1.43692e-08 6.36094e-08
218 2 -3.53719e-11 -1.43692e-08 6.36094e-08
219 2 -3.53525e-11 -1.43692e-08 6.36095e-08
220 2 -3.53645e-11 -1.43692e-08 6.36095e-08
221 2 -3.53172e-11 -1.43692e-08 6.36095e-08
222 2 -3.51261e-11 -1.43692e-08 6.36095e-08
223 2 -3.5274e-11 -1.43692e-08 6.36094e-08
224 2 -3.53492e-11 -1.43692e-08 6.36095e-08
225 2 -3.53209e-11 -1.43692e-08 6.36094e-08
226 2 -3.53402e-11 -1.43692e-08 6.36095e-08
227 2 -3.53788e-11 -1.43692e-08 6.36095e-08
228 2 -3.53415e-11 -1.43692e-08 6.36095e-08
229 2 -3.52933e-11 -1.43692e-08 6.36094e-08
230 2 -3.53443e-11 -1.43692e-08 6.36094e-08
231 2 -3.53947e-11 -1.43692e-08 6.36095e-08
232 2 -3.53991e-11 -1.43692e-08 6.36095e-08
233 2 -3.53784e-11 -1.43692e-08 6.36094e-08
234 2 -3.5342e-11 -1.43692e-08 6.36095e-08
235 2 -3.52596e-11 -1.43692e-08 6.36095e-08
236 2 -3.52822e-11 -1.43692e-08 6.36095e-08
237 2 -3.53341e-11 -1.43692e-08 6.36095e-08
238 2 -3.53635e-11 -1.43692e-08 6.36095e-08
239 2 -3.54666e-11 -1.43692e-08 6.36095e-08
240 2 -3.52229e-11 -1.43692e-08 6.36095e-08
