ITEM: TIMESTEP
0
ITEM: NUMBER OF ATOMS
800
ITEM: BOX BOUNDS xy xz yz pp pp pp
0.0000000000000000e+00 4.8344027914031059e+01 1.3812780252943760e+01
0.0000000000000000e+00 4.3323995685570239e+01 0.0000000000000000e+00
0.0000000000000000e+00 3.0000000000000000e+01 0.0000000000000000e+00
ITEM: ATOMS id type fx fy fz
1 1 -0.0469452 -0.0357069 -0.0148727
2 1 -0.000443987 -0.000551724 -0.00055807
3 1 -3.23471e-10 2.09134e-08 3.13913e-09
4 1 -3.23468e-10 2.09134e-08 3.13912e-09
5 1 -3.23502e-10 2.09134e-08 3.13915e-09
6 1 -3.23492e-10 2.09134e-08 3.13912e-09
7 1 -3.23538e-10 2.09134e-08 3.13913e-09
8 1 -3.23603e-10 2.09134e-08 3.13916e-09
9 1 -0.00015182 -0.0005371 -0.000193407
10 1 0.0340362 -0.00943132 0.00371703
11 1 1.09873e-05 2.29911e-05 -6.61119e-07
12 1 -3.23462e-10 2.09135e-08 3.13913e-09
13 1 -3.23542e-10 2.09135e-08 3.13915e-09
14 1 -3.23558e-10 2.09135e-08 3.13912e-09
15 1 -3.23521e-10 2.09135e-08 3.13913e-09
16 1 -3.2345e-10 2.09135e-08 3.13913e-09
17 1 -3.23449e-10 2.09135e-08 3.13913e-09
18 1 -3.23502e-10 2.09135e-08 3.13914e-09
19 1 -8.33466e-06 1.74448e-05 -5.00729e-07
20 1 -2.65389e-06 4.04151e-05 -1.16499e-06
21 1 -3.23407e-10 2.09135e-08 3.13913e-09
22 1 -3.23483e-10 2.09135e-08 3.13914e-09
23 1 -3.23294e-10 2.09135e-08 3.13913e-09
24 1 -3.23527e-10 2.09135e-08 3.13913e-09
25 1 -3.23498e-10 2.09135e-08 3.13913e-09
26 1 -3.23451e-10 2.09135e-08 3.13913e-09
27 1 -3.23441e-10 2.09135e-08 3.13913e-09
28 1 -3.23471e-10 2.09135e-08 3.13915e-09
29 1 -3.23374e-10 2.09135e-08 3.13914e-09
30 1 -3.23469e-10 2.09136e-08 3.13912e-09
31 1 -3.2351e-10 2.09136e-08 3.13914e-09
32 1 -3.23505e-10 2.09136e-08 3.13913e-09
33 1 -3.23354e-10 2.09136e-08 3.13912e-09
34 1 -3.23513e-10 2.09136e-08 3.13914e-09
35 1 -3.23346e-10 2.09136e-08 3.13915e-09
36 1 -3.2339e-10 2.09136e-08 3.13913e-09
37 1 -3.2338e-10 2.09136e-08 3.13914e-09
38 1 -3.23547e-10 2.09136e-08 3.13916e-09
39 1 -3.23367e-10 2.09136e-08 3.13914e-09
40 1 -3.23331e-10 2.09136e-08 3.13916e-09
41 1 -3.23522e-10 2.09135e-08 3.13915e-09
42 1 -3.23606e-10 2.09135e-08 3.13914e-09
43 1 -3.23524e-10 2.09134e-08 3.13915e-09
44 1 -3.23439e-10 2.09135e-08 3.13913e-09
45 1 -3.23591e-10 2.09135e-08 3.13917e-09
46 1 -3.23534e-10 2.09135e-08 3.13915e-09
47 1 -3.23547e-10 2.09134e-08 3.13911e-09
48 1 -3.2356e-10 2.09135e-08 3.13916e-09
49 1 -3.2338e-10 2.09135e-08 3.13913e-09
50 1 -3.23463e-10 2.09135e-08 3.13914e-09
51 1 -3.23329e-10 2.09135e-08 3.13915e-09
52 1 -3.23378e-10 2.09134e-08 3.13913e-09
53 1 -3.23293e-10 2.09135e-08 3.13914e-09
54 1 -3.23279e-10 2.09134e-08 3.13913e-09
55 1 -3.23177e-10 2.09134e-08 3.13916e-09
56 1 -3.23386e-10 2.09134e-08 3.13912e-09
57 1 -3.23388e-10 2.09135e-08 3.13913e-09
58 1 -3.2335e-10 2.09134e-08 3.13916e-09
59 1 -3.23201e-10 2.09135e-08 3.13913e-09
60 1 -3.23229e-10 2.09134e-08 3.13912e-09
61 1 3.21425e-07 1.46218e-06 -1.85122e-07
62 1 -3.22093e-07 1.28914e-06 -2.04876e-07
63 1 -3.23318e-10 2.09134e-08 3.13914e-09
64 1 -3.23402e-10 2.09134e-08 3.13913e-09
65 1 -3.23314e-10 2.09134e-08 3.13914e-09
66 1 -3.2322e-10 2.09134e-08 3.13911e-09
67 1 -3.23501e-10 2.09134e-08 3.13913e-09
68 1 -3.23301e-10 2.09134e-08 3.13915e-09
69 1 -3.23449e-10 2.09134e-08 3.13913e-09
70 1 -3.23319e-10 2.09134e-08 3.13914e-09
71 1 -0.000175489 -0.0617484 0.00596605
72 1 0.00076171 -0.00085264 5.77813e-05
73 1 5.37996e-05 -2.69362e-05 -3.03417e-06
74 1 -3.23346e-10 2.09136e-08 3.13917e-09
75 1 -3.23358e-10 2.09135e-08 3.13915e-09
76 1 -3.23371e-10 2.09136e-08 3.13917e-09
77 1 -3.23369e-10 2.09136e-08 3.13916e-09
78 1 -3.23358e-10 2.09136e-08 3.13917e-09
79 1 -0.000366298 -0.000191744 -1.91044e-05
80 1 -0.000208253 -0.00154211 -5.4833e-05
81 1 0.122949 0.353301 -0.102743
82 1 -0.0170497 0.00250465 -0.00836604
83 1 -0.000392683 -0.000456315 -3.61721e-05
84 1 1.20843e-10 -4.40011e-08 -4.4857e-08
85 1 1.20801e-10 -4.40011e-08 -4.4857e-08
86 1 1.20884e-10 -4.40011e-08 -4.4857e-08
87 1 1.20851e-10 -4.40011e-08 -4.4857e-08
88 1 1.20859e-10 -4.40011e-08 -4.4857e-08
89 1 -0.00125952 -0.000163942 -0.000195302
90 1 0.00454712 -0.00397781 -0.000863494
91 1 -0.000485424 0.00045274 -0.000641693
92 1 2.45912e-05 1.49201e-05 -9.39093e-06
93 1 1.20818e-10 -4.40013e-08 -4.4857e-08
94 1 1.20873e-10 -4.40013e-08 -4.4857e-08
95 1 1.20725e-10 -4.40013e-08 -4.4857e-08
96 1 1.20707e-10 -4.40013e-08 -4.4857e-08
97 1 1.20684e-10 -4.40013e-08 -4.4857e-08
98 1 1.20714e-10 -4.40013e-08 -4.4857e-08
99 1 -1.72872e-05 6.57229e-06 -5.34549e-06
100 1 0.000402498 -8.50849e-05 -0.000450052
101 1 1.20973e-10 -4.40013e-08 -4.4857e-08
102 1 1.20821e-10 -4.40013e-08 -4.4857e-08
103 1 1.20886e-10 -4.40013e-08 -4.4857e-08
104 1 1.20816e-10 -4.40012e-08 -4.4857e-08
105 1 1.20845e-10 -4.40013e-08 -4.4857e-08
106 1 1.20822e-10 -4.40013e-08 -4.4857e-08
107 1 1.2079e-10 -4.40013e-08 -4.4857e-08
108 1 1.20806e-10 -4.40013e-08 -4.4857e-08
109 1 1.20846e-10 -4.40013e-08 -4.4857e-08
110 1 1.20788e-10 -4.40013e-08 -4.4857e-08
111 1 1.20958e-10 -4.40013e-08 -4.4857e-08
112 1 1.20896e-10 -4.40012e-08 -4.4857e-08
113 1 1.20878e-10 -4.40012e-08 -4.4857e-08
114 1 1.2077e-10 -4.40012e-08 -4.4857e-08
115 1 1.20811e-10 -4.40012e-08 -4.4857e-08
116 1 1.20815e-10 -4.40012e-08 -4.4857e-08
117 1 1.20776e-10 -4.40012e-08 -4.4857e-08
118 1 1.20792e-10 -4.40012e-08 -4.4857e-08
119 1 1.20836e-10 -4.40012e-08 -4.4857e-08
120 1 1.20825e-10 -4.40012e-08 -4.4857e-08
121 1 1.20923e-10 -4.40012e-08 -4.4857e-08
122 1 1.2087e-10 -4.40012e-08 -4.4857e-08
123 1 1.20914e-10 -4.40012e-08 -4.4857e-08
124 1 1.20867e-10 -4.40012e-08 -4.4857e-08
125 1 1.20794e-10 -4.40012e-08 -4.4857e-08
126 1 1.20985e-10 -4.40012e-08 -4.4857e-08
127 1 1.20986e-10 -4.40012e-08 -4.4857e-08
128 1 1.20739e-10 -4.40012e-08 -4.4857e-08
129 1 1.20901e-10 -4.40012e-08 -4.4857e-08
130 1 1.20916e-10 -4.40012e-08 -4.4857e-08
131 1 1.2079e-10 -4.40011e-08 -4.4857e-08
132 1 1.20817e-10 -4.40012e-08 -4.4857e-08
133 1 1.20808e-10 -4.40012e-08 -4.4857e-08
134 1 1.20813e-10 -4.40012e-08 -4.4857e-08
135 1 1.20737e-10 -4.40012e-08 -4.4857e-08
136 1 1.20923e-10 -4.40011e-08 -4.4857e-08
137 1 1.20749e-10 -4.40011e-08 -4.4857e-08
138 1 1.20788e-10 -4.40012e-08 -4.4857e-08
139 1 1.20889e-10 -4.40012e-08 -4.4857e-08
140 1 1.21004e-10 -4.40012e-08 -4.4857e-08
141 1 1.2092e-10 -4.40011e-08 -4.4857e-08
142 1 1.20853e-10 -4.40011e-08 -4.48571e-08
143 1 1.2091e-10 -4.40011e-08 -4.4857e-08
144 1 1.20942e-10 -4.40011e-08 -4.4857e-08
145 1 1.20886e-10 -4.40011e-08 -4.48571e-08
146 1 1.20876e-10 -4.40011e-08 -4.4857e-08
147 1 1.207e-10 -4.4001e-08 -4.4857e-08
148 1 1.20796e-10 -4.40011e-08 -4.48571e-08
149 1 1.20914e-10 -4.40011e-08 -4.4857e-08
150 1 1.20925e-10 -4.40011e-08 -4.48571e-08
151 1 0.000764682 -8.64257e-07 0.000746358
152 1 -0.000850486 0.000286149 0.000683287
153 1 -9.75328e-06 3.98782e-06 3.85911e-06
154 1 1.20922e-10 -4.40011e-08 -4.4857e-08
155 1 1.20909e-10 -4.40011e-08 -4.48571e-08
156 1 1.20828e-10 -4.40011e-08 -4.48571e-08
157 1 1.20938e-10 -4.40011e-08 -4.48571e-08
158 1 1.20935e-10 -4.40011e-08 -4.4857e-08
159 1 1.20932e-10 -4.40011e-08 -4.48571e-08
160 1 1.71929e-05 1.73205e-05 7.67171e-06
161 1 1.56022e-10 4.49693e-08 4.5562e-08
162 1 1.56036e-10 4.49693e-08 4.5562e-08
163 1 1.55981e-10 4.49693e-08 4.5562e-08
164 1 1.56143e-10 4.49693e-08 4.5562e-08
165 1 1.56027e-10 4.49693e-08 4.5562e-08
166 1 1.55967e-10 4.49693e-08 4.5562e-08
167 1 1.55999e-10 4.49693e-08 4.5562e-08
168 1 1.56085e-10 4.49693e-08 4.55619e-08
169 1 1.56069e-10 4.49694e-08 4.5562e-08
170 1 1.56072e-10 4.49693e-08 4.5562e-08
171 1 1.56003e-10 4.49693e-08 4.5562e-08
172 1 1.56027e-10 4.49693e-08 4.5562e-08
173 1 1.55984e-10 4.49693e-08 4.5562e-08
174 1 1.56005e-10 4.49693e-08 4.5562e-08
175 1 1.56019e-10 4.49693e-08 4.5562e-08
176 1 1.56011e-10 4.49693e-08 4.5562e-08
177 1 1.5603e-10 4.49693e-08 4.5562e-08
178 1 1.56018e-10 4.49693e-08 4.55619e-08
179 1 1.56018e-10 4.49694e-08 4.5562e-08
180 1 1.56144e-10 4.49693e-08 4.5562e-08
181 1 1.55998e-10 4.49694e-08 4.5562e-08
182 1 1.56006e-10 4.49694e-08 4.5562e-08
183 1 1.5598e-10 4.49694e-08 4.55619e-08
184 1 1.56043e-10 4.49694e-08 4.5562e-08
185 1 1.5603e-10 4.49694e-08 4.5562e-08
186 1 1.55936e-10 4.49694e-08 4.5562e-08
187 1 1.55939e-10 4.49694e-08 4.55619e-08
188 1 1.56043e-10 4.49694e-08 4.55619e-08
189 1 1.56054e-10 4.49694e-08 4.5562e-08
190 1 1.56049e-10 4.49694e-08 4.55619e-08
191 1 1.56065e-10 4.49694e-08 4.5562e-08
192 1 1.56053e-10 4.49694e-08 4.5562e-08
193 1 1.56072e-10 4.49694e-08 4.5562e-08
194 1 1.56071e-10 4.49694e-08 4.5562e-08
195 1 1.56005e-10 4.49694e-08 4.5562e-08
196 1 1.56013e-10 4.49694e-08 4.5562e-08
197 1 1.56064e-10 4.49693e-08 4.5562e-08
198 1 1.56048e-10 4.49694e-08 4.5562e-08
199 1 1.56133e-10 4.49694e-08 4.5562e-08
200 1 1.56189e-10 4.49693e-08 4.5562e-08
201 1 1.56071e-10 4.49694e-08 4.55619e-08
202 1 1.56069e-10 4.49694e-08 4.5562e-08
203 1 1.56055e-10 4.49694e-08 4.55619e-08
204 1 1.56088e-10 4.49694e-08 4.55619e-08
205 1 1.56105e-10 4.49694e-08 4.55619e-08
206 1 1.55978e-10 4.49694e-08 4.55619e-08
207 1 1.55999e-10 4.49694e-08 4.5562e-08
208 1 1.55976e-10 4.49694e-08 4.55619e-08
209 1 1.55955e-10 4.49694e-08 4.55619e-08
210 1 1.56093e-10 4.49693e-08 4.5562e-08
211 1 1.55994e-10 4.49694e-08 4.55619e-08
212 1 1.56012e-10 4.49694e-08 4.5562e-08
213 1 1.55945e-10 4.49693e-08 4.55619e-08
214 1 1.55944e-10 4.49694e-08 4.5562e-08
215 1 1.55978e-10 4.49694e-08 4.5562e-08
216 1 1.55886e-10 4.49694e-08 4.55619e-08
217 1 1.5591e-10 4.49694e-08 4.55619e-08
218 1 1.55992e-10 4.49693e-08 4.55619e-08
219 1 1.55895e-10 4.49694e-08 4.5562e-08
220 1 1.55975e-10 4.49694e-08 4.5562e-08
221 1 1.55958e-10 4.49693e-08 4.5562e-08
222 1 1.55875e-10 4.49694e-08 4.5562e-08
223 1 1.55919e-10 4.49694e-08 4.5562e-08
224 1 1.55927e-10 4.49693e-08 4.5562e-08
225 1 1.5593e-10 4.49693e-08 4.5562e-08
226 1 1.55867e-10 4.49693e-08 4.5562e-08
227 1 1.56016e-10 4.49693e-08 4.5562e-08
228 1 1.55989e-10 4.49694e-08 4.5562e-08
229 1 1.55979e-10 4.49693e-08 4.5562e-08
230 1 1.55943e-10 4.49694e-08 4.5562e-08
231 1 1.56035e-10 4.49694e-08 4.55619e-08
232 1 1.56177e-10 4.49694e-08 4.55619e-08
233 1 1.56142e-10 4.49694e-08 4.55619e-08
234 1 1.56227e-10 4.49694e-08 4.55619e-08
235 1 1.5614e-10 4.49694e-08 4.55619e-08
236 1 1.5614e-10 4.49694e-08 4.55619e-08
237 1 1.56138e-10 4.49694e-08 4.55619e-08
238 1 1.56156e-10 4.49694e-08 4.55619e-08
239 1 1.5622e-10 4.49694e-08 4.55619e-08
240 1 1.56221e-10 4.49694e-08 4.55619e-08
241 1 -3.41158e-10 -2.13463e-08 -2.95365e-09
242 1 -3.41067e-10 -2.13463e-08 -2.95365e-09
243 1 -3.41081e-10 -2.13463e-08 -2.95364e-09
244 1 -3.41065e-10 -2.13463e-08 -2.95365e-09
245 1 -3.41081e-10 -2.13463e-08 -2.95364e-09
246 1 -3.41073e-10 -2.13463e-08 -2.95366e-09
247 1 -3.41105e-10 -2.13463e-08 -2.95365e-09
248 1 -3.41104e-10 -2.13463e-08 -2.95366e-09
249 1 -3.4116e-10 -2.13463e-08 -2.95366e-09
250 1 -3.41043e-10 -2.13463e-08 -2.95366e-09
251 1 -3.41202e-10 -2.13463e-08 -2.95364e-09
252 1 -3.41095e-10 -2.13463e-08 -2.95366e-09
253 1 -3.41079e-10 -2.13463e-08 -2.95365e-09
254 1 -3.40995e-10 -2.13463e-08 -2.95365e-09
255 1 -3.40991e-10 -2.13463e-08 -2.95366e-09
256 1 -3.41103e-10 -2.13463e-08 -2.95365e-09
257 1 -3.41141e-10 -2.13463e-08 -2.95366e-09
258 1 -3.41131e-10 -2.13463e-08 -2.95366e-09
259 1 -3.41125e-10 -2.13463e-08 -2.95366e-09
260 1 -3.40909e-10 -2.13463e-08 -2.95367e-09
261 1 -3.412e-10 -2.13462e-08 -2.95366e-09
262 1 -3.41121e-10 -2.13463e-08 -2.95366e-09
263 1 -3.41074e-10 -2.13463e-08 -2.95366e-09
264 1 -3.41029e-10 -2.13463e-08 -2.95368e-09
265 1 -3.41047e-10 -2.13463e-08 -2.95366e-09
266 1 -3.40952e-10 -2.13463e-08 -2.95364e-09
267 1 -3.40944e-10 -2.13463e-08 -2.95365e-09
268 1 -3.40939e-10 -2.13463e-08 -2.95367e-09
269 1 -3.41194e-10 -2.13463e-08 -2.95367e-09
270 1 -3.41019e-10 -2.13463e-08 -2.95366e-09
271 1 -3.41062e-10 -2.13463e-08 -2.95365e-09
272 1 -3.40972e-10 -2.13464e-08 -2.95365e-09
273 1 -3.40974e-10 -2.13463e-08 -2.95368e-09
274 1 -3.41002e-10 -2.13463e-08 -2.95366e-09
275 1 -3.41069e-10 -2.13463e-08 -2.95365e-09
276 1 -3.41018e-10 -2.13464e-08 -2.95367e-09
277 1 -3.41133e-10 -2.13463e-08 -2.95366e-09
278 1 -3.4111e-10 -2.13463e-08 -2.95366e-09
279 1 -3.41126e-10 -2.13464e-08 -2.95368e-09
280 1 -3.41082e-10 -2.13463e-08 -2.95365e-09
281 1 -3.41193e-10 -2.13463e-08 -2.95367e-09
282 1 -3.4111e-10 -2.13463e-08 -2.95365e-09
283 1 -3.41027e-10 -2.13463e-08 -2.95365e-09
284 1 -3.40989e-10 -2.13463e-08 -2.95365e-09
285 1 -3.41016e-10 -2.13463e-08 -2.95365e-09
286 1 -3.41079e-10 -2.13463e-08 -2.95364e-09
287 1 -3.4114e-10 -2.13463e-08 -2.95365e-09
288 1 -3.41038e-10 -2.13463e-08 -2.95368e-09
289 1 -3.40999e-10 -2.13463e-08 -2.95367e-09
290 1 -3.41164e-10 -2.13463e-08 -2.95365e-09
291 1 -3.41005e-10 -2.13464e-08 -2.95367e-09
292 1 -3.41062e-10 -2.13464e-08 -2.95365e-09
293 1 -3.40873e-10 -2.13464e-08 -2.95366e-09
294 1 -3.41083e-10 -2.13464e-08 -2.95366e-09
295 1 -3.41096e-10 -2.13464e-08 -2.95365e-09
296 1 -3.4096e-10 -2.13463e-08 -2.95363e-09
297 1 -3.40982e-10 -2.13463e-08 -2.95368e-09
298 1 -3.41035e-10 -2.13464e-08 -2.95368e-09
299 1 -3.4117e-10 -2.13463e-08 -2.95365e-09
300 1 -3.41194e-10 -2.13464e-08 -2.95364e-09
301 1 -3.40931e-10 -2.13464e-08 -2.95365e-09
302 1 -3.41043e-10 -2.13464e-08 -2.95364e-09
303 1 -3.41019e-10 -2.13464e-08 -2.95366e-09
304 1 -3.40851e-10 -2.13464e-08 -2.95367e-09
305 1 -3.40833e-10 -2.13464e-08 -2.95364e-09
306 1 -3.40905e-10 -2.13464e-08 -2.95365e-09
307 1 -3.41276e-10 -2.13464e-08 -2.95366e-09
308 1 -3.41275e-10 -2.13464e-08 -2.95366e-09
309 1 -3.41273e-10 -2.13464e-08 -2.95366e-09
310 1 -3.4128e-10 -2.13464e-08 -2.95364e-09
311 1 -3.41032e-10 -2.13462e-08 -2.95365e-09
312 1 -3.41129e-10 -2.13463e-08 -2.95366e-09
313 1 -3.41074e-10 -2.13463e-08 -2.95365e-09
314 1 -3.41028e-10 -2.13463e-08 -2.95367e-09
315 1 -3.41084e-10 -2.13463e-08 -2.95364e-09
316 1 -3.40903e-10 -2.13463e-08 -2.95365e-09
317 1 -3.41272e-10 -2.13462e-08 -2.95365e-09
318 1 -3.41061e-10 -2.13462e-08 -2.95366e-09
319 1 -3.41234e-10 -2.13463e-08 -2.95365e-09
320 1 -3.41125e-10 -2.13463e-08 -2.95364e-09
321 2 -0.00627623 -0.0257337 -0.0347436
322 2 -0.0423378 -0.0149111 -0.0139852
323 2 3.48485e-05 -5.25476e-05 -5.13404e-05
324 2 -1.64756e-11 1.40085e-08 -6.22558e-08
325 2 -1.63724e-11 1.40085e-08 -6.22559e-08
326 2 -1.65022e-11 1.40085e-08 -6.22558e-08
327 2 -1.64724e-11 1.40085e-08 -6.22559e-08
328 2 -1.62944e-11 1.40085e-08 -6.22558e-08
329 2 -0.000323743 0.00010707 0.000108341
330 2 0.00219384 0.00121277 -3.64834e-05
331 2 1.35813e-06 3.92427e-05 6.20721e-06
332 2 1.79016e-06 1.55152e-06 1.65392e-07
333 2 -1.64498e-11 1.40085e-08 -6.22558e-08
334 2 -1.64343e-11 1.40085e-08 -6.22558e-08
335 2 -1.63694e-11 1.40085e-08 -6.22558e-08
336 2 -1.64762e-11 1.40085e-08 -6.22558e-08
337 2 -1.6475e-11 1.40085e-08 -6.22558e-08
338 2 -1.64507e-11 1.40085e-08 -6.22558e-08
339 2 -1.35809e-06 1.18042e-06 1.10446e-07
340 2 -1.79023e-06 3.27604e-05 5.0562e-06
341 2 -1.64588e-11 1.40085e-08 -6.22558e-08
342 2 -1.64709e-11 1.40085e-08 -6.22558e-08
343 2 -1.65082e-11 1.40085e-08 -6.22558e-08
344 2 -1.65199e-11 1.40085e-08 -6.22558e-08
345 2 -1.63519e-11 1.40085e-08 -6.22558e-08
346 2 -1.6451e-11 1.40085e-08 -6.22558e-08
347 2 -1.64607e-11 1.40085e-08 -6.22558e-08
348 2 -1.64324e-11 1.40085e-08 -6.22558e-08
349 2 -1.65456e-11 1.40085e-08 -6.22558e-08
350 2 -1.65492e-11 1.40085e-08 -6.22558e-08
351 2 -1.65592e-11 1.40086e-08 -6.22559e-08
352 2 -1.63855e-11 1.40085e-08 -6.22558e-08
353 2 -1.64854e-11 1.40085e-08 -6.22558e-08
354 2 -1.64633e-11 1.40085e-08 -6.22559e-08
355 2 -1.64546e-11 1.40085e-08 -6.22558e-08
356 2 -1.65297e-11 1.40085e-08 -6.22558e-08
357 2 -1.65146e-11 1.40085e-08 -6.22558e-08
358 2 -1.64542e-11 1.40085e-08 -6.22558e-08
359 2 -1.65445e-11 1.40085e-08 -6.22558e-08
360 2 -1.65791e-11 1.40085e-08 -6.22558e-08
361 2 -1.6402e-11 1.40085e-08 -6.22558e-08
362 2 -1.63106e-11 1.40085e-08 -6.22559e-08
363 2 -1.6274e-11 1.40085e-08 -6.22558e-08
364 2 -1.64692e-11 1.40085e-08 -6.22558e-08
365 2 -1.6395e-11 1.40086e-08 -6.22559e-08
366 2 -1.64108e-11 1.40085e-08 -6.22558e-08
367 2 -1.64321e-11 1.40086e-08 -6.22558e-08
368 2 -1.62849e-11 1.40086e-08 -6.22558e-08
369 2 -1.64935e-11 1.40085e-08 -6.22558e-08
370 2 -1.64159e-11 1.40086e-08 -6.22558e-08
371 2 -1.65459e-11 1.40086e-08 -6.22558e-08
372 2 -1.64496e-11 1.40085e-08 -6.22558e-08
373 2 -1.64915e-11 1.40085e-08 -6.22558e-08
374 2 -1.65409e-11 1.40085e-08 -6.22558e-08
375 2 -1.65871e-11 1.40085e-08 -6.22558e-08
376 2 -1.66487e-11 1.40086e-08 -6.22559e-08
377 2 -1.65705e-11 1.40085e-08 -6.22558e-08
378 2 -1.64545e-11 1.40085e-08 -6.22558e-08
379 2 -1.66955e-11 1.40085e-08 -6.22558e-08
380 2 -1.66116e-11 1.40085e-08 -6.22558e-08
381 2 -1.66009e-11 1.40086e-08 -6.22558e-08
382 2 -1.65821e-11 1.40085e-08 -6.22558e-08
383 2 -1.65916e-11 1.40086e-08 -6.22558e-08
384 2 -1.65886e-11 1.40086e-08 -6.22559e-08
385 2 -1.65375e-11 1.40086e-08 -6.22558e-08
386 2 -1.66559e-11 1.40086e-08 -6.22558e-08
387 2 -1.65894e-11 1.40086e-08 -6.22559e-08
388 2 -1.65219e-11 1.40085e-08 -6.22558e-08
389 2 -1.66317e-11 1.40086e-08 -6.22559e-08
390 2 -1.64933e-11 1.40085e-08 -6.22558e-08
391 2 0.00111378 0.00274641 -0.000808172
392 2 -0.00172989 0.00363211 -0.000642349
393 2 7.25803e-06 1.20163e-05 4.56663e-06
394 2 -1.65518e-11 1.40086e-08 -6.22558e-08
395 2 -1.65518e-11 1.40086e-08 -6.22558e-08
396 2 -1.6586e-11 1.40086e-08 -6.22558e-08
397 2 -1.65485e-11 1.40086e-08 -6.22559e-08
398 2 -1.65399e-11 1.40086e-08 -6.22558e-08
399 2 -1.65499e-11 1.40086e-08 -6.22559e-08
400 2 0.000163009 0.00013902 -3.48332e-05
401 2 0.00409546 -0.172619 0.126013
402 2 -0.00525693 0.00260654 -0.000783572
403 2 -0.00100474 0.000416305 -0.000278927
404 2 3.69507e-10 2.38353e-08 9.53311e-08
405 2 3.69512e-10 2.38353e-08 9.53311e-08
406 2 3.69482e-10 2.38353e-08 9.53311e-08
407 2 3.69473e-10 2.38353e-08 9.53311e-08
408 2 3.69477e-10 2.38353e-08 9.53311e-08
409 2 0.000506446 -3.27278e-05 9.06796e-06
410 2 -0.00156344 0.00566063 -0.00035017
411 2 0.000634277 -0.000854294 0.00123391
412 2 0.00200137 0.0010017 -4.03172e-05
413 2 3.69499e-10 2.38356e-08 9.53311e-08
414 2 3.69489e-10 2.38356e-08 9.53311e-08
415 2 3.69494e-10 2.38356e-08 9.53311e-08
416 2 3.69512e-10 2.38356e-08 9.53311e-08
417 2 3.69507e-10 2.38356e-08 9.5331e-08
418 2 3.69512e-10 2.38356e-08 9.53311e-08
419 2 -0.00122658 0.000612681 -1.01607e-05
420 2 0.000745107 -0.000468298 0.000738735
421 2 3.69517e-10 2.38355e-08 9.53311e-08
422 2 3.69499e-10 2.38355e-08 9.53311e-08
423 2 3.69536e-10 2.38355e-08 9.53311e-08
424 2 3.69497e-10 2.38355e-08 9.5331e-08
425 2 3.69517e-10 2.38355e-08 9.5331e-08
426 2 3.69526e-10 2.38355e-08 9.5331e-08
427 2 3.69536e-10 2.38355e-08 9.5331e-08
428 2 3.69537e-10 2.38355e-08 9.5331e-08
429 2 3.69534e-10 2.38355e-08 9.53311e-08
430 2 3.695e-10 2.38355e-08 9.5331e-08
431 2 3.69522e-10 2.38355e-08 9.53311e-08
432 2 3.69502e-10 2.38355e-08 9.53311e-08
433 2 3.6951e-10 2.38355e-08 9.53311e-08
434 2 3.69486e-10 2.38355e-08 9.53311e-08
435 2 3.69504e-10 2.38355e-08 9.53311e-08
436 2 3.69525e-10 2.38355e-08 9.53311e-08
437 2 3.69521e-10 2.38355e-08 9.53311e-08
438 2 3.6953e-10 2.38355e-08 9.53311e-08
439 2 3.69506e-10 2.38355e-08 9.53311e-08
440 2 3.69493e-10 2.38355e-08 9.53311e-08
441 2 3.69506e-10 2.38353e-08 9.53311e-08
442 2 3.69498e-10 2.38353e-08 9.53311e-08
443 2 3.69516e-10 2.38353e-08 9.53311e-08
444 2 3.69504e-10 2.38353e-08 9.53311e-08
445 2 3.69487e-10 2.38353e-08 9.53311e-08
446 2 3.69538e-10 2.38353e-08 9.53311e-08
447 2 3.69541e-10 2.38353e-08 9.53311e-08
448 2 3.69547e-10 2.38353e-08 9.53311e-08
449 2 3.69578e-10 2.38353e-08 9.53311e-08
450 2 3.6952e-10 2.38354e-08 9.53311e-08
451 2 3.69482e-10 2.38354e-08 9.53311e-08
452 2 3.6949e-10 2.38354e-08 9.53311e-08
453 2 3.69501e-10 2.38354e-08 9.53311e-08
454 2 3.69507e-10 2.38354e-08 9.53311e-08
455 2 3.69487e-10 2.38354e-08 9.53311e-08
456 2 3.69538e-10 2.38354e-08 9.53311e-08
457 2 3.69523e-10 2.38354e-08 9.53311e-08
458 2 3.69506e-10 2.38354e-08 9.53311e-08
459 2 3.69513e-10 2.38354e-08 9.53311e-08
460 2 3.69515e-10 2.38354e-08 9.53311e-08
461 2 3.69475e-10 2.38354e-08 9.53311e-08
462 2 3.69466e-10 2.38354e-08 9.53311e-08
463 2 3.69475e-10 2.38354e-08 9.53311e-08
464 2 3.69471e-10 2.38354e-08 9.53311e-08
465 2 3.69499e-10 2.38354e-08 9.53311e-08
466 2 3.69527e-10 2.38354e-08 9.53311e-08
467 2 3.6951e-10 2.38354e-08 9.53311e-08
468 2 3.69542e-10 2.38354e-08 9.53311e-08
469 2 3.69522e-10 2.38354e-08 9.53311e-08
470 2 3.69475e-10 2.38354e-08 9.53311e-08
471 2 -7.51488e-05 -0.000128758 5.82381e-06
472 2 7.51115e-05 -0.000136932 4.5136e-06
473 2 -6.88804e-07 3.18937e-07 2.28183e-07
474 2 3.69524e-10 2.38354e-08 9.53311e-08
475 2 3.69524e-10 2.38354e-08 9.53311e-08
476 2 3.69489e-10 2.38354e-08 9.53311e-08
477 2 3.69533e-10 2.38354e-08 9.53311e-08
478 2 3.69546e-10 2.38354e-08 9.53311e-08
479 2 3.69543e-10 2.38354e-08 9.53311e-08
480 2 7.29046e-07 1.65358e-08 2.84437e-07
481 2 -0.0520791 -0.0337353 0.0360106
482 2 -0.000125597 1.57693e-05 0.000408135
483 2 -1.50423e-10 -1.47562e-08 8.64263e-09
484 2 -1.50412e-10 -1.47563e-08 8.64264e-09
485 2 -1.50413e-10 -1.47563e-08 8.64264e-09
486 2 -1.50413e-10 -1.47563e-08 8.64264e-09
487 2 -1.50428e-10 -1.47563e-08 8.64261e-09
488 2 -1.50463e-10 -1.47562e-08 8.64262e-09
489 2 -0.00036599 -1.88328e-05 0.000284886
490 2 0.00568123 -0.014239 0.00432427
491 2 3.67833e-06 -1.46716e-05 -4.38474e-06
492 2 -1.5042e-10 -1.47563e-08 8.64262e-09
493 2 -1.50368e-10 -1.47563e-08 8.6426e-09
494 2 -1.50345e-10 -1.47563e-08 8.64263e-09
495 2 -1.50269e-10 -1.47563e-08 8.64264e-09
496 2 -1.5027e-10 -1.47563e-08 8.64262e-09
497 2 -1.50311e-10 -1.47563e-08 8.64262e-09
498 2 -1.5033e-10 -1.47563e-08 8.6426e-09
499 2 -6.00495e-06 -3.607e-06 -5.98773e-06
500 2 2.32862e-06 -1.8266e-05 -1.03804e-05
501 2 -1.50423e-10 -1.47563e-08 8.64263e-09
502 2 -1.50455e-10 -1.47563e-08 8.64259e-09
503 2 -1.50443e-10 -1.47563e-08 8.64263e-09
504 2 -1.50434e-10 -1.47563e-08 8.64261e-09
505 2 -1.50446e-10 -1.47563e-08 8.64263e-09
506 2 -1.50406e-10 -1.47563e-08 8.64262e-09
507 2 -1.5045e-10 -1.47563e-08 8.64262e-09
508 2 -1.50441e-10 -1.47563e-08 8.64263e-09
509 2 -1.50413e-10 -1.47563e-08 8.64262e-09
510 2 -1.50485e-10 -1.47562e-08 8.64253e-09
511 2 -1.50453e-10 -1.47563e-08 8.64261e-09
512 2 -1.50461e-10 -1.47563e-08 8.64263e-09
513 2 -1.50386e-10 -1.47563e-08 8.64264e-09
514 2 -1.50442e-10 -1.47563e-08 8.64262e-09
515 2 -1.50447e-10 -1.47563e-08 8.64261e-09
516 2 -1.50415e-10 -1.47563e-08 8.64262e-09
517 2 -1.50407e-10 -1.47563e-08 8.64261e-09
518 2 -1.504e-10 -1.47563e-08 8.64262e-09
519 2 -1.50385e-10 -1.47563e-08 8.64262e-09
520 2 -1.50531e-10 -1.47562e-08 8.64259e-09
521 2 -1.50445e-10 -1.47563e-08 8.64262e-09
522 2 -1.50507e-10 -1.47563e-08 8.64261e-09
523 2 -1.50481e-10 -1.47563e-08 8.64264e-09
524 2 -1.50433e-10 -1.47563e-08 8.64264e-09
525 2 -1.50457e-10 -1.47562e-08 8.64257e-09
526 2 -1.50523e-10 -1.47563e-08 8.6426e-09
527 2 -1.50449e-10 -1.47563e-08 8.64266e-09
528 2 -1.505e-10 -1.47562e-08 8.64262e-09
529 2 -1.50517e-10 -1.47563e-08 8.6426e-09
530 2 -1.5063e-10 -1.47563e-08 8.64261e-09
531 2 -1.50476e-10 -1.47563e-08 8.64262e-09
532 2 -1.50468e-10 -1.47562e-08 8.64265e-09
533 2 -1.50494e-10 -1.47563e-08 8.64263e-09
534 2 -1.50429e-10 -1.47563e-08 8.64264e-09
535 2 -1.50455e-10 -1.47562e-08 8.64261e-09
536 2 -1.50415e-10 -1.47563e-08 8.64267e-09
537 2 -1.50449e-10 -1.47563e-08 8.64262e-09
538 2 -1.50478e-10 -1.47562e-08 8.64263e-09
539 2 -1.50528e-10 -1.47562e-08 8.6426e-09
540 2 -1.50572e-10 -1.47563e-08 8.64268e-09
541 2 -1.50452e-10 -1.47563e-08 8.64264e-09
542 2 -1.50522e-10 -1.47563e-08 8.64262e-09
543 2 -1.50483e-10 -1.47563e-08 8.64263e-09
544 2 -1.5049e-10 -1.47563e-08 8.64264e-09
545 2 -1.5048e-10 -1.47562e-08 8.64265e-09
546 2 -1.50294e-10 -1.47563e-08 8.64269e-09
547 2 -1.50419e-10 -1.47562e-08 8.64263e-09
548 2 -1.50455e-10 -1.47562e-08 8.64262e-09
549 2 -1.50485e-10 -1.47563e-08 8.64262e-09
550 2 -1.50573e-10 -1.47563e-08 8.64263e-09
551 2 -5.75377e-05 0.00468534 0.00121434
552 2 0.000270935 -0.000277606 -0.000190916
553 2 4.93198e-07 -2.0517e-07 -1.95444e-07
554 2 -1.50473e-10 -1.47563e-08 8.64261e-09
555 2 -1.50441e-10 -1.47563e-08 8.64265e-09
556 2 -1.50434e-10 -1.47562e-08 8.6426e-09
557 2 -1.50561e-10 -1.47563e-08 8.64261e-09
558 2 -1.50472e-10 -1.47563e-08 8.64261e-09
559 2 -1.00633e-06 -3.78384e-07 -4.06163e-07
560 2 -0.00030016 -0.00107682 -0.00056328
561 2 -1.32107e-10 1.51554e-08 -8.78188e-09
562 2 -1.32068e-10 1.51554e-08 -8.78184e-09
563 2 -1.32053e-10 1.51554e-08 -8.78186e-09
564 2 -1.32102e-10 1.51553e-08 -8.78182e-09
565 2 -1.32143e-10 1.51554e-08 -8.78186e-09
566 2 -1.32069e-10 1.51554e-08 -8.78186e-09
567 2 -1.32028e-10 1.51554e-08 -8.78184e-09
568 2 -1.32128e-10 1.51554e-08 -8.78182e-09
569 2 -1.32082e-10 1.51554e-08 -8.78184e-09
570 2 -1.32061e-10 1.51553e-08 -8.78185e-09
571 2 -1.32097e-10 1.51554e-08 -8.78189e-09
572 2 -1.32047e-10 1.51554e-08 -8.78184e-09
573 2 -1.32069e-10 1.51554e-08 -8.78185e-09
574 2 -1.32071e-10 1.51554e-08 -8.78184e-09
575 2 -1.32091e-10 1.51554e-08 -8.78184e-09
576 2 -1.3209e-10 1.51554e-08 -8.78182e-09
577 2 -1.32098e-10 1.51554e-08 -8.78183e-09
578 2 -1.32134e-10 1.51554e-08 -8.78183e-09
579 2 -1.32066e-10 1.51553e-08 -8.78186e-09
580 2 -1.32091e-10 1.51553e-08 -8.78181e-09
581 2 -1.32083e-10 1.51554e-08 -8.78186e-09
582 2 -1.32056e-10 1.51553e-08 -8.78182e-09
583 2 -1.32078e-10 1.51554e-08 -8.78183e-09
584 2 -1.32058e-10 1.51554e-08 -8.78184e-09
585 2 -1.32078e-10 1.51554e-08 -8.78184e-09
586 2 -1.3206e-10 1.51554e-08 -8.78186e-09
587 2 -1.32033e-10 1.51554e-08 -8.78184e-09
588 2 -1.32053e-10 1.51553e-08 -8.78183e-09
589 2 -1.32072e-10 1.51554e-08 -8.78183e-09
590 2 -1.32047e-10 1.51554e-08 -8.78183e-09
591 2 -1.32288e-10 1.51554e-08 -8.78189e-09
592 2 -1.32134e-10 1.51554e-08 -8.78182e-09
593 2 -1.32146e-10 1.51554e-08 -8.78183e-09
594 2 -1.32125e-10 1.51554e-08 -8.78182e-09
595 2 -1.32149e-10 1.51553e-08 -8.78183e-09
596 2 -1.32e-10 1.51554e-08 -8.78182e-09
597 2 -1.32038e-10 1.51554e-08 -8.78182e-09
598 2 -1.32165e-10 1.51554e-08 -8.78182e-09
599 2 -1.32093e-10 1.51554e-08 -8.7818e-09
600 2 -1.32098e-10 1.51554e-08 -8.78184e-09
601 2 -1.32226e-10 1.51554e-08 -8.7819e-09
602 2 -1.32094e-10 1.51553e-08 -8.78183e-09
603 2 -1.3211e-10 1.51553e-08 -8.78185e-09
604 2 -1.32093e-10 1.51553e-08 -8.78182e-09
605 2 -1.32209e-10 1.51553e-08 -8.78182e-09
606 2 -1.32103e-10 1.51554e-08 -8.78187e-09
607 2 -1.32086e-10 1.51553e-08 -8.78183e-09
608 2 -1.32098e-10 1.51554e-08 -8.78183e-09
609 2 -1.31991e-10 1.51553e-08 -8.78184e-09
610 2 -1.32003e-10 1.51553e-08 -8.78181e-09
611 2 -1.32032e-10 1.51554e-08 -8.78186e-09
612 2 -1.32053e-10 1.51554e-08 -8.78181e-09
613 2 -1.32001e-10 1.51554e-08 -8.78184e-09
614 2 -1.3194e-10 1.51554e-08 -8.78182e-09
615 2 -1.31937e-10 1.51554e-08 -8.78182e-09
616 2 -1.32032e-10 1.51554e-08 -8.78183e-09
617 2 -1.31986e-10 1.51553e-08 -8.78184e-09
618 2 -1.31915e-10 1.51553e-08 -8.78182e-09
619 2 -1.31889e-10 1.51554e-08 -8.78185e-09
620 2 -1.31905e-10 1.51554e-08 -8.78181e-09
621 2 -1.32037e-10 1.51553e-08 -8.78183e-09
622 2 -1.3201e-10 1.51554e-08 -8.78183e-09
623 2 -1.31983e-10 1.51554e-08 -8.78182e-09
624 2 -1.32002e-10 1.51553e-08 -8.78186e-09
625 2 -1.31984e-10 1.51554e-08 -8.78182e-09
626 2 -1.3193e-10 1.51554e-08 -8.78187e-09
627 2 -1.32101e-10 1.51553e-08 -8.78181e-09
628 2 -1.32109e-10 1.51554e-08 -8.78183e-09
629 2 -1.32018e-10 1.51554e-08 -8.78183e-09
630 2 -1.32118e-10 1.51554e-08 -8.78183e-09
631 2 -1.32111e-10 1.51553e-08 -8.78189e-09
632 2 -1.32134e-10 1.51553e-08 -8.78182e-09
633 2 -1.32205e-10 1.51553e-08 -8.78185e-09
634 2 -1.3222e-10 1.51553e-08 -8.78184e-09
635 2 -1.32234e-10 1.51553e-08 -8.78186e-09
636 2 -1.32178e-10 1.51553e-08 -8.78185e-09
637 2 -1.3212e-10 1.51553e-08 -8.78187e-09
638 2 -1.32183e-10 1.51553e-08 -8.78186e-09
639 2 -1.32119e-10 1.51553e-08 -8.78184e-09
640 2 -1.32283e-10 1.51553e-08 -8.78184e-09
641 2 3.52468e-10 -2.44093e-08 -9.74359e-08
642 2 3.52464e-10 -2.44093e-08 -9.74359e-08
643 2 3.52459e-10 -2.44093e-08 -9.74359e-08
644 2 3.52472e-10 -2.44092e-08 -9.74359e-08
645 2 3.52447e-10 -2.44093e-08 -9.74359e-08
646 2 3.52461e-10 -2.44093e-08 -9.74359e-08
647 2 3.52463e-10 -2.44093e-08 -9.74359e-08
648 2 3.52432e-10 -2.44093e-08 -9.74359e-08
649 2 3.52473e-10 -2.44093e-08 -9.74359e-08
650 2 3.52485e-10 -2.44093e-08 -9.74359e-08
651 2 3.52481e-10 -2.44092e-08 -9.74359e-08
652 2 3.52488e-10 -2.44092e-08 -9.74359e-08
653 2 3.52474e-10 -2.44092e-08 -9.74359e-08
654 2 3.52484e-10 -2.44092e-08 -9.74359e-08
655 2 3.52466e-10 -2.44092e-08 -9.74359e-08
656 2 3.52453e-10 -2.44092e-08 -9.74359e-08
657 2 3.52452e-10 -2.44092e-08 -9.74359e-08
658 2 3.52442e-10 -2.44092e-08 -9.74359e-08
659 2 3.5246e-10 -2.44092e-08 -9.74359e-08
660 2 3.52496e-10 -2.44092e-08 -9.74359e-08
661 2 3.52484e-10 -2.44092e-08 -9.74359e-08
662 2 3.5249e-10 -2.44092e-08 -9.74359e-08
663 2 3.52484e-10 -2.44092e-08 -9.74359e-08
664 2 3.52492e-10 -2.44092e-08 -9.74359e-08
665 2 3.52468e-10 -2.44092e-08 -9.74359e-08
666 2 3.52467e-10 -2.44092e-08 -9.74359e-08
667 2 3.52462e-10 -2.44092e-08 -9.74359e-08
668 2 3.52454e-10 -2.44092e-08 -9.74359e-08
669 2 3.52483e-10 -2.44092e-08 -9.74359e-08
670 2 3.52502e-10 -2.44092e-08 -9.74359e-08
671 2 3.52484e-10 -2.44092e-08 -9.74359e-08
672 2 3.52476e-10 -2.44092e-08 -9.74359e-08
673 2 3.52479e-10 -2.44092e-08 -9.74359e-08
674 2 3.52479e-10 -2.44092e-08 -9.74359e-08
675 2 3.52467e-10 -2.44092e-08 -9.74359e-08
676 2 3.52468e-10 -2.44092e-08 -9.74359e-08
677 2 3.52468e-10 -2.44092e-08 -9.74359e-08
678 2 3.52474e-10 -2.44092e-08 -9.74359e-08
679 2 3.52485e-10 -2.44092e-08 -9.74359e-08
680 2 3.52491e-10 -2.44092e-08 -9.74359e-08
681 2 3.52467e-10 -2.44091e-08 -9.74359e-08
682 2 3.5247e-10 -2.44092e-08 -9.74359e-08
683 2 3.52479e-10 -2.44092e-08 -9.74359e-08
684 2 3.52479e-10 -2.44092e-08 -9.74359e-08
685 2 3.52467e-10 -2.44092e-08 -9.74359e-08
686 2 3.52469e-10 -2.44092e-08 -9.74359e-08
687 2 3.52466e-10 -2.44092e-08 -9.74359e-08
688 2 3.52455e-10 -2.44092e-08 -9.74359e-08
689 2 3.52468e-10 -2.44092e-08 -9.74359e-08
690 2 3.52495e-10 -2.44092e-08 -9.74359e-08
691 2 3.52504e-10 -2.44092e-08 -9.74359e-08
692 2 3.52488e-10 -2.44092e-08 -9.74359e-08
693 2 3.52478e-10 -2.44092e-08 -9.74359e-08
694 2 3.52483e-10 -2.44092e-08 -9.74359e-08
695 2 3.52498e-10 -2.44092e-08 -9.74359e-08
696 2 3.52478e-10 -2.44092e-08 -9.74359e-08
697 2 3.52503e-10 -2.44092e-08 -9.74359e-08
698 2 3.52473e-10 -2.44092e-08 -9.74359e-08
699 2 3.52469e-10 -2.44092e-08 -9.74359e-08
700 2 3.52527e-10 -2.44092e-08 -9.74359e-08
701 2 3.52449e-10 -2.44092e-08 -9.74359e-08
702 2 3.5244e-10 -2.44092e-08 -9.74359e-08
703 2 3.52427e-10 -2.44091e-08 -9.74359e-08
704 2 3.52426e-10 -2.44091e-08 -9.74359e-08
705 2 3.52445e-10 -2.44092e-08 -9.74359e-08
706 2 3.52448e-10 -2.44091e-08 -9.74359e-08
707 2 3.52445e-10 -2.44092e-08 -9.74359e-08
708 2 3.52453e-10 -2.44092e-08 -9.74359e-08
709 2 3.52412e-10 -2.44092e-08 -9.74359e-08
710 2 3.52474e-10 -2.44091e-08 -9.74359e-08
711 2 3.52482e-10 -2.44092e-08 -9.74359e-08
712 2 3.52468e-10 -2.44092e-08 -9.74359e-08
713 2 3.52466e-10 -2.44092e-08 -9.74359e-08
714 2 3.52488e-10 -2.44093e-08 -9.74359e-08
715 2 3.52491e-10 -2.44092e-08 -9.74359e-08
716 2 3.52456e-10 -2.44093e-08 -9.74359e-08
717 2 3.52468e-10 -2.44093e-08 -9.74359e-08
718 2 3.5247e-10 -2.44093e-08 -9.74359e-08
719 2 3.52502e-10 -2.44093e-08 -9.74359e-08
720 2 3.52497e-10 -2.44093e-08 -9.74359e-08
721 2 -3.53912e-11 -1.43692e-08 6.36095e-08
722 2 -3.53501e-11 -1.43692e-08 6.36095e-08
723 2 -3.5361e-11 -1.43692e-08 6.36095e-08
724 2 -3.53635e-11 -1.43692e-08 6.36095e-08
725 2 -3.53045e-11 -1.43692e-08 6.36094e-08
726 2 -3.53347e-11 -1.43692e-08 6.36095e-08
727 2 -3.53073e-11 -1.43692e-08 6.36095e-08
728 2 -3.5302e-11 -1.43692e-08 6.36095e-08
729 2 -3.5355e-11 -1.43692e-08 6.36094e-08
730 2 -3.53424e-11 -1.43692e-08 6.36095e-08
731 2 -3.53364e-11 -1.43692e-08 6.36094e-08
732 2 -3.53572e-11 -1.43692e-08 6.36095e-08
733 2 -3.53886e-11 -1.43692e-08 6.36095e-08
734 2 -3.54009e-11 -1.43692e-08 6.36095e-08
735 2 -3.53773e-11 -1.43692e-08 6.36095e-08
736 2 -3.52242e-11 -1.43692e-08 6.36095e-08
737 2 -3.52306e-11 -1.43692e-08 6.36095e-08
738 2 -3.5223e-11 -1.43692e-08 6.36095e-08
739 2 -3.54307e-11 -1.43692e-08 6.36094e-08
740 2 -3.53984e-11 -1.43692e-08 6.36095e-08
741 2 -3.53311e-11 -1.43692e-08 6.36094e-08
742 2 -3.53012e-11 -1.43692e-08 6.36094e-08
743 2 -3.53352e-11 -1.43692e-08 6.36094e-08
744 2 -3.54005e-11 -1.43692e-08 6.36095e-08
745 2 -3.54334e-11 -1.43692e-08 6.36094e-08
746 2 -3.54337e-11 -1.43692e-08 6.36094e-08
747 2 -3.54336e-11 -1.43692e-08 6.36095e-08
748 2 -3.53576e-11 -1.43692e-08 6.36095e-08
749 2 -3.53911e-11 -1.43692e-08 6.36094e-08
750 2 -3.53286e-11 -1.43692e-08 6.36095e-08
751 2 -3.54146e-11 -1.43692e-08 6.36094e-08
752 2 -3.53378e-11 -1.43692e-08 6.36094e-08
753 2 -3.54602e-11 -1.43692e-08 6.36095e-08
754 2 -3.53583e-11 -1.43692e-08 6.36095e-08
755 2 -3.53676e-11 -1.43692e-08 6.36094e-08
756 2 -3.53586e-11 -1.43692e-08 6.36095e-08
757 2 -3.53158e-11 -1.43692e-08 6.36095e-08
758 2 -3.52987e-11 -1.43692e-08 6.36094e-08
759 2 -3.53269e-11 -1.43692e-08 6.36094e-08
760 2 -3.53877e-11 -1.43692e-08 6.36095e-08
761 2 -3.53579e-11 -1.43692e-08 6.36095e-08
762 2 -3.53505e-11 -1.43692e-08 6.36094e-08
763 2 -3.54731e-11 -1.43692e-08 6.36095e-08
764 2 -3.53971e-11 -1.43692e-08 6.36095e-08
765 2 -3.53277e-11 -1.43692e-08 6.36095e-08
766 2 -3.53385e-11 -1.43692e-08 6.36095e-08
767 2 -3.52559e-11 -1.43692e-08 6.36095e-08
768 2 -3.54055e-11 -1.43692e-08 6.36094e-08
769 2 -3.53915e-11 -1.43692e-08 6.36095e-08
770 2 -3.51821e-11 -1.43692e-08 6.36095e-08
771 2 -3.54754e-11 -1.43692e-08 6.36095e-08
772 2 -3.544e-11 -1.43692e-08 6.36094e-08
773 2 -3.54885e-11 -1.43692e-08 6.36095e-08
774 2 -3.53808e-11 -1.43692e-08 6.36095e-08
775 2 -3.54196e-11 -1.43691e-08 6.36094e-08
776 2 -3.53407e-11 -1.43692e-08 6.36095e-08
777 2 -3.54639e-11 -1.43692e-08 6.36095e-08
778 2 -3.54016e-11 -1.43692e-08 6.36095e-08
779 2 -3.53604e-11 -1.43692e-08 6.36094e-08
780 2 -3.53224e-11 -1.43691e-08 6.36094e-08
781 2 -3.53872e-11 -1.43691e-08 6.36095e-08
782 2 -3.52927e-11 -1.43691e-08 6.36094e-08
783 2 -3.53438e-11 -1.43691e-08 6.36094e-08
784 2 -3.56239e-11 -1.43691e-08 6.36094e-08
785 2 -3.54148e-11 -1.43692e-08 6.36095e-08
786 2 -3.52898e-11 -1.43692e-08 6.36095e-08
787 2 -3.51025e-11 -1.43691e-08 6.36094e-08
788 2 -3.50924e-11 -1.43692e-08 6.36094e-08
789 2 -3.51148e-11 -1.43691e-08 6.36095e-08
790 2 -3.52585e-11 -1.43691e-08 6.36094e-08
791 2 -3.5433e-11 -1.43692e-08 6.36095e-08
792 2 -3.5324e-11 -1.43692e-08 6.36095e-08
793 2 -3.5341e-11 -1.43692e-08 6.36095e-08
794 2 -3.54377e-11 -1.43692e-08 6.36095e-08
795 2 -3.54063e-11 -1.43692e-08 6.36094e-08
796 2 -3.53126e-11 -1.43692e-08 6.36095e-08
797 2 -3.52665e-11 -1.43691e-08 6.36095e-08
798 2 -3.53756e-11 -1.43692e-08 6.36095e-08
799 2 -3.52753e-11 -1.43691e-08 6.36095e-08
800 2 -3.52891e-11 -1.43692e-08 6.36095e-08
