
     Program PWSCF v.7.0 starts on 19Jul2026 at  2: 0: 3 

     This program is part of the open-source Quantum ESPRESSO suite
     for quantum simulation of materials; please cite
         "P. Giannozzi et al., J. Phys.:Condens. Matter 21 395502 (2009);
         "P. Giannozzi et al., J. Phys.:Condens. Matter 29 465901 (2017);
         "P. Giannozzi et al., J. Chem. Phys. 152 154105 (2020);
          URL http://www.quantum-espresso.org", 
     in publications or presentations arising from this work. More details at
     http://www.quantum-espresso.org/quote

     Parallel version (MPI), running on    38 processors

     MPI processes distributed on     1 nodes
     R & G space division:  proc/nbgrp/npool/nimage =      38
     371920 MiB available memory on the printing compute node when the environment starts

     Reading input from alpha_Al2O3.scf.in

     Current dimensions of program PWSCF are:
     Max number of different atomic species (ntypx) = 10
     Max number of k-points (npk) =  40000
     Max angular momentum in pseudopotentials (lmaxx) =  4
     file O.pbe-n-kjpaw_psl.1.0.0.UPF: wavefunction(s)  2S 2P renormalized
     file Al.pbe-n-kjpaw_psl.1.0.0.UPF: wavefunction(s)  3S 3P renormalized

     IMPORTANT: XC functional enforced from input :
     Exchange-correlation= PBE
                           (   1   4   3   4   0   0   0)
     Any further DFT definition will be discarded
     Please, verify this is what you really want


     Subspace diagonalization in iterative solution of the eigenvalue problem:
     one sub-group per band group will be used
     scalapack distributed-memory algorithm (size of sub-group:  6*  6 procs)


     Parallelization info
     --------------------
     sticks:   dense  smooth     PW     G-vecs:    dense   smooth      PW
     Min         106      52     15                 4281     1510     239
     Max         107      53     16                 4284     1513     241
     Sum        4037    2009    593               162715    57437    9121

     Using Slab Decomposition



     bravais-lattice index     =            5
     lattice parameter (alat)  =       9.8018  a.u.
     unit-cell volume          =     595.0557 (a.u.)^3
     number of atoms/cell      =           10
     number of atomic types    =            2
     number of electrons       =        48.00
     number of Kohn-Sham states=           24
     kinetic-energy cutoff     =      80.0000  Ry
     charge density cutoff     =     640.0000  Ry
     scf convergence threshold =      1.0E-10
     mixing beta               =       0.2000
     number of iterations used =            8  plain     mixing
     Exchange-correlation= PBE
                           (   1   4   3   4   0   0   0)

     celldm(1)=   9.801767  celldm(2)=   0.000000  celldm(3)=   0.000000
     celldm(4)=   0.567551  celldm(5)=   0.000000  celldm(6)=   0.000000

     crystal axes: (cart. coord. in units of alat)
               a(1) = (   0.465000  -0.268468   0.843623 )  
               a(2) = (   0.000000   0.536935   0.843623 )  
               a(3) = (  -0.465000  -0.268468   0.843623 )  

     reciprocal axes: (cart. coord. in units 2 pi/alat)
               b(1) = (  1.075270 -0.620807  0.395121 )  
               b(2) = (  0.000000  1.241614  0.395121 )  
               b(3) = ( -1.075270 -0.620807  0.395121 )  


     PseudoPot. # 1 for O  read from file:
     /scratch/dajuarez4/Al2O3/pseudo/O.pbe-n-kjpaw_psl.1.0.0.UPF
     MD5 check sum: e99d9cef9b487d1ca56f5b95ecd0fd7a
     Pseudo is Projector augmented-wave + core cor, Zval =  6.0
     Generated using &quot;atomic&quot; code by A. Dal Corso  v.6.3
     Shape of augmentation charge: PSQ
     Using radial grid of 1095 points,  4 beta functions with: 
                l(1) =   0
                l(2) =   0
                l(3) =   1
                l(4) =   1
     Q(r) pseudized with 0 coefficients 


     PseudoPot. # 2 for Al read from file:
     /scratch/dajuarez4/Al2O3/pseudo/Al.pbe-n-kjpaw_psl.1.0.0.UPF
     MD5 check sum: 502b6b27b9c6270cab5dd1084b96fa6d
     Pseudo is Projector augmented-wave + core cor, Zval =  3.0
     Generated using &quot;atomic&quot; code by A. Dal Corso  v.6.3
     Shape of augmentation charge: PSQ
     Using radial grid of 1135 points,  6 beta functions with: 
                l(1) =   0
                l(2) =   0
                l(3) =   1
                l(4) =   1
                l(5) =   2
                l(6) =   2
     Q(r) pseudized with 0 coefficients 


     atomic species   valence    mass     pseudopotential
        O              6.00    15.99900     O ( 1.00)
        Al             3.00    26.98200     Al( 1.00)

     12 Sym. Ops., with inversion, found ( 6 have fractional translation)


                                    s                        frac. trans.

      isym =  1     identity                                     

 cryst.   s( 1) = (     1          0          0      )
                  (     0          1          0      )
                  (     0          0          1      )

 cart.    s( 1) = (  1.0000000  0.0000000  0.0000000 )
                  (  0.0000000  1.0000000 -0.0000000 )
                  (  0.0000000  0.0000000  1.0000000 )


      isym =  2     180 deg rotation - cart. axis [1,0,0]        

 cryst.   s( 2) = (     0          0         -1      )    f =( -0.5000000 )
                  (     0         -1          0      )       ( -0.5000000 )
                  (    -1          0          0      )       ( -0.5000000 )

 cart.    s( 2) = (  1.0000000  0.0000000  0.0000000 )    f =(  0.0000000 )
                  (  0.0000000 -1.0000000  0.0000000 )       (  0.0000000 )
                  (  0.0000000  0.0000000 -1.0000000 )       ( -1.2654351 )


      isym =  3     120 deg rotation - cryst. axis [0,0,1]       

 cryst.   s( 3) = (     0          1          0      )
                  (     0          0          1      )
                  (     1          0          0      )

 cart.    s( 3) = ( -0.5000000 -0.8660254 -0.0000000 )
                  (  0.8660254 -0.5000000 -0.0000000 )
                  (  0.0000000  0.0000000  1.0000000 )


      isym =  4     120 deg rotation - cryst. axis [0,0,-1]      

 cryst.   s( 4) = (     0          0          1      )
                  (     1          0          0      )
                  (     0          1          0      )

 cart.    s( 4) = ( -0.5000000  0.8660254  0.0000000 )
                  ( -0.8660254 -0.5000000 -0.0000000 )
                  (  0.0000000  0.0000000  1.0000000 )


      isym =  5     180 deg rotation - cryst. axis [0,1,0]       

 cryst.   s( 5) = (     0         -1          0      )    f =( -0.5000000 )
                  (    -1          0          0      )       ( -0.5000000 )
                  (     0          0         -1      )       ( -0.5000000 )

 cart.    s( 5) = ( -0.5000000 -0.8660254 -0.0000000 )    f =(  0.0000000 )
                  ( -0.8660254  0.5000000  0.0000000 )       (  0.0000000 )
                  (  0.0000000  0.0000000 -1.0000000 )       ( -1.2654351 )


      isym =  6     180 deg rotation - cryst. axis [1,1,0]       

 cryst.   s( 6) = (    -1          0          0      )    f =( -0.5000000 )
                  (     0          0         -1      )       ( -0.5000000 )
                  (     0         -1          0      )       ( -0.5000000 )

 cart.    s( 6) = ( -0.5000000  0.8660254  0.0000000 )    f =(  0.0000000 )
                  (  0.8660254  0.5000000  0.0000000 )       (  0.0000000 )
                  (  0.0000000  0.0000000 -1.0000000 )       ( -1.2654351 )


      isym =  7     inversion                                    

 cryst.   s( 7) = (    -1          0          0      )
                  (     0         -1          0      )
                  (     0          0         -1      )

 cart.    s( 7) = ( -1.0000000  0.0000000  0.0000000 )
                  (  0.0000000 -1.0000000  0.0000000 )
                  (  0.0000000  0.0000000 -1.0000000 )


      isym =  8     inv. 180 deg rotation - cart. axis [1,0,0]   

 cryst.   s( 8) = (     0          0          1      )    f =( -0.5000000 )
                  (     0          1          0      )       ( -0.5000000 )
                  (     1          0          0      )       ( -0.5000000 )

 cart.    s( 8) = ( -1.0000000  0.0000000  0.0000000 )    f =(  0.0000000 )
                  (  0.0000000  1.0000000 -0.0000000 )       (  0.0000000 )
                  (  0.0000000  0.0000000  1.0000000 )       ( -1.2654351 )


      isym =  9     inv. 120 deg rotation - cryst. axis [0,0,1]  

 cryst.   s( 9) = (     0         -1          0      )
                  (     0          0         -1      )
                  (    -1          0          0      )

 cart.    s( 9) = (  0.5000000  0.8660254  0.0000000 )
                  ( -0.8660254  0.5000000  0.0000000 )
                  (  0.0000000  0.0000000 -1.0000000 )


      isym = 10     inv. 120 deg rotation - cryst. axis [0,0,-1] 

 cryst.   s(10) = (     0          0         -1      )
                  (    -1          0          0      )
                  (     0         -1          0      )

 cart.    s(10) = (  0.5000000 -0.8660254 -0.0000000 )
                  (  0.8660254  0.5000000  0.0000000 )
                  (  0.0000000  0.0000000 -1.0000000 )


      isym = 11     inv. 180 deg rotation - cryst. axis [0,1,0]  

 cryst.   s(11) = (     0          1          0      )    f =( -0.5000000 )
                  (     1          0          0      )       ( -0.5000000 )
                  (     0          0          1      )       ( -0.5000000 )

 cart.    s(11) = (  0.5000000  0.8660254  0.0000000 )    f =( -0.0000000 )
                  (  0.8660254 -0.5000000 -0.0000000 )       (  0.0000000 )
                  (  0.0000000  0.0000000  1.0000000 )       ( -1.2654351 )


      isym = 12     inv. 180 deg rotation - cryst. axis [1,1,0]  

 cryst.   s(12) = (     1          0          0      )    f =( -0.5000000 )
                  (     0          0          1      )       ( -0.5000000 )
                  (     0          1          0      )       ( -0.5000000 )

 cart.    s(12) = (  0.5000000 -0.8660254 -0.0000000 )    f =(  0.0000000 )
                  ( -0.8660254 -0.5000000 -0.0000000 )       (  0.0000000 )
                  (  0.0000000  0.0000000  1.0000000 )       ( -1.2654351 )


     point group D_3d (-3m) 
     there are  6 classes
     the character table:

       E     2C3   3C2'  i     2S6   3s_d 
A_1g   1.00  1.00  1.00  1.00  1.00  1.00
A_2g   1.00  1.00 -1.00  1.00  1.00 -1.00
E_g    2.00 -1.00  0.00  2.00 -1.00  0.00
A_1u   1.00  1.00  1.00 -1.00 -1.00 -1.00
A_2u   1.00  1.00 -1.00 -1.00 -1.00  1.00
E_u    2.00 -1.00  0.00 -2.00  1.00  0.00

     the symmetry operations in each class and the name of the first element:

     E        1
          identity                                               
     2C3      3    4
          120 deg rotation - cryst. axis [0,0,1]                 
     3C2'     2    5    6
          180 deg rotation - cart. axis [1,0,0]                  
     i        7
          inversion                                              
     2S6      9   10
          inv. 120 deg rotation - cryst. axis [0,0,1]            
     3s_d     8   11   12
          inv. 180 deg rotation - cart. axis [1,0,0]             

   Cartesian axes

     site n.     atom                  positions (alat units)
         1           O   tau(   1) = (   0.3227841  -0.0221431   1.4763409  )
         2           O   tau(   2) = (   0.1805686   0.2684677   1.0545292  )
         3           O   tau(   3) = (  -0.1805686  -0.2684677   1.4763409  )
         4           O   tau(   4) = (  -0.1422156   0.2906108   1.4763409  )
         5           O   tau(   5) = (   0.1422156  -0.2906108   1.0545292  )
         6           O   tau(   6) = (  -0.3227841   0.0221431   1.0545292  )
         7           Al  tau(   7) = (   0.0000000  -0.0000000   0.3722274  )
         8           Al  tau(   8) = (   0.0000000  -0.0000000   0.8932077  )
         9           Al  tau(   9) = (   0.0000000  -0.0000000   1.6376624  )
        10           Al  tau(  10) = (   0.0000000  -0.0000000   2.1586428  )

   Crystallographic axes

     site n.     atom                  positions (cryst. coord.)
         1           O   tau(   1) = (  0.9441599  0.5558401  0.2500000  )
         2           O   tau(   2) = (  0.4441599  0.7500000  0.0558401  )
         3           O   tau(   3) = (  0.5558401  0.2500000  0.9441599  )
         4           O   tau(   4) = (  0.2500000  0.9441599  0.5558401  )
         5           O   tau(   5) = (  0.7500000  0.0558401  0.4441599  )
         6           O   tau(   6) = (  0.0558401  0.4441599  0.7500000  )
         7           Al  tau(   7) = (  0.1470749  0.1470749  0.1470749  )
         8           Al  tau(   8) = (  0.3529251  0.3529251  0.3529251  )
         9           Al  tau(   9) = (  0.6470749  0.6470749  0.6470749  )
        10           Al  tau(  10) = (  0.8529251  0.8529251  0.8529251  )

     number of k points=   189
                       cart. coord. in units 2pi/alat
        k(    1) = (   0.0000000   0.0000000   0.0000000), wk =   0.0011574
        k(    2) = (  -0.0896058  -0.0517339   0.0329268), wk =   0.0069444
        k(    3) = (  -0.1792116  -0.1034679   0.0658535), wk =   0.0069444
        k(    4) = (  -0.2688174  -0.1552018   0.0987803), wk =   0.0069444
        k(    5) = (  -0.3584232  -0.2069357   0.1317070), wk =   0.0069444
        k(    6) = (  -0.4480290  -0.2586697   0.1646338), wk =   0.0069444
        k(    7) = (   0.5376348   0.3104036  -0.1975605), wk =   0.0034722
        k(    8) = (  -0.0896058   0.0517339   0.0658535), wk =   0.0069444
        k(    9) = (  -0.1792116   0.0000000   0.0987803), wk =   0.0138889
        k(   10) = (  -0.2688174  -0.0517339   0.1317070), wk =   0.0138889
        k(   11) = (  -0.3584232  -0.1034679   0.1646338), wk =   0.0138889
        k(   12) = (  -0.4480290  -0.1552018   0.1975605), wk =   0.0138889
        k(   13) = (   0.5376348   0.4138715  -0.1646338), wk =   0.0138889
        k(   14) = (   0.4480290   0.3621375  -0.1317070), wk =   0.0138889
        k(   15) = (   0.3584232   0.3104036  -0.0987803), wk =   0.0138889
        k(   16) = (   0.2688174   0.2586697  -0.0658535), wk =   0.0138889
        k(   17) = (   0.1792116   0.2069357  -0.0329268), wk =   0.0138889
        k(   18) = (   0.0896058   0.1552018   0.0000000), wk =   0.0069444
        k(   19) = (  -0.1792116   0.1034679   0.1317070), wk =   0.0069444
        k(   20) = (  -0.2688174   0.0517339   0.1646338), wk =   0.0138889
        k(   21) = (  -0.3584232   0.0000000   0.1975605), wk =   0.0138889
        k(   22) = (  -0.4480290  -0.0517339   0.2304873), wk =   0.0138889
        k(   23) = (   0.5376348   0.5173393  -0.1317070), wk =   0.0138889
        k(   24) = (   0.4480290   0.4656054  -0.0987803), wk =   0.0138889
        k(   25) = (   0.3584232   0.4138715  -0.0658535), wk =   0.0138889
        k(   26) = (   0.2688174   0.3621375  -0.0329268), wk =   0.0138889
        k(   27) = (   0.1792116   0.3104036   0.0000000), wk =   0.0069444
        k(   28) = (  -0.2688174   0.1552018   0.1975605), wk =   0.0069444
        k(   29) = (  -0.3584232   0.1034679   0.2304873), wk =   0.0138889
        k(   30) = (  -0.4480290   0.0517339   0.2634140), wk =   0.0138889
        k(   31) = (   0.5376348   0.6208072  -0.0987803), wk =   0.0138889
        k(   32) = (   0.4480290   0.5690733  -0.0658535), wk =   0.0138889
        k(   33) = (   0.3584232   0.5173393  -0.0329268), wk =   0.0138889
        k(   34) = (   0.2688174   0.4656054   0.0000000), wk =   0.0069444
        k(   35) = (  -0.3584232   0.2069357   0.2634140), wk =   0.0069444
        k(   36) = (  -0.4480290   0.1552018   0.2963408), wk =   0.0138889
        k(   37) = (   0.5376348   0.7242751  -0.0658535), wk =   0.0138889
        k(   38) = (   0.4480290   0.6725411  -0.0329268), wk =   0.0138889
        k(   39) = (   0.3584232   0.6208072   0.0000000), wk =   0.0069444
        k(   40) = (  -0.4480290   0.2586697   0.3292675), wk =   0.0069444
        k(   41) = (   0.5376348   0.8277429  -0.0329268), wk =   0.0138889
        k(   42) = (   0.4480290   0.7760090   0.0000000), wk =   0.0069444
        k(   43) = (   0.5376348  -0.3104036  -0.3951210), wk =   0.0034722
        k(   44) = (   0.0000000   0.0000000   0.0987803), wk =   0.0023148
        k(   45) = (  -0.0896058  -0.0517339   0.1317070), wk =   0.0069444
        k(   46) = (  -0.1792116  -0.1034679   0.1646338), wk =   0.0069444
        k(   47) = (  -0.2688174  -0.1552018   0.1975605), wk =   0.0069444
        k(   48) = (  -0.3584232  -0.2069357   0.2304873), wk =   0.0069444
        k(   49) = (   0.6272406   0.3621375  -0.1317070), wk =   0.0069444
        k(   50) = (   0.5376348   0.3104036  -0.0987803), wk =   0.0069444
        k(   51) = (   0.4480290   0.2586697  -0.0658535), wk =   0.0069444
        k(   52) = (   0.3584232   0.2069357  -0.0329268), wk =   0.0069444
        k(   53) = (   0.2688174   0.1552018   0.0000000), wk =   0.0069444
        k(   54) = (   0.1792116   0.1034679   0.0329268), wk =   0.0069444
        k(   55) = (  -0.0896058   0.0517339   0.1646338), wk =   0.0069444
        k(   56) = (  -0.1792116   0.0000000   0.1975605), wk =   0.0138889
        k(   57) = (  -0.2688174  -0.0517339   0.2304873), wk =   0.0138889
        k(   58) = (  -0.3584232  -0.1034679   0.2634140), wk =   0.0138889
        k(   59) = (   0.6272406   0.4656054  -0.0987803), wk =   0.0138889
        k(   60) = (   0.5376348   0.4138715  -0.0658535), wk =   0.0138889
        k(   61) = (   0.4480290   0.3621375  -0.0329268), wk =   0.0138889
        k(   62) = (   0.3584232   0.3104036   0.0000000), wk =   0.0138889
        k(   63) = (   0.2688174   0.2586697   0.0329268), wk =   0.0138889
        k(   64) = (   0.1792116   0.2069357   0.0658535), wk =   0.0138889
        k(   65) = (  -0.1792116   0.1034679   0.2304873), wk =   0.0069444
        k(   66) = (  -0.2688174   0.0517339   0.2634140), wk =   0.0138889
        k(   67) = (  -0.3584232   0.0000000   0.2963408), wk =   0.0138889
        k(   68) = (   0.6272406   0.5690733  -0.0658535), wk =   0.0138889
        k(   69) = (   0.5376348   0.5173393  -0.0329268), wk =   0.0138889
        k(   70) = (   0.4480290   0.4656054   0.0000000), wk =   0.0138889
        k(   71) = (   0.3584232   0.4138715   0.0329268), wk =   0.0138889
        k(   72) = (   0.2688174   0.3621375   0.0658535), wk =   0.0138889
        k(   73) = (   0.1792116   0.3104036   0.0987803), wk =   0.0138889
        k(   74) = (  -0.2688174   0.1552018   0.2963408), wk =   0.0069444
        k(   75) = (  -0.3584232   0.1034679   0.3292675), wk =   0.0138889
        k(   76) = (   0.6272406   0.6725411  -0.0329268), wk =   0.0138889
        k(   77) = (   0.5376348   0.6208072   0.0000000), wk =   0.0138889
        k(   78) = (   0.4480290   0.5690733   0.0329268), wk =   0.0138889
        k(   79) = (   0.3584232   0.5173393   0.0658535), wk =   0.0138889
        k(   80) = (   0.2688174   0.4656054   0.0987803), wk =   0.0138889
        k(   81) = (   0.1792116   0.4138715   0.1317070), wk =   0.0138889
        k(   82) = (  -0.3584232   0.2069357   0.3621943), wk =   0.0069444
        k(   83) = (   0.6272406   0.7760090   0.0000000), wk =   0.0138889
        k(   84) = (   0.5376348   0.7242751   0.0329268), wk =   0.0138889
        k(   85) = (   0.4480290   0.6725411   0.0658535), wk =   0.0138889
        k(   86) = (   0.3584232   0.6208072   0.0987803), wk =   0.0138889
        k(   87) = (   0.2688174   0.5690733   0.1317070), wk =   0.0138889
        k(   88) = (   0.1792116   0.5173393   0.1646338), wk =   0.0138889
        k(   89) = (   0.6272406  -0.3621375  -0.3621943), wk =   0.0069444
        k(   90) = (   0.5376348  -0.4138715  -0.3292675), wk =   0.0138889
        k(   91) = (   0.4480290  -0.4656054  -0.2963408), wk =   0.0138889
        k(   92) = (   0.3584232  -0.5173393  -0.2634140), wk =   0.0138889
        k(   93) = (   0.2688174  -0.5690733  -0.2304873), wk =   0.0138889
        k(   94) = (   0.1792116  -0.6208072  -0.1975605), wk =   0.0069444
        k(   95) = (   0.5376348  -0.3104036  -0.2963408), wk =   0.0069444
        k(   96) = (   0.4480290  -0.3621375  -0.2634140), wk =   0.0138889
        k(   97) = (   0.3584232  -0.4138715  -0.2304873), wk =   0.0138889
        k(   98) = (   0.2688174  -0.4656054  -0.1975605), wk =   0.0138889
        k(   99) = (   0.4480290  -0.2586697  -0.2304873), wk =   0.0069444
        k(  100) = (   0.3584232  -0.3104036  -0.1975605), wk =   0.0138889
        k(  101) = (   0.2688174  -0.3621375  -0.1646338), wk =   0.0138889
        k(  102) = (   0.3584232  -0.2069357  -0.1646338), wk =   0.0069444
        k(  103) = (   0.2688174  -0.2586697  -0.1317070), wk =   0.0138889
        k(  104) = (   0.2688174  -0.1552018  -0.0987803), wk =   0.0069444
        k(  105) = (   0.0000000   0.0000000   0.1975605), wk =   0.0023148
        k(  106) = (  -0.0896058  -0.0517339   0.2304873), wk =   0.0069444
        k(  107) = (  -0.1792116  -0.1034679   0.2634140), wk =   0.0069444
        k(  108) = (  -0.2688174  -0.1552018   0.2963408), wk =   0.0069444
        k(  109) = (   0.7168464   0.4138715  -0.0658535), wk =   0.0069444
        k(  110) = (   0.6272406   0.3621375  -0.0329268), wk =   0.0069444
        k(  111) = (   0.5376348   0.3104036   0.0000000), wk =   0.0069444
        k(  112) = (   0.4480290   0.2586697   0.0329268), wk =   0.0069444
        k(  113) = (   0.3584232   0.2069357   0.0658535), wk =   0.0069444
        k(  114) = (  -0.0896058   0.0517339   0.2634140), wk =   0.0069444
        k(  115) = (  -0.1792116   0.0000000   0.2963408), wk =   0.0138889
        k(  116) = (  -0.2688174  -0.0517339   0.3292675), wk =   0.0138889
        k(  117) = (   0.7168464   0.5173393  -0.0329268), wk =   0.0138889
        k(  118) = (   0.6272406   0.4656054   0.0000000), wk =   0.0138889
        k(  119) = (   0.5376348   0.4138715   0.0329268), wk =   0.0138889
        k(  120) = (   0.4480290   0.3621375   0.0658535), wk =   0.0138889
        k(  121) = (   0.3584232   0.3104036   0.0987803), wk =   0.0138889
        k(  122) = (  -0.1792116   0.1034679   0.3292675), wk =   0.0069444
        k(  123) = (  -0.2688174   0.0517339   0.3621943), wk =   0.0138889
        k(  124) = (   0.7168464   0.6208072   0.0000000), wk =   0.0138889
        k(  125) = (   0.6272406   0.5690733   0.0329268), wk =   0.0138889
        k(  126) = (   0.5376348   0.5173393   0.0658535), wk =   0.0138889
        k(  127) = (   0.4480290   0.4656054   0.0987803), wk =   0.0138889
        k(  128) = (   0.3584232   0.4138715   0.1317070), wk =   0.0138889
        k(  129) = (  -0.2688174   0.1552018   0.3951210), wk =   0.0069444
        k(  130) = (   0.7168464   0.7242751   0.0329268), wk =   0.0138889
        k(  131) = (   0.6272406   0.6725411   0.0658535), wk =   0.0138889
        k(  132) = (   0.5376348   0.6208072   0.0987803), wk =   0.0138889
        k(  133) = (   0.4480290   0.5690733   0.1317070), wk =   0.0138889
        k(  134) = (   0.3584232   0.5173393   0.1646338), wk =   0.0138889
        k(  135) = (   0.7168464  -0.4138715  -0.3292675), wk =   0.0069444
        k(  136) = (   0.6272406  -0.4656054  -0.2963408), wk =   0.0138889
        k(  137) = (   0.5376348  -0.5173393  -0.2634140), wk =   0.0138889
        k(  138) = (   0.4480290  -0.5690733  -0.2304873), wk =   0.0138889
        k(  139) = (   0.3584232  -0.6208072  -0.1975605), wk =   0.0069444
        k(  140) = (   0.6272406  -0.3621375  -0.2634140), wk =   0.0069444
        k(  141) = (   0.5376348  -0.4138715  -0.2304873), wk =   0.0138889
        k(  142) = (   0.4480290  -0.4656054  -0.1975605), wk =   0.0138889
        k(  143) = (   0.5376348  -0.3104036  -0.1975605), wk =   0.0069444
        k(  144) = (   0.4480290  -0.3621375  -0.1646338), wk =   0.0138889
        k(  145) = (   0.4480290  -0.2586697  -0.1317070), wk =   0.0069444
        k(  146) = (   0.0000000   0.0000000   0.2963408), wk =   0.0023148
        k(  147) = (  -0.0896058  -0.0517339   0.3292675), wk =   0.0069444
        k(  148) = (  -0.1792116  -0.1034679   0.3621943), wk =   0.0069444
        k(  149) = (   0.8064522   0.4656054   0.0000000), wk =   0.0069444
        k(  150) = (   0.7168464   0.4138715   0.0329268), wk =   0.0069444
        k(  151) = (   0.6272406   0.3621375   0.0658535), wk =   0.0069444
        k(  152) = (   0.5376348   0.3104036   0.0987803), wk =   0.0069444
        k(  153) = (  -0.0896058   0.0517339   0.3621943), wk =   0.0069444
        k(  154) = (  -0.1792116   0.0000000   0.3951210), wk =   0.0138889
        k(  155) = (   0.8064522   0.5690733   0.0329268), wk =   0.0138889
        k(  156) = (   0.7168464   0.5173393   0.0658535), wk =   0.0138889
        k(  157) = (   0.6272406   0.4656054   0.0987803), wk =   0.0138889
        k(  158) = (   0.5376348   0.4138715   0.1317070), wk =   0.0138889
        k(  159) = (  -0.1792116   0.1034679   0.4280478), wk =   0.0069444
        k(  160) = (   0.8064522   0.6725411   0.0658535), wk =   0.0138889
        k(  161) = (   0.7168464   0.6208072   0.0987803), wk =   0.0138889
        k(  162) = (   0.6272406   0.5690733   0.1317070), wk =   0.0138889
        k(  163) = (   0.5376348   0.5173393   0.1646338), wk =   0.0138889
        k(  164) = (   0.8064522  -0.4656054  -0.2963408), wk =   0.0069444
        k(  165) = (   0.7168464  -0.5173393  -0.2634140), wk =   0.0138889
        k(  166) = (   0.6272406  -0.5690733  -0.2304873), wk =   0.0138889
        k(  167) = (   0.5376348  -0.6208072  -0.1975605), wk =   0.0069444
        k(  168) = (   0.7168464  -0.4138715  -0.2304873), wk =   0.0069444
        k(  169) = (   0.6272406  -0.4656054  -0.1975605), wk =   0.0138889
        k(  170) = (   0.6272406  -0.3621375  -0.1646338), wk =   0.0069444
        k(  171) = (   0.0000000   0.0000000   0.3951210), wk =   0.0023148
        k(  172) = (  -0.0896058  -0.0517339   0.4280478), wk =   0.0069444
        k(  173) = (   0.8960580   0.5173393   0.0658535), wk =   0.0069444
        k(  174) = (   0.8064522   0.4656054   0.0987803), wk =   0.0069444
        k(  175) = (   0.7168464   0.4138715   0.1317070), wk =   0.0069444
        k(  176) = (  -0.0896058   0.0517339   0.4609745), wk =   0.0069444
        k(  177) = (   0.8960580   0.6208072   0.0987803), wk =   0.0138889
        k(  178) = (   0.8064522   0.5690733   0.1317070), wk =   0.0138889
        k(  179) = (   0.7168464   0.5173393   0.1646338), wk =   0.0138889
        k(  180) = (   0.8960580  -0.5173393  -0.2634140), wk =   0.0069444
        k(  181) = (   0.8064522  -0.5690733  -0.2304873), wk =   0.0138889
        k(  182) = (   0.7168464  -0.6208072  -0.1975605), wk =   0.0069444
        k(  183) = (   0.8064522  -0.4656054  -0.1975605), wk =   0.0069444
        k(  184) = (   0.0000000   0.0000000   0.4939013), wk =   0.0023148
        k(  185) = (   0.9856638   0.5690733   0.1317070), wk =   0.0069444
        k(  186) = (   0.8960580   0.5173393   0.1646338), wk =   0.0069444
        k(  187) = (   0.9856638  -0.5690733  -0.2304873), wk =   0.0069444
        k(  188) = (   0.8960580  -0.6208072  -0.1975605), wk =   0.0069444
        k(  189) = (   0.0000000   0.0000000  -0.5926815), wk =   0.0011574

                       cryst. coord.
        k(    1) = (   0.0000000   0.0000000   0.0000000), wk =   0.0011574
        k(    2) = (   0.0000000   0.0000000   0.0833333), wk =   0.0069444
        k(    3) = (   0.0000000   0.0000000   0.1666667), wk =   0.0069444
        k(    4) = (   0.0000000   0.0000000   0.2500000), wk =   0.0069444
        k(    5) = (   0.0000000   0.0000000   0.3333333), wk =   0.0069444
        k(    6) = (   0.0000000   0.0000000   0.4166667), wk =   0.0069444
        k(    7) = (   0.0000000  -0.0000000  -0.5000000), wk =   0.0034722
        k(    8) = (   0.0000000   0.0833333   0.0833333), wk =   0.0069444
        k(    9) = (   0.0000000   0.0833333   0.1666667), wk =   0.0138889
        k(   10) = (  -0.0000000   0.0833333   0.2500000), wk =   0.0138889
        k(   11) = (   0.0000000   0.0833333   0.3333333), wk =   0.0138889
        k(   12) = (   0.0000000   0.0833333   0.4166667), wk =   0.0138889
        k(   13) = (  -0.0000000   0.0833333  -0.5000000), wk =   0.0138889
        k(   14) = (  -0.0000000   0.0833333  -0.4166667), wk =   0.0138889
        k(   15) = (  -0.0000000   0.0833333  -0.3333333), wk =   0.0138889
        k(   16) = (  -0.0000000   0.0833333  -0.2500000), wk =   0.0138889
        k(   17) = (  -0.0000000   0.0833333  -0.1666667), wk =   0.0138889
        k(   18) = (  -0.0000000   0.0833333  -0.0833333), wk =   0.0069444
        k(   19) = (   0.0000000   0.1666667   0.1666667), wk =   0.0069444
        k(   20) = (   0.0000000   0.1666667   0.2500000), wk =   0.0138889
        k(   21) = (   0.0000000   0.1666667   0.3333333), wk =   0.0138889
        k(   22) = (   0.0000000   0.1666667   0.4166667), wk =   0.0138889
        k(   23) = (  -0.0000000   0.1666667  -0.5000000), wk =   0.0138889
        k(   24) = (  -0.0000000   0.1666667  -0.4166667), wk =   0.0138889
        k(   25) = (  -0.0000000   0.1666667  -0.3333333), wk =   0.0138889
        k(   26) = (  -0.0000000   0.1666667  -0.2500000), wk =   0.0138889
        k(   27) = (  -0.0000000   0.1666667  -0.1666667), wk =   0.0069444
        k(   28) = (   0.0000000   0.2500000   0.2500000), wk =   0.0069444
        k(   29) = (   0.0000000   0.2500000   0.3333333), wk =   0.0138889
        k(   30) = (  -0.0000000   0.2500000   0.4166667), wk =   0.0138889
        k(   31) = (  -0.0000000   0.2500000  -0.5000000), wk =   0.0138889
        k(   32) = (   0.0000000   0.2500000  -0.4166667), wk =   0.0138889
        k(   33) = (   0.0000000   0.2500000  -0.3333333), wk =   0.0138889
        k(   34) = (  -0.0000000   0.2500000  -0.2500000), wk =   0.0069444
        k(   35) = (   0.0000000   0.3333333   0.3333333), wk =   0.0069444
        k(   36) = (   0.0000000   0.3333333   0.4166667), wk =   0.0138889
        k(   37) = (  -0.0000000   0.3333333  -0.5000000), wk =   0.0138889
        k(   38) = (  -0.0000000   0.3333333  -0.4166667), wk =   0.0138889
        k(   39) = (  -0.0000000   0.3333333  -0.3333333), wk =   0.0069444
        k(   40) = (   0.0000000   0.4166667   0.4166667), wk =   0.0069444
        k(   41) = (   0.0000000   0.4166667  -0.5000000), wk =   0.0138889
        k(   42) = (   0.0000000   0.4166667  -0.4166667), wk =   0.0069444
        k(   43) = (   0.0000000  -0.5000000  -0.5000000), wk =   0.0034722
        k(   44) = (   0.0833333   0.0833333   0.0833333), wk =   0.0023148
        k(   45) = (   0.0833333   0.0833333   0.1666667), wk =   0.0069444
        k(   46) = (   0.0833333   0.0833333   0.2500000), wk =   0.0069444
        k(   47) = (   0.0833333   0.0833333   0.3333333), wk =   0.0069444
        k(   48) = (   0.0833333   0.0833333   0.4166667), wk =   0.0069444
        k(   49) = (   0.0833333   0.0833333  -0.5000000), wk =   0.0069444
        k(   50) = (   0.0833333   0.0833333  -0.4166667), wk =   0.0069444
        k(   51) = (   0.0833333   0.0833333  -0.3333333), wk =   0.0069444
        k(   52) = (   0.0833333   0.0833333  -0.2500000), wk =   0.0069444
        k(   53) = (   0.0833333   0.0833333  -0.1666667), wk =   0.0069444
        k(   54) = (   0.0833333   0.0833333  -0.0833333), wk =   0.0069444
        k(   55) = (   0.0833333   0.1666667   0.1666667), wk =   0.0069444
        k(   56) = (   0.0833333   0.1666667   0.2500000), wk =   0.0138889
        k(   57) = (   0.0833333   0.1666667   0.3333333), wk =   0.0138889
        k(   58) = (   0.0833333   0.1666667   0.4166667), wk =   0.0138889
        k(   59) = (   0.0833333   0.1666667  -0.5000000), wk =   0.0138889
        k(   60) = (   0.0833333   0.1666667  -0.4166667), wk =   0.0138889
        k(   61) = (   0.0833333   0.1666667  -0.3333333), wk =   0.0138889
        k(   62) = (   0.0833333   0.1666667  -0.2500000), wk =   0.0138889
        k(   63) = (   0.0833333   0.1666667  -0.1666667), wk =   0.0138889
        k(   64) = (   0.0833333   0.1666667  -0.0833333), wk =   0.0138889
        k(   65) = (   0.0833333   0.2500000   0.2500000), wk =   0.0069444
        k(   66) = (   0.0833333   0.2500000   0.3333333), wk =   0.0138889
        k(   67) = (   0.0833333   0.2500000   0.4166667), wk =   0.0138889
        k(   68) = (   0.0833333   0.2500000  -0.5000000), wk =   0.0138889
        k(   69) = (   0.0833333   0.2500000  -0.4166667), wk =   0.0138889
        k(   70) = (   0.0833333   0.2500000  -0.3333333), wk =   0.0138889
        k(   71) = (   0.0833333   0.2500000  -0.2500000), wk =   0.0138889
        k(   72) = (   0.0833333   0.2500000  -0.1666667), wk =   0.0138889
        k(   73) = (   0.0833333   0.2500000  -0.0833333), wk =   0.0138889
        k(   74) = (   0.0833333   0.3333333   0.3333333), wk =   0.0069444
        k(   75) = (   0.0833333   0.3333333   0.4166667), wk =   0.0138889
        k(   76) = (   0.0833333   0.3333333  -0.5000000), wk =   0.0138889
        k(   77) = (   0.0833333   0.3333333  -0.4166667), wk =   0.0138889
        k(   78) = (   0.0833333   0.3333333  -0.3333333), wk =   0.0138889
        k(   79) = (   0.0833333   0.3333333  -0.2500000), wk =   0.0138889
        k(   80) = (   0.0833333   0.3333333  -0.1666667), wk =   0.0138889
        k(   81) = (   0.0833333   0.3333333  -0.0833333), wk =   0.0138889
        k(   82) = (   0.0833333   0.4166667   0.4166667), wk =   0.0069444
        k(   83) = (   0.0833333   0.4166667  -0.5000000), wk =   0.0138889
        k(   84) = (   0.0833333   0.4166667  -0.4166667), wk =   0.0138889
        k(   85) = (   0.0833333   0.4166667  -0.3333333), wk =   0.0138889
        k(   86) = (   0.0833333   0.4166667  -0.2500000), wk =   0.0138889
        k(   87) = (   0.0833333   0.4166667  -0.1666667), wk =   0.0138889
        k(   88) = (   0.0833333   0.4166667  -0.0833333), wk =   0.0138889
        k(   89) = (   0.0833333  -0.5000000  -0.5000000), wk =   0.0069444
        k(   90) = (   0.0833333  -0.5000000  -0.4166667), wk =   0.0138889
        k(   91) = (   0.0833333  -0.5000000  -0.3333333), wk =   0.0138889
        k(   92) = (   0.0833333  -0.5000000  -0.2500000), wk =   0.0138889
        k(   93) = (   0.0833333  -0.5000000  -0.1666667), wk =   0.0138889
        k(   94) = (   0.0833333  -0.5000000  -0.0833333), wk =   0.0069444
        k(   95) = (   0.0833333  -0.4166667  -0.4166667), wk =   0.0069444
        k(   96) = (   0.0833333  -0.4166667  -0.3333333), wk =   0.0138889
        k(   97) = (   0.0833333  -0.4166667  -0.2500000), wk =   0.0138889
        k(   98) = (   0.0833333  -0.4166667  -0.1666667), wk =   0.0138889
        k(   99) = (   0.0833333  -0.3333333  -0.3333333), wk =   0.0069444
        k(  100) = (   0.0833333  -0.3333333  -0.2500000), wk =   0.0138889
        k(  101) = (   0.0833333  -0.3333333  -0.1666667), wk =   0.0138889
        k(  102) = (   0.0833333  -0.2500000  -0.2500000), wk =   0.0069444
        k(  103) = (   0.0833333  -0.2500000  -0.1666667), wk =   0.0138889
        k(  104) = (   0.0833333  -0.1666667  -0.1666667), wk =   0.0069444
        k(  105) = (   0.1666667   0.1666667   0.1666667), wk =   0.0023148
        k(  106) = (   0.1666667   0.1666667   0.2500000), wk =   0.0069444
        k(  107) = (   0.1666667   0.1666667   0.3333333), wk =   0.0069444
        k(  108) = (   0.1666667   0.1666667   0.4166667), wk =   0.0069444
        k(  109) = (   0.1666667   0.1666667  -0.5000000), wk =   0.0069444
        k(  110) = (   0.1666667   0.1666667  -0.4166667), wk =   0.0069444
        k(  111) = (   0.1666667   0.1666667  -0.3333333), wk =   0.0069444
        k(  112) = (   0.1666667   0.1666667  -0.2500000), wk =   0.0069444
        k(  113) = (   0.1666667   0.1666667  -0.1666667), wk =   0.0069444
        k(  114) = (   0.1666667   0.2500000   0.2500000), wk =   0.0069444
        k(  115) = (   0.1666667   0.2500000   0.3333333), wk =   0.0138889
        k(  116) = (   0.1666667   0.2500000   0.4166667), wk =   0.0138889
        k(  117) = (   0.1666667   0.2500000  -0.5000000), wk =   0.0138889
        k(  118) = (   0.1666667   0.2500000  -0.4166667), wk =   0.0138889
        k(  119) = (   0.1666667   0.2500000  -0.3333333), wk =   0.0138889
        k(  120) = (   0.1666667   0.2500000  -0.2500000), wk =   0.0138889
        k(  121) = (   0.1666667   0.2500000  -0.1666667), wk =   0.0138889
        k(  122) = (   0.1666667   0.3333333   0.3333333), wk =   0.0069444
        k(  123) = (   0.1666667   0.3333333   0.4166667), wk =   0.0138889
        k(  124) = (   0.1666667   0.3333333  -0.5000000), wk =   0.0138889
        k(  125) = (   0.1666667   0.3333333  -0.4166667), wk =   0.0138889
        k(  126) = (   0.1666667   0.3333333  -0.3333333), wk =   0.0138889
        k(  127) = (   0.1666667   0.3333333  -0.2500000), wk =   0.0138889
        k(  128) = (   0.1666667   0.3333333  -0.1666667), wk =   0.0138889
        k(  129) = (   0.1666667   0.4166667   0.4166667), wk =   0.0069444
        k(  130) = (   0.1666667   0.4166667  -0.5000000), wk =   0.0138889
        k(  131) = (   0.1666667   0.4166667  -0.4166667), wk =   0.0138889
        k(  132) = (   0.1666667   0.4166667  -0.3333333), wk =   0.0138889
        k(  133) = (   0.1666667   0.4166667  -0.2500000), wk =   0.0138889
        k(  134) = (   0.1666667   0.4166667  -0.1666667), wk =   0.0138889
        k(  135) = (   0.1666667  -0.5000000  -0.5000000), wk =   0.0069444
        k(  136) = (   0.1666667  -0.5000000  -0.4166667), wk =   0.0138889
        k(  137) = (   0.1666667  -0.5000000  -0.3333333), wk =   0.0138889
        k(  138) = (   0.1666667  -0.5000000  -0.2500000), wk =   0.0138889
        k(  139) = (   0.1666667  -0.5000000  -0.1666667), wk =   0.0069444
        k(  140) = (   0.1666667  -0.4166667  -0.4166667), wk =   0.0069444
        k(  141) = (   0.1666667  -0.4166667  -0.3333333), wk =   0.0138889
        k(  142) = (   0.1666667  -0.4166667  -0.2500000), wk =   0.0138889
        k(  143) = (   0.1666667  -0.3333333  -0.3333333), wk =   0.0069444
        k(  144) = (   0.1666667  -0.3333333  -0.2500000), wk =   0.0138889
        k(  145) = (   0.1666667  -0.2500000  -0.2500000), wk =   0.0069444
        k(  146) = (   0.2500000   0.2500000   0.2500000), wk =   0.0023148
        k(  147) = (   0.2500000   0.2500000   0.3333333), wk =   0.0069444
        k(  148) = (   0.2500000   0.2500000   0.4166667), wk =   0.0069444
        k(  149) = (   0.2500000   0.2500000  -0.5000000), wk =   0.0069444
        k(  150) = (   0.2500000   0.2500000  -0.4166667), wk =   0.0069444
        k(  151) = (   0.2500000   0.2500000  -0.3333333), wk =   0.0069444
        k(  152) = (   0.2500000   0.2500000  -0.2500000), wk =   0.0069444
        k(  153) = (   0.2500000   0.3333333   0.3333333), wk =   0.0069444
        k(  154) = (   0.2500000   0.3333333   0.4166667), wk =   0.0138889
        k(  155) = (   0.2500000   0.3333333  -0.5000000), wk =   0.0138889
        k(  156) = (   0.2500000   0.3333333  -0.4166667), wk =   0.0138889
        k(  157) = (   0.2500000   0.3333333  -0.3333333), wk =   0.0138889
        k(  158) = (   0.2500000   0.3333333  -0.2500000), wk =   0.0138889
        k(  159) = (   0.2500000   0.4166667   0.4166667), wk =   0.0069444
        k(  160) = (   0.2500000   0.4166667  -0.5000000), wk =   0.0138889
        k(  161) = (   0.2500000   0.4166667  -0.4166667), wk =   0.0138889
        k(  162) = (   0.2500000   0.4166667  -0.3333333), wk =   0.0138889
        k(  163) = (   0.2500000   0.4166667  -0.2500000), wk =   0.0138889
        k(  164) = (   0.2500000  -0.5000000  -0.5000000), wk =   0.0069444
        k(  165) = (   0.2500000  -0.5000000  -0.4166667), wk =   0.0138889
        k(  166) = (   0.2500000  -0.5000000  -0.3333333), wk =   0.0138889
        k(  167) = (   0.2500000  -0.5000000  -0.2500000), wk =   0.0069444
        k(  168) = (   0.2500000  -0.4166667  -0.4166667), wk =   0.0069444
        k(  169) = (   0.2500000  -0.4166667  -0.3333333), wk =   0.0138889
        k(  170) = (   0.2500000  -0.3333333  -0.3333333), wk =   0.0069444
        k(  171) = (   0.3333333   0.3333333   0.3333333), wk =   0.0023148
        k(  172) = (   0.3333333   0.3333333   0.4166667), wk =   0.0069444
        k(  173) = (   0.3333333   0.3333333  -0.5000000), wk =   0.0069444
        k(  174) = (   0.3333333   0.3333333  -0.4166667), wk =   0.0069444
        k(  175) = (   0.3333333   0.3333333  -0.3333333), wk =   0.0069444
        k(  176) = (   0.3333333   0.4166667   0.4166667), wk =   0.0069444
        k(  177) = (   0.3333333   0.4166667  -0.5000000), wk =   0.0138889
        k(  178) = (   0.3333333   0.4166667  -0.4166667), wk =   0.0138889
        k(  179) = (   0.3333333   0.4166667  -0.3333333), wk =   0.0138889
        k(  180) = (   0.3333333  -0.5000000  -0.5000000), wk =   0.0069444
        k(  181) = (   0.3333333  -0.5000000  -0.4166667), wk =   0.0138889
        k(  182) = (   0.3333333  -0.5000000  -0.3333333), wk =   0.0069444
        k(  183) = (   0.3333333  -0.4166667  -0.4166667), wk =   0.0069444
        k(  184) = (   0.4166667   0.4166667   0.4166667), wk =   0.0023148
        k(  185) = (   0.4166667   0.4166667  -0.5000000), wk =   0.0069444
        k(  186) = (   0.4166667   0.4166667  -0.4166667), wk =   0.0069444
        k(  187) = (   0.4166667  -0.5000000  -0.5000000), wk =   0.0069444
        k(  188) = (   0.4166667  -0.5000000  -0.4166667), wk =   0.0069444
        k(  189) = (  -0.5000000  -0.5000000  -0.5000000), wk =   0.0011574

     Dense  grid:   162715 G-vectors     FFT dimensions: (  80,  80,  80)

     Smooth grid:    57437 G-vectors     FFT dimensions: (  60,  60,  60)

     Dynamical RAM for                 wfc:       0.07 MB

     Dynamical RAM for     wfc (w. buffer):      13.15 MB

     Dynamical RAM for           str. fact:       0.13 MB

     Dynamical RAM for           local pot:       0.00 MB

     Dynamical RAM for          nlocal pot:       0.35 MB

     Dynamical RAM for                qrad:       4.06 MB

     Dynamical RAM for          rho,v,vnew:       0.64 MB

     Dynamical RAM for               rhoin:       0.21 MB

     Dynamical RAM for            rho*nmix:       1.05 MB

     Dynamical RAM for           G-vectors:       0.26 MB

     Dynamical RAM for          h,s,v(r/c):       0.00 MB

     Dynamical RAM for          <psi|beta>:       0.04 MB

     Dynamical RAM for                 psi:       0.14 MB

     Dynamical RAM for                hpsi:       0.14 MB

     Dynamical RAM for                spsi:       0.14 MB

     Dynamical RAM for      wfcinit/wfcrot:       0.27 MB

     Dynamical RAM for           addusdens:      12.54 MB

     Dynamical RAM for          addusforce:      13.25 MB

     Dynamical RAM for         addusstress:      13.13 MB

     Estimated static dynamical RAM per process >      19.72 MB

     Estimated max dynamical RAM per process >      34.02 MB

     Estimated total dynamical RAM >       1.26 GB

     Initial potential from superposition of free atoms

     starting charge      47.9908, renormalised to      48.0000
     Starting wfcs are   40 randomized atomic wfcs
     Checking if some PAW data can be deallocated... 
       PAW data deallocated on   14 nodes for type:  1
       PAW data deallocated on   24 nodes for type:  2

     total cpu time spent up to now is        3.6 secs

     Self-consistent Calculation

     iteration #  1     ecut=    80.00 Ry     beta= 0.20
     Davidson diagonalization with overlap

---- Real-time Memory Report at c_bands before calling an iterative solver
           168 MiB given to the printing process from OS
             0 MiB allocation reported by mallinfo(arena+hblkhd)
        370396 MiB available memory on the node where the printing process lives
------------------
     ethr =  1.00E-02,  avg # of iterations =  1.0

     total cpu time spent up to now is        7.6 secs

     total energy              =    -408.94349264 Ry
     estimated scf accuracy    <       2.41055310 Ry

     iteration #  2     ecut=    80.00 Ry     beta= 0.20
     Davidson diagonalization with overlap

---- Real-time Memory Report at c_bands before calling an iterative solver
           181 MiB given to the printing process from OS
             0 MiB allocation reported by mallinfo(arena+hblkhd)
        369939 MiB available memory on the node where the printing process lives
------------------
     ethr =  5.02E-03,  avg # of iterations =  1.9

     total cpu time spent up to now is       12.7 secs

     total energy              =    -408.18375780 Ry
     estimated scf accuracy    <       1.28318049 Ry

     iteration #  3     ecut=    80.00 Ry     beta= 0.20
     Davidson diagonalization with overlap

---- Real-time Memory Report at c_bands before calling an iterative solver
           182 MiB given to the printing process from OS
             0 MiB allocation reported by mallinfo(arena+hblkhd)
        369936 MiB available memory on the node where the printing process lives
------------------
     ethr =  2.67E-03,  avg # of iterations =  9.0

     total cpu time spent up to now is       29.3 secs

     total energy              =    -409.62145780 Ry
     estimated scf accuracy    <       1.04637574 Ry

     iteration #  4     ecut=    80.00 Ry     beta= 0.20
     Davidson diagonalization with overlap

---- Real-time Memory Report at c_bands before calling an iterative solver
           182 MiB given to the printing process from OS
             0 MiB allocation reported by mallinfo(arena+hblkhd)
        369936 MiB available memory on the node where the printing process lives
------------------
     ethr =  2.18E-03,  avg # of iterations =  2.0

     total cpu time spent up to now is       34.8 secs

     total energy              =    -411.41386074 Ry
     estimated scf accuracy    <       0.95504049 Ry

     iteration #  5     ecut=    80.00 Ry     beta= 0.20
     Davidson diagonalization with overlap

---- Real-time Memory Report at c_bands before calling an iterative solver
           182 MiB given to the printing process from OS
             0 MiB allocation reported by mallinfo(arena+hblkhd)
        369934 MiB available memory on the node where the printing process lives
------------------
     ethr =  1.99E-03,  avg # of iterations =  8.6

     total cpu time spent up to now is       51.0 secs

     total energy              =    -415.38337008 Ry
     estimated scf accuracy    <       9.18716768 Ry

     iteration #  6     ecut=    80.00 Ry     beta= 0.20
     Davidson diagonalization with overlap

---- Real-time Memory Report at c_bands before calling an iterative solver
           183 MiB given to the printing process from OS
             0 MiB allocation reported by mallinfo(arena+hblkhd)
        369936 MiB available memory on the node where the printing process lives
------------------
     ethr =  1.99E-03,  avg # of iterations =  5.6

     total cpu time spent up to now is       60.9 secs

     total energy              =    -407.93871792 Ry
     estimated scf accuracy    <      18.65987372 Ry

     iteration #  7     ecut=    80.00 Ry     beta= 0.20
     Davidson diagonalization with overlap

---- Real-time Memory Report at c_bands before calling an iterative solver
           183 MiB given to the printing process from OS
             0 MiB allocation reported by mallinfo(arena+hblkhd)
        369934 MiB available memory on the node where the printing process lives
------------------
     ethr =  1.99E-03,  avg # of iterations =  8.8

     total cpu time spent up to now is       77.8 secs

     total energy              =    -409.13890854 Ry
     estimated scf accuracy    <       2.09688627 Ry

     iteration #  8     ecut=    80.00 Ry     beta= 0.20
     Davidson diagonalization with overlap

---- Real-time Memory Report at c_bands before calling an iterative solver
           183 MiB given to the printing process from OS
             0 MiB allocation reported by mallinfo(arena+hblkhd)
        369932 MiB available memory on the node where the printing process lives
------------------
     ethr =  1.99E-03,  avg # of iterations =  4.1

     total cpu time spent up to now is       85.2 secs

     total energy              =    -408.93019101 Ry
     estimated scf accuracy    <       0.74620864 Ry

     iteration #  9     ecut=    80.00 Ry     beta= 0.20
     Davidson diagonalization with overlap

---- Real-time Memory Report at c_bands before calling an iterative solver
           183 MiB given to the printing process from OS
             0 MiB allocation reported by mallinfo(arena+hblkhd)
        369928 MiB available memory on the node where the printing process lives
------------------
     ethr =  1.55E-03,  avg # of iterations =  5.5

     total cpu time spent up to now is       94.7 secs

     total energy              =    -409.21795722 Ry
     estimated scf accuracy    <       0.00926832 Ry

     iteration # 10     ecut=    80.00 Ry     beta= 0.20
     Davidson diagonalization with overlap

---- Real-time Memory Report at c_bands before calling an iterative solver
           183 MiB given to the printing process from OS
             0 MiB allocation reported by mallinfo(arena+hblkhd)
        369925 MiB available memory on the node where the printing process lives
------------------
     c_bands:  1 eigenvalues not converged
     c_bands:  1 eigenvalues not converged
     c_bands:  1 eigenvalues not converged
     c_bands:  3 eigenvalues not converged
     c_bands:  1 eigenvalues not converged
     ethr =  1.93E-05,  avg # of iterations = 18.8

     total cpu time spent up to now is      130.8 secs

     total energy              =    -409.42639096 Ry
     estimated scf accuracy    <       0.57113234 Ry

     iteration # 11     ecut=    80.00 Ry     beta= 0.20
     Davidson diagonalization with overlap

---- Real-time Memory Report at c_bands before calling an iterative solver
           183 MiB given to the printing process from OS
             0 MiB allocation reported by mallinfo(arena+hblkhd)
        369922 MiB available memory on the node where the printing process lives
------------------
     ethr =  1.93E-05,  avg # of iterations =  6.0

     total cpu time spent up to now is      142.9 secs

     total energy              =    -409.24602960 Ry
     estimated scf accuracy    <       0.35360719 Ry

     iteration # 12     ecut=    80.00 Ry     beta= 0.20
     Davidson diagonalization with overlap

---- Real-time Memory Report at c_bands before calling an iterative solver
           183 MiB given to the printing process from OS
             0 MiB allocation reported by mallinfo(arena+hblkhd)
        369922 MiB available memory on the node where the printing process lives
------------------
     c_bands:  1 eigenvalues not converged
     c_bands:  1 eigenvalues not converged
     c_bands:  1 eigenvalues not converged
     c_bands:  2 eigenvalues not converged
     c_bands:  1 eigenvalues not converged
     c_bands:  1 eigenvalues not converged
     c_bands:  1 eigenvalues not converged
     c_bands:  1 eigenvalues not converged
     c_bands:  1 eigenvalues not converged
     c_bands:  1 eigenvalues not converged
     c_bands:  1 eigenvalues not converged
     c_bands:  1 eigenvalues not converged
     c_bands:  1 eigenvalues not converged
     ethr =  1.93E-05,  avg # of iterations = 19.1

     total cpu time spent up to now is      178.9 secs

     total energy              =    -409.34236006 Ry
     estimated scf accuracy    <       0.00641291 Ry

     iteration # 13     ecut=    80.00 Ry     beta= 0.20
     Davidson diagonalization with overlap

---- Real-time Memory Report at c_bands before calling an iterative solver
           183 MiB given to the printing process from OS
             0 MiB allocation reported by mallinfo(arena+hblkhd)
        369922 MiB available memory on the node where the printing process lives
------------------
     ethr =  1.34E-05,  avg # of iterations =  6.1

     total cpu time spent up to now is      190.8 secs

     total energy              =    -409.35420102 Ry
     estimated scf accuracy    <       0.01144333 Ry

     iteration # 14     ecut=    80.00 Ry     beta= 0.20
     Davidson diagonalization with overlap

---- Real-time Memory Report at c_bands before calling an iterative solver
           183 MiB given to the printing process from OS
             0 MiB allocation reported by mallinfo(arena+hblkhd)
        369921 MiB available memory on the node where the printing process lives
------------------
     ethr =  1.34E-05,  avg # of iterations =  4.3

     total cpu time spent up to now is      198.3 secs

     total energy              =    -409.35080591 Ry
     estimated scf accuracy    <       0.02543920 Ry

     iteration # 15     ecut=    80.00 Ry     beta= 0.20
     Davidson diagonalization with overlap

---- Real-time Memory Report at c_bands before calling an iterative solver
           183 MiB given to the printing process from OS
             0 MiB allocation reported by mallinfo(arena+hblkhd)
        369922 MiB available memory on the node where the printing process lives
------------------
     ethr =  1.34E-05,  avg # of iterations =  1.0

     total cpu time spent up to now is      202.6 secs

     total energy              =    -409.35075648 Ry
     estimated scf accuracy    <       0.01834721 Ry

     iteration # 16     ecut=    80.00 Ry     beta= 0.20
     Davidson diagonalization with overlap

---- Real-time Memory Report at c_bands before calling an iterative solver
           183 MiB given to the printing process from OS
             0 MiB allocation reported by mallinfo(arena+hblkhd)
        369920 MiB available memory on the node where the printing process lives
------------------
     ethr =  1.34E-05,  avg # of iterations =  1.0

     total cpu time spent up to now is      206.9 secs

     total energy              =    -409.35089918 Ry
     estimated scf accuracy    <       0.01898128 Ry

     iteration # 17     ecut=    80.00 Ry     beta= 0.20
     Davidson diagonalization with overlap

---- Real-time Memory Report at c_bands before calling an iterative solver
           183 MiB given to the printing process from OS
             0 MiB allocation reported by mallinfo(arena+hblkhd)
        369920 MiB available memory on the node where the printing process lives
------------------
     ethr =  1.34E-05,  avg # of iterations =  1.0

     total cpu time spent up to now is      211.2 secs

     total energy              =    -409.35297643 Ry
     estimated scf accuracy    <       0.01882918 Ry

     iteration # 18     ecut=    80.00 Ry     beta= 0.20
     Davidson diagonalization with overlap

---- Real-time Memory Report at c_bands before calling an iterative solver
           183 MiB given to the printing process from OS
             0 MiB allocation reported by mallinfo(arena+hblkhd)
        369920 MiB available memory on the node where the printing process lives
------------------
     ethr =  1.34E-05,  avg # of iterations =  1.0

     total cpu time spent up to now is      215.5 secs

     total energy              =    -409.34884011 Ry
     estimated scf accuracy    <       0.02282897 Ry

     iteration # 19     ecut=    80.00 Ry     beta= 0.20
     Davidson diagonalization with overlap

---- Real-time Memory Report at c_bands before calling an iterative solver
           183 MiB given to the printing process from OS
             0 MiB allocation reported by mallinfo(arena+hblkhd)
        369920 MiB available memory on the node where the printing process lives
------------------
     ethr =  1.34E-05,  avg # of iterations =  1.0

     total cpu time spent up to now is      219.7 secs

     total energy              =    -409.34698484 Ry
     estimated scf accuracy    <       0.01589424 Ry

     iteration # 20     ecut=    80.00 Ry     beta= 0.20
     Davidson diagonalization with overlap

---- Real-time Memory Report at c_bands before calling an iterative solver
           183 MiB given to the printing process from OS
             0 MiB allocation reported by mallinfo(arena+hblkhd)
        369920 MiB available memory on the node where the printing process lives
------------------
     ethr =  1.34E-05,  avg # of iterations =  1.9

     total cpu time spent up to now is      224.9 secs

     total energy              =    -409.35086944 Ry
     estimated scf accuracy    <       0.01069641 Ry

     iteration # 21     ecut=    80.00 Ry     beta= 0.20
     Davidson diagonalization with overlap

---- Real-time Memory Report at c_bands before calling an iterative solver
           183 MiB given to the printing process from OS
             0 MiB allocation reported by mallinfo(arena+hblkhd)
        369920 MiB available memory on the node where the printing process lives
------------------
     ethr =  1.34E-05,  avg # of iterations =  1.0

     total cpu time spent up to now is      229.2 secs

     total energy              =    -409.34834000 Ry
     estimated scf accuracy    <       0.01686736 Ry

     iteration # 22     ecut=    80.00 Ry     beta= 0.20
     Davidson diagonalization with overlap

---- Real-time Memory Report at c_bands before calling an iterative solver
           183 MiB given to the printing process from OS
             0 MiB allocation reported by mallinfo(arena+hblkhd)
        369920 MiB available memory on the node where the printing process lives
------------------
     ethr =  1.34E-05,  avg # of iterations =  1.0

     total cpu time spent up to now is      233.5 secs

     total energy              =    -409.34737338 Ry
     estimated scf accuracy    <       0.01275146 Ry

     iteration # 23     ecut=    80.00 Ry     beta= 0.20
     Davidson diagonalization with overlap

---- Real-time Memory Report at c_bands before calling an iterative solver
           183 MiB given to the printing process from OS
             0 MiB allocation reported by mallinfo(arena+hblkhd)
        369920 MiB available memory on the node where the printing process lives
------------------
     ethr =  1.34E-05,  avg # of iterations =  1.0

     total cpu time spent up to now is      237.7 secs

     total energy              =    -409.34230919 Ry
     estimated scf accuracy    <       0.00942629 Ry

     iteration # 24     ecut=    80.00 Ry     beta= 0.20
     Davidson diagonalization with overlap

---- Real-time Memory Report at c_bands before calling an iterative solver
           183 MiB given to the printing process from OS
             0 MiB allocation reported by mallinfo(arena+hblkhd)
        369920 MiB available memory on the node where the printing process lives
------------------
     ethr =  1.34E-05,  avg # of iterations =  2.0

     total cpu time spent up to now is      243.7 secs

     total energy              =    -409.34283607 Ry
     estimated scf accuracy    <       0.00124040 Ry

     iteration # 25     ecut=    80.00 Ry     beta= 0.20
     Davidson diagonalization with overlap

---- Real-time Memory Report at c_bands before calling an iterative solver
           183 MiB given to the printing process from OS
             0 MiB allocation reported by mallinfo(arena+hblkhd)
        369920 MiB available memory on the node where the printing process lives
------------------
     ethr =  2.58E-06,  avg # of iterations = 10.6

     total cpu time spent up to now is      263.4 secs

     total energy              =    -409.34489648 Ry
     estimated scf accuracy    <       0.00255217 Ry

     iteration # 26     ecut=    80.00 Ry     beta= 0.20
     Davidson diagonalization with overlap

---- Real-time Memory Report at c_bands before calling an iterative solver
           183 MiB given to the printing process from OS
             0 MiB allocation reported by mallinfo(arena+hblkhd)
        369919 MiB available memory on the node where the printing process lives
------------------
     ethr =  2.58E-06,  avg # of iterations =  2.0

     total cpu time spent up to now is      268.7 secs

     total energy              =    -409.34453736 Ry
     estimated scf accuracy    <       0.00070271 Ry

     iteration # 27     ecut=    80.00 Ry     beta= 0.20
     Davidson diagonalization with overlap

---- Real-time Memory Report at c_bands before calling an iterative solver
           183 MiB given to the printing process from OS
             0 MiB allocation reported by mallinfo(arena+hblkhd)
        369919 MiB available memory on the node where the printing process lives
------------------
     ethr =  1.46E-06,  avg # of iterations =  6.3

     total cpu time spent up to now is      281.3 secs

     total energy              =    -409.34529484 Ry
     estimated scf accuracy    <       0.00047856 Ry

     iteration # 28     ecut=    80.00 Ry     beta= 0.20
     Davidson diagonalization with overlap

---- Real-time Memory Report at c_bands before calling an iterative solver
           183 MiB given to the printing process from OS
             0 MiB allocation reported by mallinfo(arena+hblkhd)
        369919 MiB available memory on the node where the printing process lives
------------------
     ethr =  9.97E-07,  avg # of iterations =  2.0

     total cpu time spent up to now is      286.7 secs

     total energy              =    -409.34520061 Ry
     estimated scf accuracy    <       0.00044656 Ry

     iteration # 29     ecut=    80.00 Ry     beta= 0.20
     Davidson diagonalization with overlap

---- Real-time Memory Report at c_bands before calling an iterative solver
           183 MiB given to the printing process from OS
             0 MiB allocation reported by mallinfo(arena+hblkhd)
        369919 MiB available memory on the node where the printing process lives
------------------
     ethr =  9.30E-07,  avg # of iterations =  1.1

     total cpu time spent up to now is      291.0 secs

     total energy              =    -409.34513278 Ry
     estimated scf accuracy    <       0.00024105 Ry

     iteration # 30     ecut=    80.00 Ry     beta= 0.20
     Davidson diagonalization with overlap

---- Real-time Memory Report at c_bands before calling an iterative solver
           183 MiB given to the printing process from OS
             0 MiB allocation reported by mallinfo(arena+hblkhd)
        369918 MiB available memory on the node where the printing process lives
------------------
     ethr =  5.02E-07,  avg # of iterations =  2.0

     total cpu time spent up to now is      296.7 secs

     total energy              =    -409.34514782 Ry
     estimated scf accuracy    <       0.00005094 Ry

     iteration # 31     ecut=    80.00 Ry     beta= 0.20
     Davidson diagonalization with overlap

---- Real-time Memory Report at c_bands before calling an iterative solver
           183 MiB given to the printing process from OS
             0 MiB allocation reported by mallinfo(arena+hblkhd)
        369918 MiB available memory on the node where the printing process lives
------------------
     ethr =  1.06E-07,  avg # of iterations =  5.5

     total cpu time spent up to now is      307.1 secs

     total energy              =    -409.34518193 Ry
     estimated scf accuracy    <       0.00000081 Ry

     iteration # 32     ecut=    80.00 Ry     beta= 0.20
     Davidson diagonalization with overlap

---- Real-time Memory Report at c_bands before calling an iterative solver
           183 MiB given to the printing process from OS
             0 MiB allocation reported by mallinfo(arena+hblkhd)
        369918 MiB available memory on the node where the printing process lives
------------------
     ethr =  1.69E-09,  avg # of iterations = 11.5

     total cpu time spent up to now is      329.6 secs

     total energy              =    -409.34520336 Ry
     estimated scf accuracy    <       0.00000499 Ry

     iteration # 33     ecut=    80.00 Ry     beta= 0.20
     Davidson diagonalization with overlap

---- Real-time Memory Report at c_bands before calling an iterative solver
           183 MiB given to the printing process from OS
             0 MiB allocation reported by mallinfo(arena+hblkhd)
        369919 MiB available memory on the node where the printing process lives
------------------
     c_bands:  1 eigenvalues not converged
     c_bands:  1 eigenvalues not converged
     c_bands:  1 eigenvalues not converged
     c_bands:  1 eigenvalues not converged
     c_bands:  1 eigenvalues not converged
     c_bands:  1 eigenvalues not converged
     c_bands:  2 eigenvalues not converged
     c_bands:  1 eigenvalues not converged
     c_bands:  2 eigenvalues not converged
     c_bands:  1 eigenvalues not converged
     c_bands:  1 eigenvalues not converged
     c_bands:  1 eigenvalues not converged
     c_bands:  1 eigenvalues not converged
     c_bands:  1 eigenvalues not converged
     c_bands:  5 eigenvalues not converged
     c_bands:  1 eigenvalues not converged
     c_bands:  1 eigenvalues not converged
     c_bands:  1 eigenvalues not converged
     c_bands:  1 eigenvalues not converged
     c_bands:  1 eigenvalues not converged
     c_bands:  1 eigenvalues not converged
     c_bands:  2 eigenvalues not converged
     c_bands:  4 eigenvalues not converged
     c_bands:  3 eigenvalues not converged
     c_bands:  1 eigenvalues not converged
     c_bands:  1 eigenvalues not converged
     c_bands:  1 eigenvalues not converged
     c_bands:  1 eigenvalues not converged
     c_bands:  2 eigenvalues not converged
     c_bands:  3 eigenvalues not converged
     c_bands:  5 eigenvalues not converged
     c_bands:  5 eigenvalues not converged
     c_bands:  5 eigenvalues not converged
     ethr =  1.69E-09,  avg # of iterations = 19.7

     total cpu time spent up to now is      367.2 secs

     total energy              =    -409.34517085 Ry
     estimated scf accuracy    <       0.00008652 Ry

     iteration # 34     ecut=    80.00 Ry     beta= 0.20
     Davidson diagonalization with overlap

---- Real-time Memory Report at c_bands before calling an iterative solver
           183 MiB given to the printing process from OS
             0 MiB allocation reported by mallinfo(arena+hblkhd)
        369920 MiB available memory on the node where the printing process lives
------------------
     c_bands:  1 eigenvalues not converged
     c_bands:  1 eigenvalues not converged
     c_bands:  1 eigenvalues not converged
     c_bands:  2 eigenvalues not converged
     c_bands:  1 eigenvalues not converged
     c_bands:  1 eigenvalues not converged
     c_bands:  1 eigenvalues not converged
     c_bands:  1 eigenvalues not converged
     c_bands:  3 eigenvalues not converged
     c_bands:  2 eigenvalues not converged
     c_bands:  1 eigenvalues not converged
     c_bands:  3 eigenvalues not converged
     c_bands:  1 eigenvalues not converged
     c_bands:  5 eigenvalues not converged
     c_bands:  1 eigenvalues not converged
     c_bands:  2 eigenvalues not converged
     c_bands:  1 eigenvalues not converged
     c_bands:  1 eigenvalues not converged
     c_bands:  1 eigenvalues not converged
     c_bands:  2 eigenvalues not converged
     ethr =  1.69E-09,  avg # of iterations = 20.7

     total cpu time spent up to now is      407.2 secs

     total energy              =    -409.34518591 Ry
     estimated scf accuracy    <       0.00000021 Ry

     iteration # 35     ecut=    80.00 Ry     beta= 0.20
     Davidson diagonalization with overlap

---- Real-time Memory Report at c_bands before calling an iterative solver
           183 MiB given to the printing process from OS
             0 MiB allocation reported by mallinfo(arena+hblkhd)
        369919 MiB available memory on the node where the printing process lives
------------------
     c_bands:  1 eigenvalues not converged
     c_bands:  1 eigenvalues not converged
     c_bands:  1 eigenvalues not converged
     ethr =  4.37E-10,  avg # of iterations = 16.3

     total cpu time spent up to now is      437.2 secs

     total energy              =    -409.34518624 Ry
     estimated scf accuracy    <       0.00000222 Ry

     iteration # 36     ecut=    80.00 Ry     beta= 0.20
     Davidson diagonalization with overlap

---- Real-time Memory Report at c_bands before calling an iterative solver
           183 MiB given to the printing process from OS
             0 MiB allocation reported by mallinfo(arena+hblkhd)
        369918 MiB available memory on the node where the printing process lives
------------------
     ethr =  4.37E-10,  avg # of iterations =  3.5

     total cpu time spent up to now is      444.5 secs

     total energy              =    -409.34518540 Ry
     estimated scf accuracy    <       0.00000108 Ry

     iteration # 37     ecut=    80.00 Ry     beta= 0.20
     Davidson diagonalization with overlap

---- Real-time Memory Report at c_bands before calling an iterative solver
           183 MiB given to the printing process from OS
             0 MiB allocation reported by mallinfo(arena+hblkhd)
        369917 MiB available memory on the node where the printing process lives
------------------
     c_bands:  1 eigenvalues not converged
     c_bands:  1 eigenvalues not converged
     c_bands:  1 eigenvalues not converged
     c_bands:  2 eigenvalues not converged
     c_bands:  1 eigenvalues not converged
     c_bands:  2 eigenvalues not converged
     c_bands:  4 eigenvalues not converged
     c_bands:  2 eigenvalues not converged
     c_bands:  1 eigenvalues not converged
     ethr =  4.37E-10,  avg # of iterations = 18.1

     total cpu time spent up to now is      478.0 secs

     total energy              =    -409.34518582 Ry
     estimated scf accuracy    <       0.00000205 Ry

     iteration # 38     ecut=    80.00 Ry     beta= 0.20
     Davidson diagonalization with overlap

---- Real-time Memory Report at c_bands before calling an iterative solver
           183 MiB given to the printing process from OS
             0 MiB allocation reported by mallinfo(arena+hblkhd)
        369916 MiB available memory on the node where the printing process lives
------------------
     ethr =  4.37E-10,  avg # of iterations =  6.3

     total cpu time spent up to now is      490.3 secs

     total energy              =    -409.34518606 Ry
     estimated scf accuracy    <       0.00000012 Ry

     iteration # 39     ecut=    80.00 Ry     beta= 0.20
     Davidson diagonalization with overlap

---- Real-time Memory Report at c_bands before calling an iterative solver
           183 MiB given to the printing process from OS
             0 MiB allocation reported by mallinfo(arena+hblkhd)
        369911 MiB available memory on the node where the printing process lives
------------------
     ethr =  2.41E-10,  avg # of iterations =  3.7

     total cpu time spent up to now is      497.3 secs

     total energy              =    -409.34518611 Ry
     estimated scf accuracy    <       0.00000005 Ry

     iteration # 40     ecut=    80.00 Ry     beta= 0.20
     Davidson diagonalization with overlap

---- Real-time Memory Report at c_bands before calling an iterative solver
           183 MiB given to the printing process from OS
             0 MiB allocation reported by mallinfo(arena+hblkhd)
        369907 MiB available memory on the node where the printing process lives
------------------
     ethr =  9.89E-11,  avg # of iterations =  1.6

     total cpu time spent up to now is      502.1 secs

     total energy              =    -409.34518609 Ry
     estimated scf accuracy    <       0.00000011 Ry

     iteration # 41     ecut=    80.00 Ry     beta= 0.20
     Davidson diagonalization with overlap

---- Real-time Memory Report at c_bands before calling an iterative solver
           183 MiB given to the printing process from OS
             0 MiB allocation reported by mallinfo(arena+hblkhd)
        369908 MiB available memory on the node where the printing process lives
------------------
     ethr =  9.89E-11,  avg # of iterations =  1.4

     total cpu time spent up to now is      506.8 secs

     total energy              =    -409.34518604 Ry
     estimated scf accuracy    <       0.00000007 Ry

     iteration # 42     ecut=    80.00 Ry     beta= 0.20
     Davidson diagonalization with overlap

---- Real-time Memory Report at c_bands before calling an iterative solver
           183 MiB given to the printing process from OS
             0 MiB allocation reported by mallinfo(arena+hblkhd)
        369898 MiB available memory on the node where the printing process lives
------------------
     ethr =  9.89E-11,  avg # of iterations =  7.0

     total cpu time spent up to now is      520.3 secs

     total energy              =    -409.34518608 Ry
     estimated scf accuracy    <       0.00000001 Ry

     iteration # 43     ecut=    80.00 Ry     beta= 0.20
     Davidson diagonalization with overlap

---- Real-time Memory Report at c_bands before calling an iterative solver
           183 MiB given to the printing process from OS
             0 MiB allocation reported by mallinfo(arena+hblkhd)
        369894 MiB available memory on the node where the printing process lives
------------------
     ethr =  3.01E-11,  avg # of iterations =  5.0

     total cpu time spent up to now is      529.8 secs

     total energy              =    -409.34518606 Ry
     estimated scf accuracy    <       0.00000002 Ry

     iteration # 44     ecut=    80.00 Ry     beta= 0.20
     Davidson diagonalization with overlap

---- Real-time Memory Report at c_bands before calling an iterative solver
           183 MiB given to the printing process from OS
             0 MiB allocation reported by mallinfo(arena+hblkhd)
        369892 MiB available memory on the node where the printing process lives
------------------
     ethr =  3.01E-11,  avg # of iterations = 12.3

     total cpu time spent up to now is      553.1 secs

     total energy              =    -409.34518611 Ry
     estimated scf accuracy    <       0.00000010 Ry

     iteration # 45     ecut=    80.00 Ry     beta= 0.20
     Davidson diagonalization with overlap

---- Real-time Memory Report at c_bands before calling an iterative solver
           183 MiB given to the printing process from OS
             0 MiB allocation reported by mallinfo(arena+hblkhd)
        369894 MiB available memory on the node where the printing process lives
------------------
     ethr =  3.01E-11,  avg # of iterations =  2.2

     total cpu time spent up to now is      558.7 secs

     total energy              =    -409.34518616 Ry
     estimated scf accuracy    <       0.00000012 Ry

     iteration # 46     ecut=    80.00 Ry     beta= 0.20
     Davidson diagonalization with overlap

---- Real-time Memory Report at c_bands before calling an iterative solver
           183 MiB given to the printing process from OS
             0 MiB allocation reported by mallinfo(arena+hblkhd)
        369894 MiB available memory on the node where the printing process lives
------------------
     ethr =  3.01E-11,  avg # of iterations =  6.0

     total cpu time spent up to now is      570.1 secs

     total energy              =    -409.34518605 Ry
     estimated scf accuracy    <       0.00000026 Ry

     iteration # 47     ecut=    80.00 Ry     beta= 0.20
     Davidson diagonalization with overlap

---- Real-time Memory Report at c_bands before calling an iterative solver
           183 MiB given to the printing process from OS
             0 MiB allocation reported by mallinfo(arena+hblkhd)
        369892 MiB available memory on the node where the printing process lives
------------------
     ethr =  3.01E-11,  avg # of iterations =  8.7

     total cpu time spent up to now is      586.8 secs

     total energy              =    -409.34518607 Ry
     estimated scf accuracy    <       0.00000002 Ry

     iteration # 48     ecut=    80.00 Ry     beta= 0.20
     Davidson diagonalization with overlap

---- Real-time Memory Report at c_bands before calling an iterative solver
           183 MiB given to the printing process from OS
             0 MiB allocation reported by mallinfo(arena+hblkhd)
        369887 MiB available memory on the node where the printing process lives
------------------
     ethr =  3.01E-11,  avg # of iterations =  4.3

     total cpu time spent up to now is      595.1 secs

     total energy              =    -409.34518607 Ry
     estimated scf accuracy    <          2.3E-09 Ry

     iteration # 49     ecut=    80.00 Ry     beta= 0.20
     Davidson diagonalization with overlap

---- Real-time Memory Report at c_bands before calling an iterative solver
           183 MiB given to the printing process from OS
             0 MiB allocation reported by mallinfo(arena+hblkhd)
        369887 MiB available memory on the node where the printing process lives
------------------
     ethr =  4.80E-12,  avg # of iterations = 14.0

     total cpu time spent up to now is      621.3 secs

     total energy              =    -409.34518608 Ry
     estimated scf accuracy    <       0.00000002 Ry

     iteration # 50     ecut=    80.00 Ry     beta= 0.20
     Davidson diagonalization with overlap

---- Real-time Memory Report at c_bands before calling an iterative solver
           183 MiB given to the printing process from OS
             0 MiB allocation reported by mallinfo(arena+hblkhd)
        369867 MiB available memory on the node where the printing process lives
------------------
     ethr =  4.80E-12,  avg # of iterations =  1.6

     total cpu time spent up to now is      626.1 secs

     total energy              =    -409.34518607 Ry
     estimated scf accuracy    <       0.00000001 Ry

     iteration # 51     ecut=    80.00 Ry     beta= 0.20
     Davidson diagonalization with overlap

---- Real-time Memory Report at c_bands before calling an iterative solver
           183 MiB given to the printing process from OS
             0 MiB allocation reported by mallinfo(arena+hblkhd)
        369867 MiB available memory on the node where the printing process lives
------------------
     ethr =  4.80E-12,  avg # of iterations = 13.3

     total cpu time spent up to now is      651.4 secs

     total energy              =    -409.34518607 Ry
     estimated scf accuracy    <          6.6E-09 Ry

     iteration # 52     ecut=    80.00 Ry     beta= 0.20
     Davidson diagonalization with overlap

---- Real-time Memory Report at c_bands before calling an iterative solver
           183 MiB given to the printing process from OS
             0 MiB allocation reported by mallinfo(arena+hblkhd)
        369876 MiB available memory on the node where the printing process lives
------------------
     ethr =  4.80E-12,  avg # of iterations =  5.2

     total cpu time spent up to now is      661.5 secs

     total energy              =    -409.34518608 Ry
     estimated scf accuracy    <          2.0E-10 Ry

     iteration # 53     ecut=    80.00 Ry     beta= 0.20
     Davidson diagonalization with overlap

---- Real-time Memory Report at c_bands before calling an iterative solver
           183 MiB given to the printing process from OS
             0 MiB allocation reported by mallinfo(arena+hblkhd)
        369877 MiB available memory on the node where the printing process lives
------------------
     ethr =  4.23E-13,  avg # of iterations = 15.7

     total cpu time spent up to now is      691.6 secs

     total energy              =    -409.34518607 Ry
     estimated scf accuracy    <          7.4E-09 Ry

     iteration # 54     ecut=    80.00 Ry     beta= 0.20
     Davidson diagonalization with overlap

---- Real-time Memory Report at c_bands before calling an iterative solver
           183 MiB given to the printing process from OS
             0 MiB allocation reported by mallinfo(arena+hblkhd)
        369872 MiB available memory on the node where the printing process lives
------------------
     c_bands:  2 eigenvalues not converged
     c_bands:  1 eigenvalues not converged
     c_bands:  1 eigenvalues not converged
     c_bands:  1 eigenvalues not converged
     c_bands:  1 eigenvalues not converged
     c_bands:  1 eigenvalues not converged
     c_bands:  1 eigenvalues not converged
     c_bands:  1 eigenvalues not converged
     c_bands:  1 eigenvalues not converged
     c_bands:  1 eigenvalues not converged
     c_bands:  1 eigenvalues not converged
     c_bands:  2 eigenvalues not converged
     c_bands:  1 eigenvalues not converged
     c_bands:  1 eigenvalues not converged
     c_bands:  1 eigenvalues not converged
     c_bands:  5 eigenvalues not converged
     c_bands:  1 eigenvalues not converged
     c_bands:  1 eigenvalues not converged
     c_bands:  1 eigenvalues not converged
     c_bands:  1 eigenvalues not converged
     c_bands:  2 eigenvalues not converged
     ethr =  4.23E-13,  avg # of iterations = 19.5

     total cpu time spent up to now is      728.9 secs

     total energy              =    -409.34518608 Ry
     estimated scf accuracy    <          1.7E-09 Ry

     iteration # 55     ecut=    80.00 Ry     beta= 0.20
     Davidson diagonalization with overlap

---- Real-time Memory Report at c_bands before calling an iterative solver
           183 MiB given to the printing process from OS
             0 MiB allocation reported by mallinfo(arena+hblkhd)
        369856 MiB available memory on the node where the printing process lives
------------------
     ethr =  4.23E-13,  avg # of iterations =  1.1

     total cpu time spent up to now is      733.3 secs

     total energy              =    -409.34518608 Ry
     estimated scf accuracy    <          1.3E-09 Ry

     iteration # 56     ecut=    80.00 Ry     beta= 0.20
     Davidson diagonalization with overlap

---- Real-time Memory Report at c_bands before calling an iterative solver
           183 MiB given to the printing process from OS
             0 MiB allocation reported by mallinfo(arena+hblkhd)
        369855 MiB available memory on the node where the printing process lives
------------------
     ethr =  4.23E-13,  avg # of iterations =  6.2

     total cpu time spent up to now is      745.8 secs

     End of self-consistent calculation

          k = 0.0000 0.0000 0.0000 (  7169 PWs)   bands (ev):

   -11.7132  -9.5033  -9.2605  -9.2605  -8.9566  -8.9566   0.5563   1.5019
     1.8963   1.8963   2.9955   3.1124   3.1124   4.0692   4.3625   5.9058
     5.9058   6.0339   6.0339   6.7847   6.7847   7.2148   7.2148   7.2705

     occupation numbers 
     1.0000   1.0000   1.0000   1.0000   1.0000   1.0000   1.0000   1.0000
     1.0000   1.0000   1.0000   1.0000   1.0000   1.0000   1.0000   1.0000
     1.0000   1.0000   1.0000   1.0000   1.0000   1.0000   1.0000   1.0000

          k =-0.0896-0.0517 0.0329 (  7139 PWs)   bands (ev):

   -11.6788  -9.5127  -9.2878  -9.2679  -8.9737  -8.9579   0.5959   1.3846
     1.8471   2.1108   2.7062   3.0668   3.4758   4.2290   4.4502   5.7315
     5.9038   5.9899   6.0948   6.7207   6.7208   7.0990   7.2106   7.2563

     occupation numbers 
     1.0000   1.0000   1.0000   1.0000   1.0000   1.0000   1.0000   1.0000
     1.0000   1.0000   1.0000   1.0000   1.0000   1.0000   1.0000   1.0000
     1.0000   1.0000   1.0000   1.0000   1.0000   1.0000   1.0000   1.0000

          k =-0.1792-0.1035 0.0659 (  7157 PWs)   bands (ev):

   -11.5770  -9.5787  -9.3288  -9.2854  -9.0206  -8.9656   0.7028   1.2742
     1.7142   2.4678   2.4885   3.0485   3.9493   4.5965   4.6458   5.4295
     5.7855   5.9382   6.0952   6.4059   6.6102   6.9280   7.1800   7.2235

     occupation numbers 
     1.0000   1.0000   1.0000   1.0000   1.0000   1.0000   1.0000   1.0000
     1.0000   1.0000   1.0000   1.0000   1.0000   1.0000   1.0000   1.0000
     1.0000   1.0000   1.0000   1.0000   1.0000   1.0000   1.0000   1.0000

          k =-0.2688-0.1552 0.0988 (  7161 PWs)   bands (ev):

   -11.4117  -9.7562  -9.3189  -9.3026  -9.0857  -8.9862   0.8205   1.3110
     1.5259   2.3603   2.8267   3.2271   4.4570   4.6747   5.0093   5.2502
     5.5062   5.8488   5.9475   6.0081   6.5365   6.8339   7.1162   7.1661

     occupation numbers 
     1.0000   1.0000   1.0000   1.0000   1.0000   1.0000   1.0000   1.0000
     1.0000   1.0000   1.0000   1.0000   1.0000   1.0000   1.0000   1.0000
     1.0000   1.0000   1.0000   1.0000   1.0000   1.0000   1.0000   1.0000

          k =-0.3584-0.2069 0.1317 (  7177 PWs)   bands (ev):

   -11.1902 -10.0146  -9.3095  -9.2722  -9.1559  -9.0237   0.8829   1.3237
     1.5466   2.3600   3.1105   3.5601   4.3205   4.9385   5.0456   5.1478
     5.4701   5.5870   5.8671   5.9571   6.4581   6.7377   7.0464   7.0964

     occupation numbers 
     1.0000   1.0000   1.0000   1.0000   1.0000   1.0000   1.0000   1.0000
     1.0000   1.0000   1.0000   1.0000   1.0000   1.0000   1.0000   1.0000
     1.0000   1.0000   1.0000   1.0000   1.0000   1.0000   1.0000   1.0000

          k =-0.4480-0.2587 0.1646 (  7186 PWs)   bands (ev):

   -10.9230 -10.3138  -9.2995  -9.2199  -9.2094  -9.0772   0.9325   1.1470
     1.8959   2.3663   3.4705   3.7678   3.9537   4.5111   4.9562   5.3693
     5.4786   5.8472   5.8585   6.0008   6.3276   6.5944   7.0098   7.0402

     occupation numbers 
     1.0000   1.0000   1.0000   1.0000   1.0000   1.0000   1.0000   1.0000
     1.0000   1.0000   1.0000   1.0000   1.0000   1.0000   1.0000   1.0000
     1.0000   1.0000   1.0000   1.0000   1.0000   1.0000   1.0000   1.0000

          k = 0.5376 0.3104-0.1976 (  7190 PWs)   bands (ev):

   -10.6246 -10.6246  -9.2693  -9.2693  -9.1415  -9.1415   1.0156   1.0156
     2.2191   2.2191   3.7798   3.7798   3.9620   3.9620   5.1411   5.1411
     5.7768   5.7768   5.9838   5.9838   6.3922   6.3922   7.0113   7.0113

     occupation numbers 
     1.0000   1.0000   1.0000   1.0000   1.0000   1.0000   1.0000   1.0000
     1.0000   1.0000   1.0000   1.0000   1.0000   1.0000   1.0000   1.0000
     1.0000   1.0000   1.0000   1.0000   1.0000   1.0000   1.0000   1.0000

          k =-0.0896 0.0517 0.0659 (  7139 PWs)   bands (ev):

   -11.6692  -9.5258  -9.2910  -9.2646  -8.9849  -8.9525   0.6269   1.3835
     1.8733   2.1024   2.7299   3.0485   3.4779   4.2397   4.4746   5.6450
     5.8696   6.0364   6.0846   6.7095   6.7503   7.0543   7.2236   7.2289

     occupation numbers 
     1.0000   1.0000   1.0000   1.0000   1.0000   1.0000   1.0000   1.0000
     1.0000   1.0000   1.0000   1.0000   1.0000   1.0000   1.0000   1.0000
     1.0000   1.0000   1.0000   1.0000   1.0000   1.0000   1.0000   1.0000

          k =-0.1792 0.0000 0.0988 (  7149 PWs)   bands (ev):

   -11.5917  -9.5659  -9.3404  -9.2702  -9.0320  -8.9488   0.7294   1.2959
     1.7864   2.3754   2.5599   3.0472   3.7916   4.4991   4.6463   5.3799
     5.8560   5.9169   6.0881   6.5197   6.6887   6.8700   7.1731   7.2280

     occupation numbers 
     1.0000   1.0000   1.0000   1.0000   1.0000   1.0000   1.0000   1.0000
     1.0000   1.0000   1.0000   1.0000   1.0000   1.0000   1.0000   1.0000
     1.0000   1.0000   1.0000   1.0000   1.0000   1.0000   1.0000   1.0000

          k =-0.2688-0.0517 0.1317 (  7164 PWs)   bands (ev):

   -11.4495  -9.6895  -9.3727  -9.2785  -9.1038  -8.9512   0.8677   1.2845
     1.6183   2.4268   2.7109   3.1851   4.2232   4.6908   4.9042   5.1757
     5.6297   5.8300   6.0418   6.1246   6.5952   6.7684   7.1067   7.1863

     occupation numbers 
     1.0000   1.0000   1.0000   1.0000   1.0000   1.0000   1.0000   1.0000
     1.0000   1.0000   1.0000   1.0000   1.0000   1.0000   1.0000   1.0000
     1.0000   1.0000   1.0000   1.0000   1.0000   1.0000   1.0000   1.0000

          k =-0.3584-0.1035 0.1646 (  7171 PWs)   bands (ev):

   -11.2486  -9.9121  -9.3576  -9.2801  -9.1847  -8.9680   0.9617   1.3682
     1.5030   2.4055   2.9900   3.4853   4.3197   4.7374   5.0558   5.2793
     5.4395   5.5517   5.9159   6.0034   6.5249   6.6986   7.0288   7.1128

     occupation numbers 
     1.0000   1.0000   1.0000   1.0000   1.0000   1.0000   1.0000   1.0000
     1.0000   1.0000   1.0000   1.0000   1.0000   1.0000   1.0000   1.0000
     1.0000   1.0000   1.0000   1.0000   1.0000   1.0000   1.0000   1.0000

          k =-0.4480-0.1552 0.1976 (  7189 PWs)   bands (ev):

   -10.9983 -10.1924  -9.3225  -9.2652  -9.2569  -9.0030   1.0155   1.2128
     1.7878   2.4251   3.3015   3.7003   3.9787   4.6706   4.9920   5.2006
     5.4631   5.8092   5.8475   6.0195   6.4294   6.6002   6.9699   7.0473

     occupation numbers 
     1.0000   1.0000   1.0000   1.0000   1.0000   1.0000   1.0000   1.0000
     1.0000   1.0000   1.0000   1.0000   1.0000   1.0000   1.0000   1.0000
     1.0000   1.0000   1.0000   1.0000   1.0000   1.0000   1.0000   1.0000

          k = 0.5376 0.4139-0.1646 (  7196 PWs)   bands (ev):

   -10.7117 -10.4961  -9.3275  -9.2793  -9.2141  -9.0549   1.0580   1.0984
     2.1199   2.3187   3.5606   3.7242   3.9430   4.1300   5.0686   5.2623
     5.5591   5.9116   5.9343   6.0663   6.3863   6.4387   6.9637   7.0202

     occupation numbers 
     1.0000   1.0000   1.0000   1.0000   1.0000   1.0000   1.0000   1.0000
     1.0000   1.0000   1.0000   1.0000   1.0000   1.0000   1.0000   1.0000
     1.0000   1.0000   1.0000   1.0000   1.0000   1.0000   1.0000   1.0000

          k = 0.4480 0.3621-0.1317 (  7193 PWs)   bands (ev):

   -10.7971 -10.4064  -9.3685  -9.2320  -9.1531  -9.1180   0.9704   1.1976
     2.0012   2.3243   3.5666   3.6057   4.0229   4.2778   5.0154   5.2998
     5.7380   5.7515   5.9233   6.0116   6.2884   6.5716   6.9956   7.0294

     occupation numbers 
     1.0000   1.0000   1.0000   1.0000   1.0000   1.0000   1.0000   1.0000
     1.0000   1.0000   1.0000   1.0000   1.0000   1.0000   1.0000   1.0000
     1.0000   1.0000   1.0000   1.0000   1.0000   1.0000   1.0000   1.0000

          k = 0.3584 0.3104-0.0988 (  7190 PWs)   bands (ev):

   -11.0742 -10.1047  -9.3869  -9.1886  -9.1684  -9.0921   0.9145   1.3361
     1.6300   2.3423   3.2255   3.5220   4.3642   4.7379   5.0109   5.3148
     5.4762   5.7158   5.8462   5.8887   6.3803   6.7166   7.0423   7.0812

     occupation numbers 
     1.0000   1.0000   1.0000   1.0000   1.0000   1.0000   1.0000   1.0000
     1.0000   1.0000   1.0000   1.0000   1.0000   1.0000   1.0000   1.0000
     1.0000   1.0000   1.0000   1.0000   1.0000   1.0000   1.0000   1.0000

          k = 0.2688 0.2587-0.0659 (  7174 PWs)   bands (ev):

   -11.3112  -9.8340  -9.3822  -9.2478  -9.1020  -9.0413   0.8628   1.3134
     1.5238   2.3193   2.9676   3.2504   4.7226   4.7978   5.0738   5.3099
     5.3745   5.6286   5.8136   5.9962   6.4742   6.7918   7.1069   7.1598

     occupation numbers 
     1.0000   1.0000   1.0000   1.0000   1.0000   1.0000   1.0000   1.0000
     1.0000   1.0000   1.0000   1.0000   1.0000   1.0000   1.0000   1.0000
     1.0000   1.0000   1.0000   1.0000   1.0000   1.0000   1.0000   1.0000

          k = 0.1792 0.2069-0.0329 (  7166 PWs)   bands (ev):

   -11.4960  -9.6290  -9.3562  -9.2902  -9.0355  -9.0051   0.7571   1.2193
     1.6649   2.3785   2.7490   2.9600   4.3098   4.7518   4.8841   5.3942
     5.6041   5.8035   6.0761   6.1396   6.5540   6.8387   7.1747   7.2234

     occupation numbers 
     1.0000   1.0000   1.0000   1.0000   1.0000   1.0000   1.0000   1.0000
     1.0000   1.0000   1.0000   1.0000   1.0000   1.0000   1.0000   1.0000
     1.0000   1.0000   1.0000   1.0000   1.0000   1.0000   1.0000   1.0000

          k = 0.0896 0.1552 0.0000 (  7153 PWs)   bands (ev):

   -11.6203  -9.5282  -9.3099  -9.2988  -8.9844  -8.9828   0.6441   1.2762
     1.7792   2.3823   2.5335   2.9648   3.8383   4.4645   4.5979   5.6708
     5.7684   5.9304   6.0906   6.5286   6.6657   6.9396   7.2151   7.2515

     occupation numbers 
     1.0000   1.0000   1.0000   1.0000   1.0000   1.0000   1.0000   1.0000
     1.0000   1.0000   1.0000   1.0000   1.0000   1.0000   1.0000   1.0000
     1.0000   1.0000   1.0000   1.0000   1.0000   1.0000   1.0000   1.0000

          k =-0.1792 0.1035 0.1317 (  7162 PWs)   bands (ev):

   -11.5396  -9.5821  -9.3676  -9.2800  -9.0805  -8.9422   0.8233   1.2585
     1.8383   2.4427   2.5847   3.0056   3.8711   4.6195   4.7937   5.2341
     5.7362   5.9132   6.0093   6.5436   6.5534   6.8021   7.1282   7.2105

     occupation numbers 
     1.0000   1.0000   1.0000   1.0000   1.0000   1.0000   1.0000   1.0000
     1.0000   1.0000   1.0000   1.0000   1.0000   1.0000   1.0000   1.0000
     1.0000   1.0000   1.0000   1.0000   1.0000   1.0000   1.0000   1.0000

          k =-0.2688 0.0517 0.1646 (  7174 PWs)   bands (ev):

   -11.4227  -9.6484  -9.4155  -9.2885  -9.1622  -8.9361   0.9680   1.2390
     1.7702   2.5091   2.6692   3.1231   4.1276   4.8084   4.9230   5.1241
     5.6089   5.6746   5.9852   6.2783   6.5457   6.7011   7.0647   7.1723

     occupation numbers 
     1.0000   1.0000   1.0000   1.0000   1.0000   1.0000   1.0000   1.0000
     1.0000   1.0000   1.0000   1.0000   1.0000   1.0000   1.0000   1.0000
     1.0000   1.0000   1.0000   1.0000   1.0000   1.0000   1.0000   1.0000

          k =-0.3584 0.0000 0.1976 (  7182 PWs)   bands (ev):

   -11.2463  -9.8118  -9.4284  -9.2914  -9.2591  -8.9348   1.1072   1.3133
     1.6411   2.4807   2.9097   3.3765   4.3252   4.6325   5.0526   5.2768
     5.4064   5.5092   5.9567   6.0786   6.5188   6.6149   6.9945   7.1049

     occupation numbers 
     1.0000   1.0000   1.0000   1.0000   1.0000   1.0000   1.0000   1.0000
     1.0000   1.0000   1.0000   1.0000   1.0000   1.0000   1.0000   1.0000
     1.0000   1.0000   1.0000   1.0000   1.0000   1.0000   1.0000   1.0000

          k =-0.4480-0.0517 0.2305 (  7197 PWs)   bands (ev):

   -11.0187 -10.0541  -9.4089  -9.3491  -9.2822  -8.9481   1.1723   1.3797
     1.6794   2.5058   3.1718   3.5346   4.0563   4.7003   4.9454   5.0440
     5.5102   5.8150   5.9190   5.9715   6.4792   6.5615   6.9397   7.0188

     occupation numbers 
     1.0000   1.0000   1.0000   1.0000   1.0000   1.0000   1.0000   1.0000
     1.0000   1.0000   1.0000   1.0000   1.0000   1.0000   1.0000   1.0000
     1.0000   1.0000   1.0000   1.0000   1.0000   1.0000   1.0000   1.0000

          k = 0.5376 0.5173-0.1317 (  7202 PWs)   bands (ev):

   -10.7523 -10.3362  -9.4443  -9.3488  -9.2551  -8.9809   1.1835   1.3210
     1.9839   2.4358   3.3373   3.5491   3.9999   4.1862   5.0023   5.3112
     5.4664   5.9195   5.9541   6.0862   6.4500   6.4693   6.9106   6.9816

     occupation numbers 
     1.0000   1.0000   1.0000   1.0000   1.0000   1.0000   1.0000   1.0000
     1.0000   1.0000   1.0000   1.0000   1.0000   1.0000   1.0000   1.0000
     1.0000   1.0000   1.0000   1.0000   1.0000   1.0000   1.0000   1.0000

          k = 0.4480 0.4656-0.0988 (  7206 PWs)   bands (ev):

   -10.6283 -10.4640  -9.4975  -9.2934  -9.2103  -9.0325   1.1201   1.3628
     2.1134   2.2842   3.2727   3.6562   3.9159   4.1839   5.1153   5.2555
     5.5678   5.9175   6.0081   6.0441   6.3361   6.5547   6.9269   7.0099

     occupation numbers 
     1.0000   1.0000   1.0000   1.0000   1.0000   1.0000   1.0000   1.0000
     1.0000   1.0000   1.0000   1.0000   1.0000   1.0000   1.0000   1.0000
     1.0000   1.0000   1.0000   1.0000   1.0000   1.0000   1.0000   1.0000

          k = 0.3584 0.4139-0.0659 (  7204 PWs)   bands (ev):

   -10.9066 -10.1769  -9.5210  -9.2261  -9.1558  -9.0975   1.0623   1.4242
     1.7477   2.3594   3.2745   3.3350   4.3077   4.5180   4.9903   5.3433
     5.6713   5.7228   5.8619   5.9446   6.3475   6.6834   6.9832   7.0695

     occupation numbers 
     1.0000   1.0000   1.0000   1.0000   1.0000   1.0000   1.0000   1.0000
     1.0000   1.0000   1.0000   1.0000   1.0000   1.0000   1.0000   1.0000
     1.0000   1.0000   1.0000   1.0000   1.0000   1.0000   1.0000   1.0000

          k = 0.2688 0.3621-0.0329 (  7194 PWs)   bands (ev):

   -11.1526  -9.9211  -9.5060  -9.1707  -9.1497  -9.1017   1.0078   1.3229
     1.5993   2.3209   3.0118   3.3295   4.6989   4.8265   5.0676   5.2841
     5.4580   5.5912   5.7673   5.9241   6.4139   6.7512   7.0589   7.1443

     occupation numbers 
     1.0000   1.0000   1.0000   1.0000   1.0000   1.0000   1.0000   1.0000
     1.0000   1.0000   1.0000   1.0000   1.0000   1.0000   1.0000   1.0000
     1.0000   1.0000   1.0000   1.0000   1.0000   1.0000   1.0000   1.0000

          k = 0.1792 0.3104 0.0000 (  7189 PWs)   bands (ev):

   -11.3524  -9.7340  -9.4446  -9.2369  -9.0792  -9.0550   0.8875   1.2073
     1.6267   2.3216   2.9030   3.0919   4.7535   4.8886   5.0954   5.2363
     5.4113   5.6752   5.7867   6.0329   6.4737   6.7821   7.1314   7.2028

     occupation numbers 
     1.0000   1.0000   1.0000   1.0000   1.0000   1.0000   1.0000   1.0000
     1.0000   1.0000   1.0000   1.0000   1.0000   1.0000   1.0000   1.0000
     1.0000   1.0000   1.0000   1.0000   1.0000   1.0000   1.0000   1.0000

          k =-0.2688 0.1552 0.1976 (  7170 PWs)   bands (ev):

   -11.3328  -9.6505  -9.4621  -9.3067  -9.2560  -8.9300   1.0880   1.2270
     1.8858   2.5725   2.6854   3.1796   4.1894   4.8205   5.0411   5.1795
     5.3527   5.6024   5.9115   6.3254   6.3504   6.6928   7.0139   7.1022

     occupation numbers 
     1.0000   1.0000   1.0000   1.0000   1.0000   1.0000   1.0000   1.0000
     1.0000   1.0000   1.0000   1.0000   1.0000   1.0000   1.0000   1.0000
     1.0000   1.0000   1.0000   1.0000   1.0000   1.0000   1.0000   1.0000

          k =-0.3584 0.1035 0.2305 (  7188 PWs)   bands (ev):

   -11.1840  -9.7344  -9.4955  -9.3689  -9.3159  -8.9231   1.2220   1.2770
     1.8825   2.5694   2.8533   3.3514   4.3213   4.6007   5.0331   5.1262
     5.4334   5.5262   5.8917   6.1662   6.3404   6.6366   6.9531   7.0305

     occupation numbers 
     1.0000   1.0000   1.0000   1.0000   1.0000   1.0000   1.0000   1.0000
     1.0000   1.0000   1.0000   1.0000   1.0000   1.0000   1.0000   1.0000
     1.0000   1.0000   1.0000   1.0000   1.0000   1.0000   1.0000   1.0000

          k =-0.4480 0.0517 0.2634 (  7203 PWs)   bands (ev):

   -10.9844  -9.9167  -9.5173  -9.4522  -9.3131  -8.9199   1.3273   1.4202
     1.8139   2.6022   3.0910   3.4328   4.1146   4.6190   4.7837   5.0321
     5.5522   5.7962   5.8906   6.0551   6.3223   6.5968   6.9056   6.9579

     occupation numbers 
     1.0000   1.0000   1.0000   1.0000   1.0000   1.0000   1.0000   1.0000
     1.0000   1.0000   1.0000   1.0000   1.0000   1.0000   1.0000   1.0000
     1.0000   1.0000   1.0000   1.0000   1.0000   1.0000   1.0000   1.0000

          k = 0.5376 0.6208-0.0988 (  7196 PWs)   bands (ev):

   -10.7466 -10.1595  -9.6005  -9.4292  -9.2944  -8.9315   1.3498   1.6006
     1.8461   2.5780   3.2486   3.3480   4.0143   4.1953   4.8968   5.1552
     5.6116   5.8744   5.9791   6.0764   6.3817   6.5315   6.8703   6.9261

     occupation numbers 
     1.0000   1.0000   1.0000   1.0000   1.0000   1.0000   1.0000   1.0000
     1.0000   1.0000   1.0000   1.0000   1.0000   1.0000   1.0000   1.0000
     1.0000   1.0000   1.0000   1.0000   1.0000   1.0000   1.0000   1.0000

          k = 0.4480 0.5691-0.0659 (  7206 PWs)   bands (ev):

   -10.4901 -10.4277  -9.6649  -9.3742  -9.2585  -8.9648   1.3206   1.6281
     2.1033   2.3219   3.0683   3.5904   3.7514   4.2141   4.9450   5.3503
     5.5221   5.8802   6.0323   6.1957   6.3752   6.5179   6.8545   6.9718

     occupation numbers 
     1.0000   1.0000   1.0000   1.0000   1.0000   1.0000   1.0000   1.0000
     1.0000   1.0000   1.0000   1.0000   1.0000   1.0000   1.0000   1.0000
     1.0000   1.0000   1.0000   1.0000   1.0000   1.0000   1.0000   1.0000

          k = 0.3584 0.5173-0.0329 (  7207 PWs)   bands (ev):

   -10.6974 -10.2411  -9.6813  -9.3046  -9.2099  -9.0194   1.2710   1.5716
     1.9318   2.3637   3.0337   3.3386   4.0201   4.5156   4.8909   5.3493
     5.5728   5.8707   6.0193   6.0546   6.3409   6.6280   6.9033   7.0368

     occupation numbers 
     1.0000   1.0000   1.0000   1.0000   1.0000   1.0000   1.0000   1.0000
     1.0000   1.0000   1.0000   1.0000   1.0000   1.0000   1.0000   1.0000
     1.0000   1.0000   1.0000   1.0000   1.0000   1.0000   1.0000   1.0000

          k = 0.2688 0.4656 0.0000 (  7197 PWs)   bands (ev):

   -10.9440 -10.0449  -9.6267  -9.2264  -9.1562  -9.0900   1.1888   1.4015
     1.7261   2.3592   3.1027   3.2388   4.4129   4.7796   4.8464   5.3221
     5.6745   5.6957   5.8382   5.9188   6.3818   6.7066   6.9802   7.1010

     occupation numbers 
     1.0000   1.0000   1.0000   1.0000   1.0000   1.0000   1.0000   1.0000
     1.0000   1.0000   1.0000   1.0000   1.0000   1.0000   1.0000   1.0000
     1.0000   1.0000   1.0000   1.0000   1.0000   1.0000   1.0000   1.0000

          k =-0.3584 0.2069 0.2634 (  7181 PWs)   bands (ev):

   -11.0657  -9.7125  -9.5696  -9.4839  -9.3367  -8.9197   1.2055   1.4152
     2.0886   2.6231   2.8798   3.4338   4.3241   4.4983   4.7801   5.1301
     5.5009   5.6262   5.8918   6.0176   6.2904   6.6199   6.9029   6.9451

     occupation numbers 
     1.0000   1.0000   1.0000   1.0000   1.0000   1.0000   1.0000   1.0000
     1.0000   1.0000   1.0000   1.0000   1.0000   1.0000   1.0000   1.0000
     1.0000   1.0000   1.0000   1.0000   1.0000   1.0000   1.0000   1.0000

          k =-0.4480 0.1552 0.2963 (  7199 PWs)   bands (ev):

   -10.8999  -9.8038  -9.6647  -9.5295  -9.3428  -8.9134   1.2826   1.5170
     2.1580   2.6609   3.0577   3.4587   4.0841   4.4085   4.7325   5.0409
     5.5822   5.8015   5.8974   5.9879   6.2175   6.5971   6.7914   6.9485

     occupation numbers 
     1.0000   1.0000   1.0000   1.0000   1.0000   1.0000   1.0000   1.0000
     1.0000   1.0000   1.0000   1.0000   1.0000   1.0000   1.0000   1.0000
     1.0000   1.0000   1.0000   1.0000   1.0000   1.0000   1.0000   1.0000

          k = 0.5376 0.7243-0.0659 (  7202 PWs)   bands (ev):

   -10.7019  -9.9861  -9.7710  -9.5022  -9.3321  -8.9098   1.4470   1.5745
     2.1372   2.7107   3.1882   3.2762   3.9262   4.2255   4.7635   5.0885
     5.6465   5.8233   6.0170   6.0655   6.2420   6.5566   6.7201   6.9626

     occupation numbers 
     1.0000   1.0000   1.0000   1.0000   1.0000   1.0000   1.0000   1.0000
     1.0000   1.0000   1.0000   1.0000   1.0000   1.0000   1.0000   1.0000
     1.0000   1.0000   1.0000   1.0000   1.0000   1.0000   1.0000   1.0000

          k = 0.4480 0.6725-0.0329 (  7199 PWs)   bands (ev):

   -10.4991 -10.2147  -9.8316  -9.4504  -9.3037  -8.9224   1.4985   1.7374
     2.1049   2.5384   2.9794   3.4075   3.7459   4.2644   4.7307   5.2481
     5.6937   5.8056   6.0286   6.1828   6.3960   6.4895   6.7226   6.9801

     occupation numbers 
     1.0000   1.0000   1.0000   1.0000   1.0000   1.0000   1.0000   1.0000
     1.0000   1.0000   1.0000   1.0000   1.0000   1.0000   1.0000   1.0000
     1.0000   1.0000   1.0000   1.0000   1.0000   1.0000   1.0000   1.0000

          k = 0.3584 0.6208 0.0000 (  7191 PWs)   bands (ev):

   -10.4616 -10.3346  -9.8052  -9.3829  -9.2608  -8.9590   1.4244   1.7625
     2.1983   2.2194   2.8991   3.4951   3.6788   4.5033   4.6925   5.4206
     5.5345   5.8566   6.0670   6.2879   6.2937   6.5342   6.8186   6.9997

     occupation numbers 
     1.0000   1.0000   1.0000   1.0000   1.0000   1.0000   1.0000   1.0000
     1.0000   1.0000   1.0000   1.0000   1.0000   1.0000   1.0000   1.0000
     1.0000   1.0000   1.0000   1.0000   1.0000   1.0000   1.0000   1.0000

          k =-0.4480 0.2587 0.3293 (  7187 PWs)   bands (ev):

   -10.7768  -9.8129  -9.7550  -9.5826  -9.3599  -8.9132   1.2521   1.6245
     2.4456   2.6817   3.1029   3.5547   3.8222   4.2661   4.7617   5.0210
     5.6580   5.7053   5.9630   5.9908   6.1386   6.5907   6.6384   6.9770

     occupation numbers 
     1.0000   1.0000   1.0000   1.0000   1.0000   1.0000   1.0000   1.0000
     1.0000   1.0000   1.0000   1.0000   1.0000   1.0000   1.0000   1.0000
     1.0000   1.0000   1.0000   1.0000   1.0000   1.0000   1.0000   1.0000

          k = 0.5376 0.8277-0.0329 (  7181 PWs)   bands (ev):

   -10.6401  -9.9185  -9.8389  -9.5669  -9.3589  -8.9084   1.3276   1.6622
     2.5349   2.7338   3.2121   3.3069   3.7671   4.1757   4.7568   5.0425
     5.6204   5.7805   6.0017   6.0311   6.2188   6.4939   6.5925   7.0010

     occupation numbers 
     1.0000   1.0000   1.0000   1.0000   1.0000   1.0000   1.0000   1.0000
     1.0000   1.0000   1.0000   1.0000   1.0000   1.0000   1.0000   1.0000
     1.0000   1.0000   1.0000   1.0000   1.0000   1.0000   1.0000   1.0000

          k = 0.4480 0.7760 0.0000 (  7195 PWs)   bands (ev):

   -10.5367 -10.0090  -9.9333  -9.5153  -9.3394  -8.9064   1.5076   1.6194
     2.3972   2.8591   2.8593   3.3123   3.7968   4.2035   4.6817   5.1325
     5.6979   5.8067   6.0096   6.0808   6.3537   6.5241   6.5577   7.0023

     occupation numbers 
     1.0000   1.0000   1.0000   1.0000   1.0000   1.0000   1.0000   1.0000
     1.0000   1.0000   1.0000   1.0000   1.0000   1.0000   1.0000   1.0000
     1.0000   1.0000   1.0000   1.0000   1.0000   1.0000   1.0000   1.0000

          k = 0.5376-0.3104-0.3951 (  7164 PWs)   bands (ev):

   -10.6076  -9.9797  -9.7700  -9.6051  -9.3685  -8.9111   1.2735   1.7036
     2.7033   2.7555   3.2008   3.4110   3.6179   4.1296   4.8014   5.0199
     5.5749   5.7836   5.9722   6.0156   6.2758   6.3811   6.5771   7.0160

     occupation numbers 
     1.0000   1.0000   1.0000   1.0000   1.0000   1.0000   1.0000   1.0000
     1.0000   1.0000   1.0000   1.0000   1.0000   1.0000   1.0000   1.0000
     1.0000   1.0000   1.0000   1.0000   1.0000   1.0000   1.0000   1.0000

          k = 0.0000 0.0000 0.0988 (  7145 PWs)   bands (ev):

   -11.6840  -9.5544  -9.2565  -9.2565  -8.9629  -8.9629   0.6502   1.5060
     1.9214   1.9214   2.9137   3.1685   3.1685   4.1123   4.4117   5.6927
     5.6927   6.1281   6.1281   6.7932   6.7932   7.1160   7.2125   7.2125

     occupation numbers 
     1.0000   1.0000   1.0000   1.0000   1.0000   1.0000   1.0000   1.0000
     1.0000   1.0000   1.0000   1.0000   1.0000   1.0000   1.0000   1.0000
     1.0000   1.0000   1.0000   1.0000   1.0000   1.0000   1.0000   1.0000

          k =-0.0896-0.0517 0.1317 (  7147 PWs)   bands (ev):

   -11.6305  -9.5923  -9.3092  -9.2370  -9.0068  -8.9451   0.7458   1.4128
     1.8544   2.1458   2.6915   3.2043   3.4309   4.2965   4.5186   5.3818
     5.7500   6.0720   6.1474   6.6937   6.7559   6.9360   7.1836   7.2089

     occupation numbers 
     1.0000   1.0000   1.0000   1.0000   1.0000   1.0000   1.0000   1.0000
     1.0000   1.0000   1.0000   1.0000   1.0000   1.0000   1.0000   1.0000
     1.0000   1.0000   1.0000   1.0000   1.0000   1.0000   1.0000   1.0000

          k =-0.1792-0.1035 0.1646 (  7160 PWs)   bands (ev):

   -11.5108  -9.6659  -9.3893  -9.2316  -9.0757  -8.9335   0.8847   1.3471
     1.6696   2.5051   2.5217   3.2781   3.8539   4.6317   4.6756   5.0903
     5.7699   5.9479   6.0586   6.3121   6.6641   6.8015   7.1290   7.1616

     occupation numbers 
     1.0000   1.0000   1.0000   1.0000   1.0000   1.0000   1.0000   1.0000
     1.0000   1.0000   1.0000   1.0000   1.0000   1.0000   1.0000   1.0000
     1.0000   1.0000   1.0000   1.0000   1.0000   1.0000   1.0000   1.0000

          k =-0.2688-0.1552 0.1976 (  7158 PWs)   bands (ev):

   -11.3296  -9.8375  -9.4207  -9.2320  -9.1568  -8.9354   0.9900   1.4359
     1.4527   2.4725   2.8470   3.5135   4.2265   4.4306   5.0508   5.1901
     5.6143   5.6513   5.9610   5.9843   6.5984   6.7071   7.0370   7.0960

     occupation numbers 
     1.0000   1.0000   1.0000   1.0000   1.0000   1.0000   1.0000   1.0000
     1.0000   1.0000   1.0000   1.0000   1.0000   1.0000   1.0000   1.0000
     1.0000   1.0000   1.0000   1.0000   1.0000   1.0000   1.0000   1.0000

          k =-0.3584-0.2069 0.2305 (  7172 PWs)   bands (ev):

   -11.0949 -10.0946  -9.3970  -9.2368  -9.2280  -8.9570   1.0401   1.2177
     1.7302   2.4942   3.1774   3.8304   3.8394   4.8523   4.9861   5.0627
     5.4332   5.7556   5.7789   6.0236   6.5279   6.5951   6.9414   7.0397

     occupation numbers 
     1.0000   1.0000   1.0000   1.0000   1.0000   1.0000   1.0000   1.0000
     1.0000   1.0000   1.0000   1.0000   1.0000   1.0000   1.0000   1.0000
     1.0000   1.0000   1.0000   1.0000   1.0000   1.0000   1.0000   1.0000

          k = 0.6272 0.3621-0.1317 (  7184 PWs)   bands (ev):

   -10.8185 -10.3911  -9.3491  -9.2994  -9.2126  -8.9999   1.0463   1.0978
     2.0575   2.4443   3.5144   3.5431   4.0724   4.3677   5.0296   5.2876
     5.3395   5.7802   5.9862   6.0955   6.4155   6.4421   6.9117   7.0164

     occupation numbers 
     1.0000   1.0000   1.0000   1.0000   1.0000   1.0000   1.0000   1.0000
     1.0000   1.0000   1.0000   1.0000   1.0000   1.0000   1.0000   1.0000
     1.0000   1.0000   1.0000   1.0000   1.0000   1.0000   1.0000   1.0000

          k = 0.5376 0.3104-0.0988 (  7178 PWs)   bands (ev):

   -10.6950 -10.5159  -9.3627  -9.2655  -9.1832  -9.0600   0.9318   1.1921
     2.1535   2.2903   3.4977   3.8214   3.9169   4.2814   5.0640   5.2123
     5.5643   5.9212   5.9347   5.9948   6.2637   6.5229   6.9491   7.0264

     occupation numbers 
     1.0000   1.0000   1.0000   1.0000   1.0000   1.0000   1.0000   1.0000
     1.0000   1.0000   1.0000   1.0000   1.0000   1.0000   1.0000   1.0000
     1.0000   1.0000   1.0000   1.0000   1.0000   1.0000   1.0000   1.0000

          k = 0.4480 0.2587-0.0659 (  7181 PWs)   bands (ev):

   -10.9824 -10.2075  -9.3868  -9.1919  -9.1567  -9.1145   0.8704   1.3266
     1.7511   2.3412   3.3808   3.5376   4.3048   4.6762   4.9121   5.3552
     5.6250   5.6719   5.8061   5.9371   6.2873   6.6910   7.0184   7.0567

     occupation numbers 
     1.0000   1.0000   1.0000   1.0000   1.0000   1.0000   1.0000   1.0000
     1.0000   1.0000   1.0000   1.0000   1.0000   1.0000   1.0000   1.0000
     1.0000   1.0000   1.0000   1.0000   1.0000   1.0000   1.0000   1.0000

          k = 0.3584 0.2069-0.0329 (  7180 PWs)   bands (ev):

   -11.2352  -9.9186  -9.3878  -9.2161  -9.1208  -9.0755   0.8393   1.4031
     1.4876   2.3105   3.0743   3.3328   4.7111   4.9124   5.0556   5.2605
     5.4548   5.5739   5.7079   5.9636   6.4196   6.7907   7.1034   7.1056

     occupation numbers 
     1.0000   1.0000   1.0000   1.0000   1.0000   1.0000   1.0000   1.0000
     1.0000   1.0000   1.0000   1.0000   1.0000   1.0000   1.0000   1.0000
     1.0000   1.0000   1.0000   1.0000   1.0000   1.0000   1.0000   1.0000

          k = 0.2688 0.1552 0.0000 (  7171 PWs)   bands (ev):

   -11.4399  -9.6811  -9.3674  -9.2785  -9.0608  -9.0205   0.7810   1.2218
     1.6436   2.3420   2.8818   2.9773   4.4514   4.8921   4.9851   5.4182
     5.4297   5.7496   5.9557   6.0480   6.5076   6.8488   7.1663   7.1790

     occupation numbers 
     1.0000   1.0000   1.0000   1.0000   1.0000   1.0000   1.0000   1.0000
     1.0000   1.0000   1.0000   1.0000   1.0000   1.0000   1.0000   1.0000
     1.0000   1.0000   1.0000   1.0000   1.0000   1.0000   1.0000   1.0000

          k = 0.1792 0.1035 0.0329 (  7152 PWs)   bands (ev):

   -11.5867  -9.5425  -9.3318  -9.2988  -9.0158  -8.9749   0.6818   1.2433
     1.7710   2.4845   2.4944   2.9375   3.9515   4.5752   4.6819   5.5913
     5.7222   5.9175   6.0436   6.4733   6.5903   6.9131   7.2142   7.2218

     occupation numbers 
     1.0000   1.0000   1.0000   1.0000   1.0000   1.0000   1.0000   1.0000
     1.0000   1.0000   1.0000   1.0000   1.0000   1.0000   1.0000   1.0000
     1.0000   1.0000   1.0000   1.0000   1.0000   1.0000   1.0000   1.0000

          k =-0.0896 0.0517 0.1646 (  7165 PWs)   bands (ev):

   -11.6019  -9.6347  -9.3044  -9.2359  -9.0241  -8.9445   0.8348   1.4112
     1.9369   2.1194   2.7222   3.1531   3.4810   4.3269   4.5703   5.2732
     5.6281   6.1144   6.1242   6.6923   6.7792   6.8049   7.1454   7.2216

     occupation numbers 
     1.0000   1.0000   1.0000   1.0000   1.0000   1.0000   1.0000   1.0000
     1.0000   1.0000   1.0000   1.0000   1.0000   1.0000   1.0000   1.0000
     1.0000   1.0000   1.0000   1.0000   1.0000   1.0000   1.0000   1.0000

          k =-0.1792 0.0000 0.1976 (  7156 PWs)   bands (ev):

   -11.5067  -9.6854  -9.3776  -9.2252  -9.0905  -8.9301   0.9743   1.3517
     1.8080   2.3968   2.6218   3.2392   3.7183   4.5925   4.6975   5.0126
     5.6431   5.9831   6.0542   6.4373   6.6724   6.7427   7.0823   7.1874

     occupation numbers 
     1.0000   1.0000   1.0000   1.0000   1.0000   1.0000   1.0000   1.0000
     1.0000   1.0000   1.0000   1.0000   1.0000   1.0000   1.0000   1.0000
     1.0000   1.0000   1.0000   1.0000   1.0000   1.0000   1.0000   1.0000

          k =-0.2688-0.0517 0.2305 (  7175 PWs)   bands (ev):

   -11.3488  -9.7865  -9.4622  -9.2181  -9.1777  -8.9187   1.1050   1.3891
     1.5953   2.5522   2.7491   3.4518   4.0523   4.4245   4.9420   5.1417
     5.6114   5.7067   5.8928   6.1569   6.5961   6.6692   7.0013   7.1135

     occupation numbers 
     1.0000   1.0000   1.0000   1.0000   1.0000   1.0000   1.0000   1.0000
     1.0000   1.0000   1.0000   1.0000   1.0000   1.0000   1.0000   1.0000
     1.0000   1.0000   1.0000   1.0000   1.0000   1.0000   1.0000   1.0000

          k =-0.3584-0.1035 0.2634 (  7171 PWs)   bands (ev):

   -11.1353  -9.9881  -9.4828  -9.2717  -9.2087  -8.9229   1.1575   1.3454
     1.6512   2.5731   3.0680   3.6828   3.9163   4.6104   5.0604   5.1168
     5.3805   5.6979   5.8846   5.9863   6.5260   6.6076   6.9154   7.0228

     occupation numbers 
     1.0000   1.0000   1.0000   1.0000   1.0000   1.0000   1.0000   1.0000
     1.0000   1.0000   1.0000   1.0000   1.0000   1.0000   1.0000   1.0000
     1.0000   1.0000   1.0000   1.0000   1.0000   1.0000   1.0000   1.0000

          k = 0.6272 0.4656-0.0988 (  7198 PWs)   bands (ev):

   -10.8765 -10.2579  -9.4525  -9.3498  -9.1963  -8.9497   1.1264   1.2484
     1.9624   2.5741   3.3067   3.4743   4.1063   4.5089   4.9891   5.0446
     5.4328   5.7589   5.9739   6.0497   6.4444   6.5151   6.8546   6.9746

     occupation numbers 
     1.0000   1.0000   1.0000   1.0000   1.0000   1.0000   1.0000   1.0000
     1.0000   1.0000   1.0000   1.0000   1.0000   1.0000   1.0000   1.0000
     1.0000   1.0000   1.0000   1.0000   1.0000   1.0000   1.0000   1.0000

          k = 0.5376 0.4139-0.0659 (  7187 PWs)   bands (ev):

   -10.5872 -10.5514  -9.4336  -9.3680  -9.1722  -8.9994   1.0145   1.3078
     2.2304   2.3332   3.2641   3.7490   3.9662   4.3244   5.0855   5.2146
     5.3579   5.8558   6.0035   6.1130   6.3070   6.5042   6.8763   6.9865

     occupation numbers 
     1.0000   1.0000   1.0000   1.0000   1.0000   1.0000   1.0000   1.0000
     1.0000   1.0000   1.0000   1.0000   1.0000   1.0000   1.0000   1.0000
     1.0000   1.0000   1.0000   1.0000   1.0000   1.0000   1.0000   1.0000

          k = 0.4480 0.3621-0.0329 (  7194 PWs)   bands (ev):

   -10.8398 -10.2860  -9.4614  -9.2984  -9.1394  -9.0637   0.9448   1.4091
     1.8901   2.3625   3.3730   3.4820   4.1522   4.6086   4.9780   5.2701
     5.5247   5.8225   5.8919   5.9710   6.2575   6.6484   6.9502   7.0310

     occupation numbers 
     1.0000   1.0000   1.0000   1.0000   1.0000   1.0000   1.0000   1.0000
     1.0000   1.0000   1.0000   1.0000   1.0000   1.0000   1.0000   1.0000
     1.0000   1.0000   1.0000   1.0000   1.0000   1.0000   1.0000   1.0000

          k = 0.3584 0.3104 0.0000 (  7204 PWs)   bands (ev):

   -11.1015  -9.9986  -9.4668  -9.2176  -9.1627  -9.0722   0.9156   1.4635
     1.5675   2.3315   3.1376   3.3804   4.6065   4.8522   4.9932   5.3672
     5.4249   5.6164   5.7102   5.9551   6.3502   6.7454   7.0390   7.0923

     occupation numbers 
     1.0000   1.0000   1.0000   1.0000   1.0000   1.0000   1.0000   1.0000
     1.0000   1.0000   1.0000   1.0000   1.0000   1.0000   1.0000   1.0000
     1.0000   1.0000   1.0000   1.0000   1.0000   1.0000   1.0000   1.0000

          k = 0.2688 0.2587 0.0329 (  7188 PWs)   bands (ev):

   -11.3211  -9.7573  -9.4402  -9.2384  -9.1412  -9.0235   0.8824   1.2399
     1.6449   2.3258   2.9393   3.1323   4.7069   4.9987   5.0936   5.2782
     5.3615   5.5457   5.8208   6.0158   6.4421   6.7818   7.1178   7.1622

     occupation numbers 
     1.0000   1.0000   1.0000   1.0000   1.0000   1.0000   1.0000   1.0000
     1.0000   1.0000   1.0000   1.0000   1.0000   1.0000   1.0000   1.0000
     1.0000   1.0000   1.0000   1.0000   1.0000   1.0000   1.0000   1.0000

          k = 0.1792 0.2069 0.0659 (  7172 PWs)   bands (ev):

   -11.4870  -9.6060  -9.3817  -9.2925  -9.0781  -8.9773   0.7923   1.2036
     1.7176   2.4143   2.7305   2.9386   4.2564   4.7950   4.9208   5.3360
     5.6680   5.6949   6.0518   6.2087   6.5453   6.8010   7.1641   7.2146

     occupation numbers 
     1.0000   1.0000   1.0000   1.0000   1.0000   1.0000   1.0000   1.0000
     1.0000   1.0000   1.0000   1.0000   1.0000   1.0000   1.0000   1.0000
     1.0000   1.0000   1.0000   1.0000   1.0000   1.0000   1.0000   1.0000

          k =-0.1792 0.1035 0.2305 (  7168 PWs)   bands (ev):

   -11.4372  -9.7237  -9.3898  -9.2374  -9.1547  -8.9250   1.1055   1.3166
     1.9167   2.4279   2.6833   3.1950   3.7991   4.7147   4.8242   4.8901
     5.5023   5.9046   5.9813   6.4393   6.4708   6.7648   7.0168   7.1575

     occupation numbers 
     1.0000   1.0000   1.0000   1.0000   1.0000   1.0000   1.0000   1.0000
     1.0000   1.0000   1.0000   1.0000   1.0000   1.0000   1.0000   1.0000
     1.0000   1.0000   1.0000   1.0000   1.0000   1.0000   1.0000   1.0000

          k =-0.2688 0.0517 0.2634 (  7185 PWs)   bands (ev):

   -11.3055  -9.7788  -9.4657  -9.2574  -9.2285  -8.9140   1.2518   1.3201
     1.8208   2.6316   2.7093   3.3595   3.9837   4.4969   4.9413   5.1506
     5.3985   5.7253   5.8212   6.2926   6.4010   6.7185   6.9356   7.0909

     occupation numbers 
     1.0000   1.0000   1.0000   1.0000   1.0000   1.0000   1.0000   1.0000
     1.0000   1.0000   1.0000   1.0000   1.0000   1.0000   1.0000   1.0000
     1.0000   1.0000   1.0000   1.0000   1.0000   1.0000   1.0000   1.0000

          k =-0.3584 0.0000 0.2963 (  7182 PWs)   bands (ev):

   -11.1175  -9.8988  -9.5350  -9.3627  -9.2198  -8.9063   1.2967   1.4798
     1.6724   2.6671   2.9916   3.5528   3.9722   4.4647   5.0055   5.0859
     5.4029   5.6780   5.7953   6.1506   6.3493   6.6698   6.8598   7.0012

     occupation numbers 
     1.0000   1.0000   1.0000   1.0000   1.0000   1.0000   1.0000   1.0000
     1.0000   1.0000   1.0000   1.0000   1.0000   1.0000   1.0000   1.0000
     1.0000   1.0000   1.0000   1.0000   1.0000   1.0000   1.0000   1.0000

          k = 0.6272 0.5691-0.0659 (  7196 PWs)   bands (ev):

   -10.8830 -10.1131  -9.5416  -9.4568  -9.2051  -8.9152   1.2706   1.5295
     1.8004   2.7020   3.2113   3.3726   4.0800   4.5195   4.7758   5.0157
     5.4805   5.8154   5.9612   6.0145   6.3641   6.6031   6.8296   6.9067

     occupation numbers 
     1.0000   1.0000   1.0000   1.0000   1.0000   1.0000   1.0000   1.0000
     1.0000   1.0000   1.0000   1.0000   1.0000   1.0000   1.0000   1.0000
     1.0000   1.0000   1.0000   1.0000   1.0000   1.0000   1.0000   1.0000

          k = 0.5376 0.5173-0.0329 (  7200 PWs)   bands (ev):

   -10.6165 -10.3786  -9.5570  -9.4721  -9.1814  -8.9489   1.1909   1.5440
     2.0952   2.5219   3.0481   3.5810   4.0001   4.3379   4.8872   5.1894
     5.4255   5.8658   5.9515   6.1862   6.3640   6.5329   6.8172   6.9126

     occupation numbers 
     1.0000   1.0000   1.0000   1.0000   1.0000   1.0000   1.0000   1.0000
     1.0000   1.0000   1.0000   1.0000   1.0000   1.0000   1.0000   1.0000
     1.0000   1.0000   1.0000   1.0000   1.0000   1.0000   1.0000   1.0000

          k = 0.4480 0.4656 0.0000 (  7203 PWs)   bands (ev):

   -10.6557 -10.3377  -9.5960  -9.4050  -9.1465  -9.0075   1.1241   1.5855
     2.0333   2.3811   3.0804   3.5181   3.9424   4.6094   4.8801   5.2906
     5.4341   5.9009   5.9453   6.1042   6.3000   6.6102   6.8729   6.9825

     occupation numbers 
     1.0000   1.0000   1.0000   1.0000   1.0000   1.0000   1.0000   1.0000
     1.0000   1.0000   1.0000   1.0000   1.0000   1.0000   1.0000   1.0000
     1.0000   1.0000   1.0000   1.0000   1.0000   1.0000   1.0000   1.0000

          k = 0.3584 0.4139 0.0329 (  7205 PWs)   bands (ev):

   -10.9173 -10.0770  -9.5949  -9.3209  -9.1134  -9.0732   1.0922   1.5254
     1.7323   2.3763   3.1796   3.2589   4.3376   4.7995   4.8728   5.2737
     5.5876   5.7284   5.8606   5.9423   6.3400   6.6933   6.9616   7.0609

     occupation numbers 
     1.0000   1.0000   1.0000   1.0000   1.0000   1.0000   1.0000   1.0000
     1.0000   1.0000   1.0000   1.0000   1.0000   1.0000   1.0000   1.0000
     1.0000   1.0000   1.0000   1.0000   1.0000   1.0000   1.0000   1.0000

          k = 0.2688 0.3621 0.0659 (  7195 PWs)   bands (ev):

   -11.1451  -9.8762  -9.5329  -9.2361  -9.1837  -9.0394   1.0617   1.2874
     1.6716   2.3421   2.9787   3.3132   4.7019   4.8288   5.0606   5.1956
     5.4564   5.5960   5.8229   5.9422   6.3934   6.7253   7.0453   7.1298

     occupation numbers 
     1.0000   1.0000   1.0000   1.0000   1.0000   1.0000   1.0000   1.0000
     1.0000   1.0000   1.0000   1.0000   1.0000   1.0000   1.0000   1.0000
     1.0000   1.0000   1.0000   1.0000   1.0000   1.0000   1.0000   1.0000

          k = 0.1792 0.3104 0.0988 (  7183 PWs)   bands (ev):

   -11.3256  -9.7568  -9.4216  -9.2674  -9.1603  -8.9892   0.9466   1.2333
     1.6290   2.3611   2.8905   3.1834   4.6228   4.8412   5.0545   5.2873
     5.3820   5.5603   5.9519   6.0273   6.4800   6.7298   7.0939   7.1770

     occupation numbers 
     1.0000   1.0000   1.0000   1.0000   1.0000   1.0000   1.0000   1.0000
     1.0000   1.0000   1.0000   1.0000   1.0000   1.0000   1.0000   1.0000
     1.0000   1.0000   1.0000   1.0000   1.0000   1.0000   1.0000   1.0000

          k =-0.2688 0.1552 0.2963 (  7186 PWs)   bands (ev):

   -11.2016  -9.8017  -9.4869  -9.3588  -9.2543  -8.9115   1.2893   1.3900
     1.9891   2.7017   2.7333   3.4080   4.0356   4.4188   5.0006   5.0987
     5.3723   5.6503   5.7836   6.1673   6.3447   6.7084   6.8939   6.9996

     occupation numbers 
     1.0000   1.0000   1.0000   1.0000   1.0000   1.0000   1.0000   1.0000
     1.0000   1.0000   1.0000   1.0000   1.0000   1.0000   1.0000   1.0000
     1.0000   1.0000   1.0000   1.0000   1.0000   1.0000   1.0000   1.0000

          k =-0.3584 0.1035 0.3293 (  7186 PWs)   bands (ev):

   -11.0431  -9.8546  -9.5584  -9.4784  -9.2508  -8.9048   1.3354   1.4985
     1.9768   2.7504   2.9313   3.5324   4.0259   4.3376   4.8010   5.1342
     5.4524   5.6903   5.7644   6.0831   6.2759   6.6706   6.8369   6.9176

     occupation numbers 
     1.0000   1.0000   1.0000   1.0000   1.0000   1.0000   1.0000   1.0000
     1.0000   1.0000   1.0000   1.0000   1.0000   1.0000   1.0000   1.0000
     1.0000   1.0000   1.0000   1.0000   1.0000   1.0000   1.0000   1.0000

          k = 0.6272 0.6725-0.0329 (  7194 PWs)   bands (ev):

   -10.8398  -9.9831  -9.6343  -9.5643  -9.2332  -8.9020   1.4149   1.6091
     1.9135   2.8026   3.1960   3.3098   4.0416   4.3714   4.6529   5.0509
     5.4765   5.7912   5.9449   6.1244   6.1863   6.6141   6.8026   6.8600

     occupation numbers 
     1.0000   1.0000   1.0000   1.0000   1.0000   1.0000   1.0000   1.0000
     1.0000   1.0000   1.0000   1.0000   1.0000   1.0000   1.0000   1.0000
     1.0000   1.0000   1.0000   1.0000   1.0000   1.0000   1.0000   1.0000

          k = 0.5376 0.6208 0.0000 (  7204 PWs)   bands (ev):

   -10.6082 -10.1947  -9.7134  -9.5557  -9.2080  -8.9175   1.4058   1.8045
     1.9107   2.7446   2.9577   3.4030   3.9603   4.3160   4.7012   5.1374
     5.5205   5.8523   5.9864   6.1451   6.3622   6.5402   6.7556   6.8831

     occupation numbers 
     1.0000   1.0000   1.0000   1.0000   1.0000   1.0000   1.0000   1.0000
     1.0000   1.0000   1.0000   1.0000   1.0000   1.0000   1.0000   1.0000
     1.0000   1.0000   1.0000   1.0000   1.0000   1.0000   1.0000   1.0000

          k = 0.4480 0.5691 0.0329 (  7195 PWs)   bands (ev):

   -10.4453 -10.3732  -9.7525  -9.4969  -9.1727  -8.9602   1.3559   1.8083
     2.0819   2.3850   2.9187   3.5639   3.6815   4.4931   4.7423   5.3546
     5.4748   5.8743   5.9739   6.2699   6.3172   6.5478   6.8065   6.9422

     occupation numbers 
     1.0000   1.0000   1.0000   1.0000   1.0000   1.0000   1.0000   1.0000
     1.0000   1.0000   1.0000   1.0000   1.0000   1.0000   1.0000   1.0000
     1.0000   1.0000   1.0000   1.0000   1.0000   1.0000   1.0000   1.0000

          k = 0.3584 0.5173 0.0659 (  7207 PWs)   bands (ev):

   -10.6937 -10.1847  -9.7133  -9.4161  -9.1268  -9.0301   1.3139   1.6185
     1.9302   2.3850   3.0237   3.3092   3.9953   4.4814   4.9408   5.3389
     5.5839   5.8444   5.9485   6.0992   6.3427   6.6228   6.8951   7.0141

     occupation numbers 
     1.0000   1.0000   1.0000   1.0000   1.0000   1.0000   1.0000   1.0000
     1.0000   1.0000   1.0000   1.0000   1.0000   1.0000   1.0000   1.0000
     1.0000   1.0000   1.0000   1.0000   1.0000   1.0000   1.0000   1.0000

          k = 0.2688 0.4656 0.0988 (  7193 PWs)   bands (ev):

   -10.9211 -10.0680  -9.5865  -9.3286  -9.1250  -9.0689   1.2338   1.3924
     1.7400   2.3861   3.1417   3.2921   4.3388   4.4870   4.9943   5.3593
     5.6028   5.7697   5.8643   5.9629   6.3693   6.6707   6.9749   7.0688

     occupation numbers 
     1.0000   1.0000   1.0000   1.0000   1.0000   1.0000   1.0000   1.0000
     1.0000   1.0000   1.0000   1.0000   1.0000   1.0000   1.0000   1.0000
     1.0000   1.0000   1.0000   1.0000   1.0000   1.0000   1.0000   1.0000

          k = 0.1792 0.4139 0.1317 (  7197 PWs)   bands (ev):

   -11.1099  -9.9887  -9.4352  -9.2483  -9.2223  -9.0152   1.0536   1.3535
     1.5912   2.3755   3.0870   3.4307   4.4015   4.7497   5.0764   5.1813
     5.4562   5.6980   5.8756   5.9604   6.4241   6.6835   7.0237   7.1017

     occupation numbers 
     1.0000   1.0000   1.0000   1.0000   1.0000   1.0000   1.0000   1.0000
     1.0000   1.0000   1.0000   1.0000   1.0000   1.0000   1.0000   1.0000
     1.0000   1.0000   1.0000   1.0000   1.0000   1.0000   1.0000   1.0000

          k =-0.3584 0.2069 0.3622 (  7189 PWs)   bands (ev):

   -10.9183  -9.8547  -9.6566  -9.5347  -9.2760  -8.9068   1.3036   1.6033
     2.2187   2.7705   2.9793   3.6363   4.0053   4.1586   4.6734   5.1002
     5.5712   5.7496   5.8051   5.8799   6.2656   6.6370   6.7683   6.8771

     occupation numbers 
     1.0000   1.0000   1.0000   1.0000   1.0000   1.0000   1.0000   1.0000
     1.0000   1.0000   1.0000   1.0000   1.0000   1.0000   1.0000   1.0000
     1.0000   1.0000   1.0000   1.0000   1.0000   1.0000   1.0000   1.0000

          k = 0.6272 0.7760 0.0000 (  7190 PWs)   bands (ev):

   -10.7557  -9.8999  -9.7819  -9.5845  -9.2705  -8.9048   1.3588   1.6544
     2.2880   2.7942   3.1649   3.4506   3.9490   4.1321   4.6644   5.0482
     5.5253   5.7847   5.9179   6.0284   6.1872   6.5692   6.6752   6.9087

     occupation numbers 
     1.0000   1.0000   1.0000   1.0000   1.0000   1.0000   1.0000   1.0000
     1.0000   1.0000   1.0000   1.0000   1.0000   1.0000   1.0000   1.0000
     1.0000   1.0000   1.0000   1.0000   1.0000   1.0000   1.0000   1.0000

          k = 0.5376 0.7243 0.0329 (  7202 PWs)   bands (ev):

   -10.5799 -10.0264  -9.8677  -9.6009  -9.2457  -8.9076   1.5070   1.6416
     2.2654   2.8452   3.0051   3.3070   3.9045   4.1657   4.6962   5.0997
     5.5374   5.8361   6.0232   6.0785   6.3058   6.5245   6.6163   6.9402

     occupation numbers 
     1.0000   1.0000   1.0000   1.0000   1.0000   1.0000   1.0000   1.0000
     1.0000   1.0000   1.0000   1.0000   1.0000   1.0000   1.0000   1.0000
     1.0000   1.0000   1.0000   1.0000   1.0000   1.0000   1.0000   1.0000

          k = 0.4480 0.6725 0.0659 (  7202 PWs)   bands (ev):

   -10.4362 -10.2231  -9.8679  -9.5619  -9.2109  -8.9311   1.5539   1.7331
     2.1806   2.4992   2.9877   3.4027   3.7185   4.1925   4.8120   5.2624
     5.6022   5.8591   5.9841   6.1698   6.4174   6.4939   6.6974   6.9603

     occupation numbers 
     1.0000   1.0000   1.0000   1.0000   1.0000   1.0000   1.0000   1.0000
     1.0000   1.0000   1.0000   1.0000   1.0000   1.0000   1.0000   1.0000
     1.0000   1.0000   1.0000   1.0000   1.0000   1.0000   1.0000   1.0000

          k = 0.3584 0.6208 0.0988 (  7204 PWs)   bands (ev):

   -10.4471 -10.3589  -9.7565  -9.4911  -9.1663  -8.9842   1.4663   1.7077
     2.1599   2.2049   3.0614   3.5367   3.6338   4.1338   5.0307   5.4065
     5.5485   5.8590   6.0136   6.1868   6.3929   6.5164   6.8502   6.9764

     occupation numbers 
     1.0000   1.0000   1.0000   1.0000   1.0000   1.0000   1.0000   1.0000
     1.0000   1.0000   1.0000   1.0000   1.0000   1.0000   1.0000   1.0000
     1.0000   1.0000   1.0000   1.0000   1.0000   1.0000   1.0000   1.0000

          k = 0.2688 0.5691 0.1317 (  7201 PWs)   bands (ev):

   -10.6621 -10.3184  -9.5859  -9.4072  -9.1133  -9.0659   1.3162   1.4656
     1.9676   2.3220   3.2318   3.4562   3.8994   4.1220   5.1366   5.3405
     5.6938   5.8016   5.9692   6.0997   6.3716   6.5780   6.9347   7.0058

     occupation numbers 
     1.0000   1.0000   1.0000   1.0000   1.0000   1.0000   1.0000   1.0000
     1.0000   1.0000   1.0000   1.0000   1.0000   1.0000   1.0000   1.0000
     1.0000   1.0000   1.0000   1.0000   1.0000   1.0000   1.0000   1.0000

          k = 0.1792 0.5173 0.1646 (  7202 PWs)   bands (ev):

   -10.8508 -10.2677  -9.4232  -9.3257  -9.1677  -9.0564   1.1207   1.3024
     1.8532   2.3776   3.3893   3.4942   4.0240   4.3345   5.0083   5.4118
     5.5481   5.8612   5.8935   6.0323   6.3614   6.5976   6.9833   7.0258

     occupation numbers 
     1.0000   1.0000   1.0000   1.0000   1.0000   1.0000   1.0000   1.0000
     1.0000   1.0000   1.0000   1.0000   1.0000   1.0000   1.0000   1.0000
     1.0000   1.0000   1.0000   1.0000   1.0000   1.0000   1.0000   1.0000

          k = 0.6272-0.3621-0.3622 (  7192 PWs)   bands (ev):

   -10.6522  -9.9097  -9.8737  -9.5870  -9.2938  -8.9107   1.2913   1.7309
     2.5473   2.7457   3.1953   3.5768   3.6915   4.0791   4.7242   5.0221
     5.5952   5.7249   5.8827   6.1191   6.1556   6.4981   6.5788   6.9566

     occupation numbers 
     1.0000   1.0000   1.0000   1.0000   1.0000   1.0000   1.0000   1.0000
     1.0000   1.0000   1.0000   1.0000   1.0000   1.0000   1.0000   1.0000
     1.0000   1.0000   1.0000   1.0000   1.0000   1.0000   1.0000   1.0000

          k = 0.5376-0.4139-0.3293 (  7190 PWs)   bands (ev):

   -10.5739  -9.9569  -9.9067  -9.6052  -9.2839  -8.9130   1.3259   1.7280
     2.5861   2.6885   3.2457   3.2992   3.7534   4.1240   4.7778   5.0531
     5.5666   5.7902   5.9649   6.0335   6.3572   6.3802   6.5729   6.9839

     occupation numbers 
     1.0000   1.0000   1.0000   1.0000   1.0000   1.0000   1.0000   1.0000
     1.0000   1.0000   1.0000   1.0000   1.0000   1.0000   1.0000   1.0000
     1.0000   1.0000   1.0000   1.0000   1.0000   1.0000   1.0000   1.0000

          k = 0.4480-0.4656-0.2963 (  7195 PWs)   bands (ev):

   -10.5609 -10.0241  -9.8793  -9.5923  -9.2531  -8.9221   1.4536   1.6560
     2.3625   2.5775   3.1380   3.3395   3.7793   4.1002   4.8737   5.1518
     5.6577   5.8250   5.9516   6.0752   6.3256   6.5446   6.6209   6.9850

     occupation numbers 
     1.0000   1.0000   1.0000   1.0000   1.0000   1.0000   1.0000   1.0000
     1.0000   1.0000   1.0000   1.0000   1.0000   1.0000   1.0000   1.0000
     1.0000   1.0000   1.0000   1.0000   1.0000   1.0000   1.0000   1.0000

          k = 0.3584-0.5173-0.2634 (  7202 PWs)   bands (ev):

   -10.5822 -10.1967  -9.7211  -9.5379  -9.2120  -8.9544   1.5089   1.6148
     2.0337   2.4366   3.2437   3.3596   3.8200   3.9782   5.0288   5.2919
     5.6639   5.8458   5.9640   6.1179   6.3824   6.5204   6.8188   6.9671

     occupation numbers 
     1.0000   1.0000   1.0000   1.0000   1.0000   1.0000   1.0000   1.0000
     1.0000   1.0000   1.0000   1.0000   1.0000   1.0000   1.0000   1.0000
     1.0000   1.0000   1.0000   1.0000   1.0000   1.0000   1.0000   1.0000

          k = 0.2688-0.5691-0.2305 (  7220 PWs)   bands (ev):

   -10.5903 -10.3858  -9.5428  -9.4629  -9.1631  -9.0180   1.3571   1.4537
     2.0390   2.2926   3.3894   3.4831   3.8509   3.8969   5.1428   5.3669
     5.6153   5.8634   6.0084   6.0940   6.4479   6.4853   6.9352   6.9650

     occupation numbers 
     1.0000   1.0000   1.0000   1.0000   1.0000   1.0000   1.0000   1.0000
     1.0000   1.0000   1.0000   1.0000   1.0000   1.0000   1.0000   1.0000
     1.0000   1.0000   1.0000   1.0000   1.0000   1.0000   1.0000   1.0000

          k = 0.1792-0.6208-0.1976 (  7206 PWs)   bands (ev):

   -10.5635 -10.5635  -9.3860  -9.3860  -9.1095  -9.1095   1.2014   1.2014
     2.1898   2.1898   3.5840   3.5840   3.9151   3.9151   5.2073   5.2073
     5.7741   5.7741   6.0324   6.0324   6.4420   6.4420   6.9854   6.9854

     occupation numbers 
     1.0000   1.0000   1.0000   1.0000   1.0000   1.0000   1.0000   1.0000
     1.0000   1.0000   1.0000   1.0000   1.0000   1.0000   1.0000   1.0000
     1.0000   1.0000   1.0000   1.0000   1.0000   1.0000   1.0000   1.0000

          k = 0.5376-0.3104-0.2963 (  7186 PWs)   bands (ev):

   -10.6320  -9.9266  -9.8552  -9.5927  -9.3026  -8.9213   1.2299   1.7350
     2.5359   2.6879   3.2361   3.5396   3.5572   4.2561   4.8324   5.0288
     5.6013   5.7381   5.9495   6.0497   6.1804   6.5129   6.5649   6.9979

     occupation numbers 
     1.0000   1.0000   1.0000   1.0000   1.0000   1.0000   1.0000   1.0000
     1.0000   1.0000   1.0000   1.0000   1.0000   1.0000   1.0000   1.0000
     1.0000   1.0000   1.0000   1.0000   1.0000   1.0000   1.0000   1.0000

          k = 0.4480-0.3621-0.2634 (  7188 PWs)   bands (ev):

   -10.7265  -9.8768  -9.8006  -9.5841  -9.2886  -8.9273   1.2448   1.6549
     2.3290   2.6008   3.2049   3.4008   3.8334   4.3347   4.8743   5.0485
     5.7014   5.7348   5.9030   6.0285   6.1996   6.5645   6.6786   6.9881

     occupation numbers 
     1.0000   1.0000   1.0000   1.0000   1.0000   1.0000   1.0000   1.0000
     1.0000   1.0000   1.0000   1.0000   1.0000   1.0000   1.0000   1.0000
     1.0000   1.0000   1.0000   1.0000   1.0000   1.0000   1.0000   1.0000

          k = 0.3584-0.4139-0.2305 (  7198 PWs)   bands (ev):

   -10.8089  -9.9727  -9.6382  -9.5481  -9.2552  -8.9429   1.3446   1.5128
     2.0074   2.5405   3.1763   3.3527   4.0255   4.3066   4.9455   5.1349
     5.7004   5.8093   5.9342   5.9827   6.2941   6.5784   6.8444   6.9737

     occupation numbers 
     1.0000   1.0000   1.0000   1.0000   1.0000   1.0000   1.0000   1.0000
     1.0000   1.0000   1.0000   1.0000   1.0000   1.0000   1.0000   1.0000
     1.0000   1.0000   1.0000   1.0000   1.0000   1.0000   1.0000   1.0000

          k = 0.2688-0.4656-0.1976 (  7214 PWs)   bands (ev):

   -10.8538 -10.1152  -9.4986  -9.4599  -9.2136  -8.9841   1.3236   1.4196
     1.7836   2.4589   3.2391   3.3881   4.0549   4.3191   4.9912   5.2951
     5.5954   5.8969   5.9275   5.9830   6.3800   6.5824   6.9555   6.9853

     occupation numbers 
     1.0000   1.0000   1.0000   1.0000   1.0000   1.0000   1.0000   1.0000
     1.0000   1.0000   1.0000   1.0000   1.0000   1.0000   1.0000   1.0000
     1.0000   1.0000   1.0000   1.0000   1.0000   1.0000   1.0000   1.0000

          k = 0.4480-0.2587-0.2305 (  7181 PWs)   bands (ev):

   -10.8858  -9.8014  -9.6806  -9.5498  -9.3023  -8.9361   1.1452   1.5695
     2.1870   2.5653   3.0873   3.4403   4.1155   4.5717   4.8346   4.9968
     5.6428   5.7551   5.8550   5.9740   6.2066   6.5829   6.7939   6.9801

     occupation numbers 
     1.0000   1.0000   1.0000   1.0000   1.0000   1.0000   1.0000   1.0000
     1.0000   1.0000   1.0000   1.0000   1.0000   1.0000   1.0000   1.0000
     1.0000   1.0000   1.0000   1.0000   1.0000   1.0000   1.0000   1.0000

          k = 0.3584-0.3104-0.1976 (  7203 PWs)   bands (ev):

   -11.0110  -9.8062  -9.5643  -9.4867  -9.2869  -8.9452   1.1535   1.4282
     1.9809   2.5000   3.0169   3.3862   4.3829   4.6651   4.8508   5.0305
     5.5850   5.7008   5.8571   6.0396   6.2664   6.6071   6.9201   6.9915

     occupation numbers 
     1.0000   1.0000   1.0000   1.0000   1.0000   1.0000   1.0000   1.0000
     1.0000   1.0000   1.0000   1.0000   1.0000   1.0000   1.0000   1.0000
     1.0000   1.0000   1.0000   1.0000   1.0000   1.0000   1.0000   1.0000

          k = 0.2688-0.3621-0.1646 (  7202 PWs)   bands (ev):

   -11.0881  -9.8791  -9.4971  -9.3633  -9.2565  -8.9669   1.2083   1.2868
     1.7471   2.4374   3.0115   3.3702   4.4358   4.7345   4.9683   5.0832
     5.4972   5.6980   5.9249   5.9944   6.3768   6.6304   6.9914   7.0596

     occupation numbers 
     1.0000   1.0000   1.0000   1.0000   1.0000   1.0000   1.0000   1.0000
     1.0000   1.0000   1.0000   1.0000   1.0000   1.0000   1.0000   1.0000
     1.0000   1.0000   1.0000   1.0000   1.0000   1.0000   1.0000   1.0000

          k = 0.3584-0.2069-0.1646 (  7177 PWs)   bands (ev):

   -11.1711  -9.7200  -9.5155  -9.3686  -9.2976  -8.9526   1.0528   1.3161
     1.9011   2.4626   2.9007   3.3012   4.5738   4.8747   4.8979   5.1492
     5.4489   5.4752   5.8633   6.2160   6.2166   6.6547   7.0149   7.0216

     occupation numbers 
     1.0000   1.0000   1.0000   1.0000   1.0000   1.0000   1.0000   1.0000
     1.0000   1.0000   1.0000   1.0000   1.0000   1.0000   1.0000   1.0000
     1.0000   1.0000   1.0000   1.0000   1.0000   1.0000   1.0000   1.0000

          k = 0.2688-0.2587-0.1317 (  7183 PWs)   bands (ev):

   -11.2780  -9.7100  -9.4688  -9.2874  -9.2523  -8.9633   1.0156   1.2231
     1.7723   2.4170   2.8653   3.1983   4.5445   4.9264   5.0875   5.2471
     5.3847   5.3958   5.9433   6.1115   6.3880   6.6934   7.0568   7.1188

     occupation numbers 
     1.0000   1.0000   1.0000   1.0000   1.0000   1.0000   1.0000   1.0000
     1.0000   1.0000   1.0000   1.0000   1.0000   1.0000   1.0000   1.0000
     1.0000   1.0000   1.0000   1.0000   1.0000   1.0000   1.0000   1.0000

          k = 0.2688-0.1552-0.0988 (  7169 PWs)   bands (ev):

   -11.4132  -9.6255  -9.4218  -9.2958  -9.1533  -8.9669   0.8766   1.1940
     1.7669   2.4241   2.7869   3.0031   4.3321   4.9920   5.0701   5.2134
     5.4796   5.5883   5.9730   6.1927   6.4502   6.7752   7.1204   7.1635

     occupation numbers 
     1.0000   1.0000   1.0000   1.0000   1.0000   1.0000   1.0000   1.0000
     1.0000   1.0000   1.0000   1.0000   1.0000   1.0000   1.0000   1.0000
     1.0000   1.0000   1.0000   1.0000   1.0000   1.0000   1.0000   1.0000

          k = 0.0000 0.0000 0.1976 (  7160 PWs)   bands (ev):

   -11.5973  -9.7000  -9.2447  -9.2447  -8.9813  -8.9813   0.9198   1.5251
     2.0020   2.0020   2.7136   3.3164   3.3164   4.2346   4.5044   5.3480
     5.3480   6.1741   6.1741   6.7064   6.7918   6.7918   7.1962   7.1962

     occupation numbers 
     1.0000   1.0000   1.0000   1.0000   1.0000   1.0000   1.0000   1.0000
     1.0000   1.0000   1.0000   1.0000   1.0000   1.0000   1.0000   1.0000
     1.0000   1.0000   1.0000   1.0000   1.0000   1.0000   1.0000   1.0000

          k =-0.0896-0.0517 0.2305 (  7165 PWs)   bands (ev):

   -11.5258  -9.7582  -9.3211  -9.2000  -9.0493  -8.9469   1.0577   1.4669
     1.8942   2.2371   2.6433   3.4113   3.4344   4.4277   4.5864   4.9953
     5.4586   6.1063   6.1327   6.4764   6.7164   6.7708   7.1494   7.1652

     occupation numbers 
     1.0000   1.0000   1.0000   1.0000   1.0000   1.0000   1.0000   1.0000
     1.0000   1.0000   1.0000   1.0000   1.0000   1.0000   1.0000   1.0000
     1.0000   1.0000   1.0000   1.0000   1.0000   1.0000   1.0000   1.0000

          k =-0.1792-0.1035 0.2634 (  7176 PWs)   bands (ev):

   -11.3902  -9.8209  -9.4443  -9.1741  -9.1370  -8.9211   1.2048   1.4493
     1.6480   2.6011   2.6193   3.5398   3.7391   4.4075   4.7828   4.9487
     5.5952   5.8262   5.9986   6.2078   6.6186   6.6888   7.0725   7.0768

     occupation numbers 
     1.0000   1.0000   1.0000   1.0000   1.0000   1.0000   1.0000   1.0000
     1.0000   1.0000   1.0000   1.0000   1.0000   1.0000   1.0000   1.0000
     1.0000   1.0000   1.0000   1.0000   1.0000   1.0000   1.0000   1.0000

          k =-0.2688-0.1552 0.2963 (  7184 PWs)   bands (ev):

   -11.1961  -9.9422  -9.5443  -9.2305  -9.1606  -8.9112   1.2653   1.3908
     1.6273   2.6444   2.9645   3.7776   3.7941   4.3109   5.0697   5.1694
     5.3203   5.7350   5.8979   5.9696   6.5215   6.6294   6.9510   6.9890

     occupation numbers 
     1.0000   1.0000   1.0000   1.0000   1.0000   1.0000   1.0000   1.0000
     1.0000   1.0000   1.0000   1.0000   1.0000   1.0000   1.0000   1.0000
     1.0000   1.0000   1.0000   1.0000   1.0000   1.0000   1.0000   1.0000

          k = 0.7168 0.4139-0.0659 (  7180 PWs)   bands (ev):

   -10.9527 -10.1630  -9.5605  -9.3171  -9.1495  -8.9252   1.1770   1.2991
     1.9251   2.6999   3.2970   3.3276   4.1265   4.7244   4.7386   5.0688
     5.3409   5.7349   5.9274   6.0085   6.4247   6.5749   6.8218   6.9347

     occupation numbers 
     1.0000   1.0000   1.0000   1.0000   1.0000   1.0000   1.0000   1.0000
     1.0000   1.0000   1.0000   1.0000   1.0000   1.0000   1.0000   1.0000
     1.0000   1.0000   1.0000   1.0000   1.0000   1.0000   1.0000   1.0000

          k = 0.6272 0.3621-0.0329 (  7172 PWs)   bands (ev):

   -10.6727 -10.4390  -9.5196  -9.3841  -9.1342  -8.9656   1.0244   1.3597
     2.2219   2.5136   3.1660   3.5973   4.1652   4.4321   5.0621   5.0883
     5.2679   5.6874   6.0398   6.1775   6.3093   6.4773   6.8100   6.9323

     occupation numbers 
     1.0000   1.0000   1.0000   1.0000   1.0000   1.0000   1.0000   1.0000
     1.0000   1.0000   1.0000   1.0000   1.0000   1.0000   1.0000   1.0000
     1.0000   1.0000   1.0000   1.0000   1.0000   1.0000   1.0000   1.0000

          k = 0.5376 0.3104 0.0000 (  7185 PWs)   bands (ev):

   -10.7254 -10.3735  -9.4719  -9.4024  -9.1177  -9.0225   0.9361   1.4551
     2.0648   2.3824   3.3241   3.6644   3.9256   4.7144   5.0110   5.2075
     5.2960   5.8004   5.9618   6.0917   6.1903   6.5808   6.8925   6.9720

     occupation numbers 
     1.0000   1.0000   1.0000   1.0000   1.0000   1.0000   1.0000   1.0000
     1.0000   1.0000   1.0000   1.0000   1.0000   1.0000   1.0000   1.0000
     1.0000   1.0000   1.0000   1.0000   1.0000   1.0000   1.0000   1.0000

          k = 0.4480 0.2587 0.0329 (  7201 PWs)   bands (ev):

   -10.9949 -10.0773  -9.4700  -9.3315  -9.1498  -9.0392   0.9047   1.5755
     1.6388   2.3754   3.2644   3.4126   4.3870   4.9171   4.9248   5.3324
     5.3675   5.6953   5.7096   6.0592   6.2288   6.6984   6.9875   7.0298

     occupation numbers 
     1.0000   1.0000   1.0000   1.0000   1.0000   1.0000   1.0000   1.0000
     1.0000   1.0000   1.0000   1.0000   1.0000   1.0000   1.0000   1.0000
     1.0000   1.0000   1.0000   1.0000   1.0000   1.0000   1.0000   1.0000

          k = 0.3584 0.2069 0.0659 (  7195 PWs)   bands (ev):

   -11.2286  -9.8130  -9.4575  -9.2399  -9.2318  -9.0052   0.9056   1.3211
     1.6898   2.3481   2.9980   3.2456   4.7531   4.9261   5.0737   5.3195
     5.3683   5.4361   5.7498   6.0596   6.3519   6.7493   7.0712   7.0968

     occupation numbers 
     1.0000   1.0000   1.0000   1.0000   1.0000   1.0000   1.0000   1.0000
     1.0000   1.0000   1.0000   1.0000   1.0000   1.0000   1.0000   1.0000
     1.0000   1.0000   1.0000   1.0000   1.0000   1.0000   1.0000   1.0000

          k =-0.0896 0.0517 0.2634 (  7180 PWs)   bands (ev):

   -11.4790  -9.8269  -9.3066  -9.1991  -9.0725  -8.9499   1.1880   1.4735
     2.0300   2.1924   2.6419   3.3323   3.5587   4.4714   4.6380   4.8876
     5.3250   6.0732   6.1091   6.3667   6.6562   6.8024   7.0945   7.1738

     occupation numbers 
     1.0000   1.0000   1.0000   1.0000   1.0000   1.0000   1.0000   1.0000
     1.0000   1.0000   1.0000   1.0000   1.0000   1.0000   1.0000   1.0000
     1.0000   1.0000   1.0000   1.0000   1.0000   1.0000   1.0000   1.0000

          k =-0.1792 0.0000 0.2963 (  7180 PWs)   bands (ev):

   -11.3680  -9.8841  -9.3969  -9.1754  -9.1514  -8.9282   1.3431   1.4378
     1.8384   2.5047   2.6806   3.4467   3.6804   4.4921   4.7108   4.8772
     5.4004   5.8332   5.9810   6.2726   6.5398   6.7531   7.0020   7.1147

     occupation numbers 
     1.0000   1.0000   1.0000   1.0000   1.0000   1.0000   1.0000   1.0000
     1.0000   1.0000   1.0000   1.0000   1.0000   1.0000   1.0000   1.0000
     1.0000   1.0000   1.0000   1.0000   1.0000   1.0000   1.0000   1.0000

          k =-0.2688-0.0517 0.3293 (  7177 PWs)   bands (ev):

   -11.1976  -9.9489  -9.5333  -9.2584  -9.1451  -8.9096   1.3948   1.5486
     1.6127   2.7154   2.8850   3.6896   3.7527   4.2381   4.9423   5.1179
     5.3349   5.6601   5.8332   6.1490   6.4306   6.6755   6.8922   7.0174

     occupation numbers 
     1.0000   1.0000   1.0000   1.0000   1.0000   1.0000   1.0000   1.0000
     1.0000   1.0000   1.0000   1.0000   1.0000   1.0000   1.0000   1.0000
     1.0000   1.0000   1.0000   1.0000   1.0000   1.0000   1.0000   1.0000

          k = 0.7168 0.5173-0.0329 (  7185 PWs)   bands (ev):

   -10.9757 -10.0811  -9.6256  -9.3564  -9.1292  -8.9095   1.2941   1.4986
     1.8245   2.7857   3.2003   3.3533   4.0483   4.5032   4.7882   5.0635
     5.2792   5.7483   5.9177   6.0115   6.3631   6.6250   6.7921   6.9039

     occupation numbers 
     1.0000   1.0000   1.0000   1.0000   1.0000   1.0000   1.0000   1.0000
     1.0000   1.0000   1.0000   1.0000   1.0000   1.0000   1.0000   1.0000
     1.0000   1.0000   1.0000   1.0000   1.0000   1.0000   1.0000   1.0000

          k = 0.6272 0.4656 0.0000 (  7183 PWs)   bands (ev):

   -10.7141 -10.3063  -9.6266  -9.4380  -9.1140  -8.9366   1.1444   1.5322
     2.1206   2.7258   2.9958   3.5040   4.2587   4.4103   4.8260   5.0375
     5.3149   5.6843   6.0083   6.1572   6.3402   6.5418   6.7433   6.8570

     occupation numbers 
     1.0000   1.0000   1.0000   1.0000   1.0000   1.0000   1.0000   1.0000
     1.0000   1.0000   1.0000   1.0000   1.0000   1.0000   1.0000   1.0000
     1.0000   1.0000   1.0000   1.0000   1.0000   1.0000   1.0000   1.0000

          k = 0.5376 0.4139 0.0329 (  7185 PWs)   bands (ev):

   -10.5734 -10.4291  -9.5764  -9.4866  -9.0980  -8.9885   1.0445   1.6027
     2.2053   2.4077   3.1293   3.7115   3.8104   4.7346   4.9004   5.2032
     5.2226   5.7264   6.0127   6.1782   6.2546   6.5403   6.8192   6.8964

     occupation numbers 
     1.0000   1.0000   1.0000   1.0000   1.0000   1.0000   1.0000   1.0000
     1.0000   1.0000   1.0000   1.0000   1.0000   1.0000   1.0000   1.0000
     1.0000   1.0000   1.0000   1.0000   1.0000   1.0000   1.0000   1.0000

          k = 0.4480 0.3621 0.0659 (  7198 PWs)   bands (ev):

   -10.8395 -10.1432  -9.5480  -9.4512  -9.1160  -9.0233   1.0032   1.6761
     1.7977   2.4296   3.3001   3.3494   4.1289   4.8494   4.9502   5.1761
     5.4026   5.7572   5.8745   6.0267   6.2473   6.6411   6.9185   6.9729

     occupation numbers 
     1.0000   1.0000   1.0000   1.0000   1.0000   1.0000   1.0000   1.0000
     1.0000   1.0000   1.0000   1.0000   1.0000   1.0000   1.0000   1.0000
     1.0000   1.0000   1.0000   1.0000   1.0000   1.0000   1.0000   1.0000

          k = 0.3584 0.3104 0.0988 (  7194 PWs)   bands (ev):

   -11.0799  -9.8875  -9.5284  -9.3555  -9.2005  -8.9991   1.0084   1.4218
     1.7642   2.3869   3.0503   3.3454   4.5875   4.8465   4.9886   5.1189
     5.5109   5.6305   5.7452   6.0423   6.2916   6.6896   7.0045   7.0480

     occupation numbers 
     1.0000   1.0000   1.0000   1.0000   1.0000   1.0000   1.0000   1.0000
     1.0000   1.0000   1.0000   1.0000   1.0000   1.0000   1.0000   1.0000
     1.0000   1.0000   1.0000   1.0000   1.0000   1.0000   1.0000   1.0000

          k =-0.1792 0.1035 0.3293 (  7193 PWs)   bands (ev):

   -11.2831  -9.9424  -9.3967  -9.2320  -9.1782  -8.9239   1.3952   1.4918
     1.9783   2.5194   2.7699   3.4157   3.7321   4.4327   4.8692   4.8748
     5.2882   5.7615   5.8118   6.3062   6.4061   6.7740   6.9201   7.0662

     occupation numbers 
     1.0000   1.0000   1.0000   1.0000   1.0000   1.0000   1.0000   1.0000
     1.0000   1.0000   1.0000   1.0000   1.0000   1.0000   1.0000   1.0000
     1.0000   1.0000   1.0000   1.0000   1.0000   1.0000   1.0000   1.0000

          k =-0.2688 0.0517 0.3622 (  7189 PWs)   bands (ev):

   -11.1395  -9.9895  -9.4879  -9.3436  -9.1579  -8.9117   1.4200   1.5898
     1.8753   2.8098   2.8153   3.5889   3.7641   4.2351   4.8714   5.1124
     5.2959   5.5847   5.7494   6.2391   6.3171   6.7336   6.8044   6.9854

     occupation numbers 
     1.0000   1.0000   1.0000   1.0000   1.0000   1.0000   1.0000   1.0000
     1.0000   1.0000   1.0000   1.0000   1.0000   1.0000   1.0000   1.0000
     1.0000   1.0000   1.0000   1.0000   1.0000   1.0000   1.0000   1.0000

          k = 0.7168 0.6208 0.0000 (  7194 PWs)   bands (ev):

   -10.9444 -10.0496  -9.6159  -9.4596  -9.1319  -8.9050   1.4388   1.6753
     1.7981   2.8448   3.1449   3.4279   3.9342   4.3442   4.6824   5.1248
     5.2969   5.6004   5.9000   6.1575   6.2447   6.6884   6.7062   6.8838

     occupation numbers 
     1.0000   1.0000   1.0000   1.0000   1.0000   1.0000   1.0000   1.0000
     1.0000   1.0000   1.0000   1.0000   1.0000   1.0000   1.0000   1.0000
     1.0000   1.0000   1.0000   1.0000   1.0000   1.0000   1.0000   1.0000

          k = 0.6272 0.5691 0.0329 (  7194 PWs)   bands (ev):

   -10.7095 -10.1833  -9.6874  -9.5575  -9.1093  -8.9188   1.3480   1.7861
     1.9051   2.8997   2.9607   3.4087   4.2096   4.2927   4.6420   5.0685
     5.3323   5.6701   6.0562   6.1152   6.3129   6.6038   6.7152   6.7812

     occupation numbers 
     1.0000   1.0000   1.0000   1.0000   1.0000   1.0000   1.0000   1.0000
     1.0000   1.0000   1.0000   1.0000   1.0000   1.0000   1.0000   1.0000
     1.0000   1.0000   1.0000   1.0000   1.0000   1.0000   1.0000   1.0000

          k = 0.5376 0.5173 0.0659 (  7193 PWs)   bands (ev):

   -10.4532 -10.3994  -9.6775  -9.6143  -9.0863  -8.9619   1.2534   1.8382
     2.0976   2.5238   2.9902   3.5834   3.8181   4.4818   4.8380   5.1809
     5.3559   5.6968   5.9928   6.2477   6.3319   6.5532   6.7557   6.8162

     occupation numbers 
     1.0000   1.0000   1.0000   1.0000   1.0000   1.0000   1.0000   1.0000
     1.0000   1.0000   1.0000   1.0000   1.0000   1.0000   1.0000   1.0000
     1.0000   1.0000   1.0000   1.0000   1.0000   1.0000   1.0000   1.0000

          k = 0.4480 0.4656 0.0988 (  7203 PWs)   bands (ev):

   -10.6469 -10.2002  -9.6670  -9.5710  -9.0750  -9.0186   1.2037   1.8073
     1.9561   2.4468   3.0826   3.4255   3.8802   4.5031   5.0240   5.2566
     5.4466   5.7430   5.9671   6.1000   6.3194   6.5943   6.8455   6.9255

     occupation numbers 
     1.0000   1.0000   1.0000   1.0000   1.0000   1.0000   1.0000   1.0000
     1.0000   1.0000   1.0000   1.0000   1.0000   1.0000   1.0000   1.0000
     1.0000   1.0000   1.0000   1.0000   1.0000   1.0000   1.0000   1.0000

          k = 0.3584 0.4139 0.1317 (  7202 PWs)   bands (ev):

   -10.8835  -9.9985  -9.6157  -9.4725  -9.1529  -9.0038   1.2009   1.5150
     1.8629   2.4325   3.1454   3.2905   4.2413   4.5143   5.0015   5.2327
     5.6230   5.7497   5.8958   5.9520   6.3218   6.6384   6.9323   7.0056

     occupation numbers 
     1.0000   1.0000   1.0000   1.0000   1.0000   1.0000   1.0000   1.0000
     1.0000   1.0000   1.0000   1.0000   1.0000   1.0000   1.0000   1.0000
     1.0000   1.0000   1.0000   1.0000   1.0000   1.0000   1.0000   1.0000

          k =-0.2688 0.1552 0.3951 (  7201 PWs)   bands (ev):

   -11.0252 -10.0287  -9.5065  -9.4407  -9.1735  -8.9110   1.3839   1.6925
     2.0469   2.8617   2.8780   3.6449   3.8250   4.1049   4.7583   5.1272
     5.3771   5.6016   5.6469   6.1241   6.3264   6.7002   6.7806   6.8799

     occupation numbers 
     1.0000   1.0000   1.0000   1.0000   1.0000   1.0000   1.0000   1.0000
     1.0000   1.0000   1.0000   1.0000   1.0000   1.0000   1.0000   1.0000
     1.0000   1.0000   1.0000   1.0000   1.0000   1.0000   1.0000   1.0000

          k = 0.7168 0.7243 0.0329 (  7197 PWs)   bands (ev):

   -10.8622 -10.0595  -9.6156  -9.5435  -9.1571  -8.9082   1.4200   1.7207
     2.0775   2.8489   3.1187   3.5870   3.8877   4.1332   4.5992   5.1056
     5.4116   5.5458   5.8820   6.0379   6.3027   6.6108   6.7513   6.7991

     occupation numbers 
     1.0000   1.0000   1.0000   1.0000   1.0000   1.0000   1.0000   1.0000
     1.0000   1.0000   1.0000   1.0000   1.0000   1.0000   1.0000   1.0000
     1.0000   1.0000   1.0000   1.0000   1.0000   1.0000   1.0000   1.0000

          k = 0.6272 0.6725 0.0659 (  7189 PWs)   bands (ev):

   -10.6642 -10.1096  -9.7228  -9.6585  -9.1274  -8.9139   1.5227   1.6815
     2.1045   2.8214   3.2140   3.3288   4.0675   4.1314   4.6142   5.0985
     5.3532   5.6155   6.0569   6.1941   6.2136   6.5440   6.6985   6.7823

     occupation numbers 
     1.0000   1.0000   1.0000   1.0000   1.0000   1.0000   1.0000   1.0000
     1.0000   1.0000   1.0000   1.0000   1.0000   1.0000   1.0000   1.0000
     1.0000   1.0000   1.0000   1.0000   1.0000   1.0000   1.0000   1.0000

          k = 0.5376 0.6208 0.0988 (  7206 PWs)   bands (ev):

   -10.4556 -10.2362  -9.7874  -9.7040  -9.0972  -8.9429   1.5153   1.7941
     2.1128   2.6081   3.0619   3.4128   3.8574   4.1550   4.8784   5.1803
     5.4138   5.6594   6.0647   6.1616   6.4219   6.5100   6.6885   6.8177

     occupation numbers 
     1.0000   1.0000   1.0000   1.0000   1.0000   1.0000   1.0000   1.0000
     1.0000   1.0000   1.0000   1.0000   1.0000   1.0000   1.0000   1.0000
     1.0000   1.0000   1.0000   1.0000   1.0000   1.0000   1.0000   1.0000

          k = 0.4480 0.5691 0.1317 (  7206 PWs)   bands (ev):

   -10.4358 -10.2793  -9.7731  -9.6617  -9.0656  -9.0035   1.4625   1.8312
     2.1007   2.3604   3.0628   3.5570   3.6007   4.1320   5.1170   5.3285
     5.4808   5.6956   6.0183   6.1877   6.3811   6.5272   6.8262   6.8778

     occupation numbers 
     1.0000   1.0000   1.0000   1.0000   1.0000   1.0000   1.0000   1.0000
     1.0000   1.0000   1.0000   1.0000   1.0000   1.0000   1.0000   1.0000
     1.0000   1.0000   1.0000   1.0000   1.0000   1.0000   1.0000   1.0000

          k = 0.3584 0.5173 0.1646 (  7196 PWs)   bands (ev):

   -10.6528 -10.1767  -9.6572  -9.5716  -9.1022  -9.0228   1.4349   1.5814
     1.9674   2.3980   3.1552   3.3994   3.8481   4.1239   5.1394   5.3413
     5.6807   5.7256   5.9848   6.0640   6.3675   6.5756   6.8985   6.9592

     occupation numbers 
     1.0000   1.0000   1.0000   1.0000   1.0000   1.0000   1.0000   1.0000
     1.0000   1.0000   1.0000   1.0000   1.0000   1.0000   1.0000   1.0000
     1.0000   1.0000   1.0000   1.0000   1.0000   1.0000   1.0000   1.0000

          k = 0.7168-0.4139-0.3293 (  7202 PWs)   bands (ev):

   -10.7390 -10.0742  -9.7494  -9.5341  -9.1772  -8.9128   1.3469   1.8227
     2.2637   2.7829   3.1926   3.7507   3.8761   3.9303   4.5862   5.0015
     5.5338   5.6495   5.7613   6.0614   6.2870   6.5739   6.6439   6.8101

     occupation numbers 
     1.0000   1.0000   1.0000   1.0000   1.0000   1.0000   1.0000   1.0000
     1.0000   1.0000   1.0000   1.0000   1.0000   1.0000   1.0000   1.0000
     1.0000   1.0000   1.0000   1.0000   1.0000   1.0000   1.0000   1.0000

          k = 0.6272-0.4656-0.2963 (  7188 PWs)   bands (ev):

   -10.5957 -10.0850  -9.8587  -9.5991  -9.1619  -8.9184   1.3632   1.8240
     2.3591   2.6893   3.2995   3.4686   3.8636   4.0780   4.6671   5.0205
     5.4904   5.5959   5.9443   6.1857   6.2653   6.4674   6.5906   6.8516

     occupation numbers 
     1.0000   1.0000   1.0000   1.0000   1.0000   1.0000   1.0000   1.0000
     1.0000   1.0000   1.0000   1.0000   1.0000   1.0000   1.0000   1.0000
     1.0000   1.0000   1.0000   1.0000   1.0000   1.0000   1.0000   1.0000

          k = 0.5376-0.5173-0.2634 (  7196 PWs)   bands (ev):

   -10.4754 -10.1219  -9.8894  -9.6835  -9.1292  -8.9356   1.4721   1.7592
     2.3765   2.5244   3.2200   3.3635   3.8264   4.0312   4.9221   5.1352
     5.4779   5.6178   6.0580   6.1308   6.3829   6.5261   6.5570   6.8866

     occupation numbers 
     1.0000   1.0000   1.0000   1.0000   1.0000   1.0000   1.0000   1.0000
     1.0000   1.0000   1.0000   1.0000   1.0000   1.0000   1.0000   1.0000
     1.0000   1.0000   1.0000   1.0000   1.0000   1.0000   1.0000   1.0000

          k = 0.4480-0.5691-0.2305 (  7206 PWs)   bands (ev):

   -10.4214 -10.2347  -9.8027  -9.6981  -9.0939  -8.9792   1.6111   1.6783
     2.2386   2.3235   3.2342   3.3440   3.7759   3.8876   5.1586   5.2975
     5.5404   5.6633   6.0683   6.1123   6.4130   6.5015   6.7698   6.9058

     occupation numbers 
     1.0000   1.0000   1.0000   1.0000   1.0000   1.0000   1.0000   1.0000
     1.0000   1.0000   1.0000   1.0000   1.0000   1.0000   1.0000   1.0000
     1.0000   1.0000   1.0000   1.0000   1.0000   1.0000   1.0000   1.0000

          k = 0.3584-0.6208-0.1976 (  7210 PWs)   bands (ev):

   -10.4075 -10.4075  -9.6377  -9.6377  -9.0568  -9.0568   1.5786   1.5786
     2.1635   2.1635   3.3700   3.3700   3.7777   3.7777   5.2994   5.2994
     5.6918   5.6918   6.0749   6.0749   6.4697   6.4697   6.9170   6.9170

     occupation numbers 
     1.0000   1.0000   1.0000   1.0000   1.0000   1.0000   1.0000   1.0000
     1.0000   1.0000   1.0000   1.0000   1.0000   1.0000   1.0000   1.0000
     1.0000   1.0000   1.0000   1.0000   1.0000   1.0000   1.0000   1.0000

          k = 0.6272-0.3621-0.2634 (  7188 PWs)   bands (ev):

   -10.5448 -10.0728  -9.9337  -9.5664  -9.1843  -8.9270   1.2498   1.8979
     2.4388   2.6258   3.3186   3.5580   3.6552   4.2091   4.7403   5.0167
     5.5614   5.5648   5.9383   6.1583   6.2694   6.4653   6.5184   6.9020

     occupation numbers 
     1.0000   1.0000   1.0000   1.0000   1.0000   1.0000   1.0000   1.0000
     1.0000   1.0000   1.0000   1.0000   1.0000   1.0000   1.0000   1.0000
     1.0000   1.0000   1.0000   1.0000   1.0000   1.0000   1.0000   1.0000

          k = 0.5376-0.4139-0.2305 (  7188 PWs)   bands (ev):

   -10.5567 -10.0627  -9.8901  -9.6068  -9.1696  -8.9396   1.2443   1.8592
     2.3396   2.5798   3.2710   3.4861   3.6536   4.2691   4.9249   5.0869
     5.5620   5.5712   6.0096   6.0714   6.2980   6.5108   6.5791   6.9310

     occupation numbers 
     1.0000   1.0000   1.0000   1.0000   1.0000   1.0000   1.0000   1.0000
     1.0000   1.0000   1.0000   1.0000   1.0000   1.0000   1.0000   1.0000
     1.0000   1.0000   1.0000   1.0000   1.0000   1.0000   1.0000   1.0000

          k = 0.4480-0.4656-0.1976 (  7196 PWs)   bands (ev):

   -10.6092 -10.0837  -9.7536  -9.6590  -9.1369  -8.9670   1.3306   1.7499
     2.1575   2.4833   3.1610   3.4378   3.7545   4.1949   5.1006   5.2074
     5.6013   5.6638   6.0062   6.0332   6.3292   6.5586   6.7503   6.9427

     occupation numbers 
     1.0000   1.0000   1.0000   1.0000   1.0000   1.0000   1.0000   1.0000
     1.0000   1.0000   1.0000   1.0000   1.0000   1.0000   1.0000   1.0000
     1.0000   1.0000   1.0000   1.0000   1.0000   1.0000   1.0000   1.0000

          k = 0.5376-0.3104-0.1976 (  7195 PWs)   bands (ev):

   -10.6806 -10.0242  -9.7949  -9.5561  -9.1929  -8.9504   1.1249   1.8221
     2.1664   2.6023   3.3311   3.4091   3.7581   4.5374   4.9252   5.0504
     5.5453   5.6538   5.9100   6.1189   6.1541   6.5446   6.6911   6.9490

     occupation numbers 
     1.0000   1.0000   1.0000   1.0000   1.0000   1.0000   1.0000   1.0000
     1.0000   1.0000   1.0000   1.0000   1.0000   1.0000   1.0000   1.0000
     1.0000   1.0000   1.0000   1.0000   1.0000   1.0000   1.0000   1.0000

          k = 0.4480-0.3621-0.1646 (  7201 PWs)   bands (ev):

   -10.7990  -9.9941  -9.6581  -9.5631  -9.1807  -8.9683   1.1183   1.6959
     2.0140   2.5120   3.2483   3.3358   4.0175   4.5790   5.0153   5.0702
     5.5952   5.7199   5.8605   6.0040   6.2501   6.5895   6.8256   6.9609

     occupation numbers 
     1.0000   1.0000   1.0000   1.0000   1.0000   1.0000   1.0000   1.0000
     1.0000   1.0000   1.0000   1.0000   1.0000   1.0000   1.0000   1.0000
     1.0000   1.0000   1.0000   1.0000   1.0000   1.0000   1.0000   1.0000

          k = 0.4480-0.2587-0.1317 (  7194 PWs)   bands (ev):

   -10.9614  -9.9338  -9.5564  -9.4690  -9.2060  -8.9788   1.0111   1.5744
     1.8738   2.4572   3.1486   3.3905   4.3133   4.9187   4.9288   4.9785
     5.6035   5.6819   5.7015   6.1164   6.1728   6.6354   6.9341   6.9775

     occupation numbers 
     1.0000   1.0000   1.0000   1.0000   1.0000   1.0000   1.0000   1.0000
     1.0000   1.0000   1.0000   1.0000   1.0000   1.0000   1.0000   1.0000
     1.0000   1.0000   1.0000   1.0000   1.0000   1.0000   1.0000   1.0000

          k = 0.0000 0.0000 0.2963 (  7167 PWs)   bands (ev):

   -11.4556  -9.9194  -9.2250  -9.2250  -9.0098  -9.0098   1.3093   1.6010
     2.1479   2.1479   2.4670   3.4843   3.4843   4.4166   4.5330   5.0181
     5.0181   6.1342   6.1342   6.1669   6.7715   6.7715   7.1494   7.1494

     occupation numbers 
     1.0000   1.0000   1.0000   1.0000   1.0000   1.0000   1.0000   1.0000
     1.0000   1.0000   1.0000   1.0000   1.0000   1.0000   1.0000   1.0000
     1.0000   1.0000   1.0000   1.0000   1.0000   1.0000   1.0000   1.0000

          k =-0.0896-0.0517 0.3293 (  7182 PWs)   bands (ev):

   -11.3679  -9.9908  -9.3185  -9.1590  -9.0981  -8.9623   1.4409   1.6012
     1.9477   2.4158   2.5642   3.4786   3.5922   4.5232   4.5897   4.7208
     5.2178   5.8474   6.1045   6.1250   6.6887   6.7454   7.0899   7.0952

     occupation numbers 
     1.0000   1.0000   1.0000   1.0000   1.0000   1.0000   1.0000   1.0000
     1.0000   1.0000   1.0000   1.0000   1.0000   1.0000   1.0000   1.0000
     1.0000   1.0000   1.0000   1.0000   1.0000   1.0000   1.0000   1.0000

          k =-0.1792-0.1035 0.3622 (  7180 PWs)   bands (ev):

   -11.2192 -10.0440  -9.4670  -9.2003  -9.1166  -8.9281   1.5585   1.6305
     1.6496   2.7079   2.8147   3.5434   3.7376   4.2368   4.8151   4.8560
     5.4559   5.4887   6.0180   6.0492   6.5536   6.6418   6.9682   7.0050

     occupation numbers 
     1.0000   1.0000   1.0000   1.0000   1.0000   1.0000   1.0000   1.0000
     1.0000   1.0000   1.0000   1.0000   1.0000   1.0000   1.0000   1.0000
     1.0000   1.0000   1.0000   1.0000   1.0000   1.0000   1.0000   1.0000

          k = 0.8065 0.4656 0.0000 (  7178 PWs)   bands (ev):

   -11.0163 -10.1061  -9.6275  -9.3026  -9.0941  -8.9136   1.3915   1.5924
     1.8306   2.8015   3.1921   3.3413   3.9983   4.2933   4.8454   5.0318
     5.1047   5.8048   5.8873   5.9807   6.4072   6.5673   6.8595   6.8658

     occupation numbers 
     1.0000   1.0000   1.0000   1.0000   1.0000   1.0000   1.0000   1.0000
     1.0000   1.0000   1.0000   1.0000   1.0000   1.0000   1.0000   1.0000
     1.0000   1.0000   1.0000   1.0000   1.0000   1.0000   1.0000   1.0000

          k = 0.7168 0.4139 0.0329 (  7187 PWs)   bands (ev):

   -10.7693 -10.2412  -9.7164  -9.3929  -9.0826  -8.9271   1.1964   1.6347
     2.1076   2.8556   2.9515   3.4592   4.3720   4.4074   4.6340   5.0359
     5.1184   5.7128   5.9900   6.1416   6.3175   6.5335   6.7195   6.7939

     occupation numbers 
     1.0000   1.0000   1.0000   1.0000   1.0000   1.0000   1.0000   1.0000
     1.0000   1.0000   1.0000   1.0000   1.0000   1.0000   1.0000   1.0000
     1.0000   1.0000   1.0000   1.0000   1.0000   1.0000   1.0000   1.0000

          k = 0.6272 0.3621 0.0659 (  7196 PWs)   bands (ev):

   -10.4925 -10.4642  -9.7013  -9.4608  -9.0807  -8.9652   1.0702   1.7006
     2.3767   2.3895   3.1136   3.6284   3.9247   4.7979   4.8428   5.0153
     5.1568   5.6082   6.0726   6.2437   6.2469   6.4602   6.7698   6.7944

     occupation numbers 
     1.0000   1.0000   1.0000   1.0000   1.0000   1.0000   1.0000   1.0000
     1.0000   1.0000   1.0000   1.0000   1.0000   1.0000   1.0000   1.0000
     1.0000   1.0000   1.0000   1.0000   1.0000   1.0000   1.0000   1.0000

          k = 0.5376 0.3104 0.0988 (  7190 PWs)   bands (ev):

   -10.7181 -10.2054  -9.6289  -9.4956  -9.1169  -8.9915   1.0112   1.7888
     1.9440   2.4922   3.3030   3.4943   3.8782   4.8566   5.0202   5.0933
     5.2278   5.7095   5.9401   6.1369   6.1726   6.5621   6.8531   6.8966

     occupation numbers 
     1.0000   1.0000   1.0000   1.0000   1.0000   1.0000   1.0000   1.0000
     1.0000   1.0000   1.0000   1.0000   1.0000   1.0000   1.0000   1.0000
     1.0000   1.0000   1.0000   1.0000   1.0000   1.0000   1.0000   1.0000

          k =-0.0896 0.0517 0.3622 (  7197 PWs)   bands (ev):

   -11.3046 -10.0768  -9.2966  -9.1568  -9.1258  -8.9677   1.4878   1.7216
     2.0796   2.3627   2.6070   3.4611   3.5963   4.5461   4.5683   4.7360
     5.1205   5.7571   5.9149   6.1676   6.6478   6.7846   7.0289   7.0913

     occupation numbers 
     1.0000   1.0000   1.0000   1.0000   1.0000   1.0000   1.0000   1.0000
     1.0000   1.0000   1.0000   1.0000   1.0000   1.0000   1.0000   1.0000
     1.0000   1.0000   1.0000   1.0000   1.0000   1.0000   1.0000   1.0000

          k =-0.1792 0.0000 0.3951 (  7187 PWs)   bands (ev):

   -11.1805 -10.1362  -9.3947  -9.2226  -9.1138  -8.9425   1.5301   1.7656
     1.8856   2.6869   2.7925   3.4675   3.6409   4.3439   4.6568   4.8724
     5.2873   5.5101   5.8226   6.1610   6.5321   6.7274   6.9119   7.0206

     occupation numbers 
     1.0000   1.0000   1.0000   1.0000   1.0000   1.0000   1.0000   1.0000
     1.0000   1.0000   1.0000   1.0000   1.0000   1.0000   1.0000   1.0000
     1.0000   1.0000   1.0000   1.0000   1.0000   1.0000   1.0000   1.0000

          k = 0.8065 0.5691 0.0329 (  7200 PWs)   bands (ev):

   -11.0013 -10.1757  -9.5559  -9.3321  -9.0779  -8.9233   1.5308   1.6722
     1.8977   2.8161   3.1305   3.4023   3.8352   4.2591   4.6752   5.0152
     5.1494   5.6040   5.8550   6.1109   6.3966   6.6078   6.7858   6.9126

     occupation numbers 
     1.0000   1.0000   1.0000   1.0000   1.0000   1.0000   1.0000   1.0000
     1.0000   1.0000   1.0000   1.0000   1.0000   1.0000   1.0000   1.0000
     1.0000   1.0000   1.0000   1.0000   1.0000   1.0000   1.0000   1.0000

          k = 0.7168 0.5173 0.0659 (  7193 PWs)   bands (ev):

   -10.7763 -10.2282  -9.7143  -9.4336  -9.0585  -8.9258   1.3472   1.7880
     2.0174   2.7907   3.1244   3.4444   4.1824   4.4050   4.4812   5.0409
     5.0701   5.6636   6.0401   6.1237   6.3024   6.5447   6.6820   6.7800

     occupation numbers 
     1.0000   1.0000   1.0000   1.0000   1.0000   1.0000   1.0000   1.0000
     1.0000   1.0000   1.0000   1.0000   1.0000   1.0000   1.0000   1.0000
     1.0000   1.0000   1.0000   1.0000   1.0000   1.0000   1.0000   1.0000

          k = 0.6272 0.4656 0.0988 (  7191 PWs)   bands (ev):

   -10.5190 -10.3584  -9.7837  -9.5142  -9.0539  -8.9541   1.2082   1.8826
     2.2053   2.5378   3.1000   3.5696   3.9937   4.4842   4.7954   5.0608
     5.1199   5.6077   6.0476   6.2468   6.3239   6.4992   6.6601   6.7385

     occupation numbers 
     1.0000   1.0000   1.0000   1.0000   1.0000   1.0000   1.0000   1.0000
     1.0000   1.0000   1.0000   1.0000   1.0000   1.0000   1.0000   1.0000
     1.0000   1.0000   1.0000   1.0000   1.0000   1.0000   1.0000   1.0000

          k = 0.5376 0.4139 0.1317 (  7197 PWs)   bands (ev):

   -10.5685 -10.2485  -9.7469  -9.5628  -9.0887  -8.9781   1.1330   1.9565
     2.0400   2.5100   3.1952   3.5853   3.7163   4.5525   5.0839   5.1071
     5.2556   5.6117   6.0271   6.1328   6.2862   6.5162   6.7346   6.8654

     occupation numbers 
     1.0000   1.0000   1.0000   1.0000   1.0000   1.0000   1.0000   1.0000
     1.0000   1.0000   1.0000   1.0000   1.0000   1.0000   1.0000   1.0000
     1.0000   1.0000   1.0000   1.0000   1.0000   1.0000   1.0000   1.0000

          k =-0.1792 0.1035 0.4280 (  7204 PWs)   bands (ev):

   -11.0829 -10.2044  -9.3885  -9.3047  -9.1152  -8.9376   1.4952   1.8900
     1.9743   2.7823   2.8870   3.4860   3.5594   4.2970   4.6296   5.0282
     5.1821   5.5688   5.5806   6.2222   6.4356   6.7554   6.8224   6.9572

     occupation numbers 
     1.0000   1.0000   1.0000   1.0000   1.0000   1.0000   1.0000   1.0000
     1.0000   1.0000   1.0000   1.0000   1.0000   1.0000   1.0000   1.0000
     1.0000   1.0000   1.0000   1.0000   1.0000   1.0000   1.0000   1.0000

          k = 0.8065 0.6725 0.0659 (  7205 PWs)   bands (ev):

   -10.9315 -10.2437  -9.4829  -9.4227  -9.0840  -8.9282   1.5193   1.7953
     2.0405   2.8749   3.0897   3.5282   3.6501   4.2379   4.5544   5.0480
     5.2645   5.4023   5.7733   6.2164   6.3372   6.6665   6.7138   6.8735

     occupation numbers 
     1.0000   1.0000   1.0000   1.0000   1.0000   1.0000   1.0000   1.0000
     1.0000   1.0000   1.0000   1.0000   1.0000   1.0000   1.0000   1.0000
     1.0000   1.0000   1.0000   1.0000   1.0000   1.0000   1.0000   1.0000

          k = 0.7168 0.6208 0.0988 (  7194 PWs)   bands (ev):

   -10.7352 -10.2636  -9.6332  -9.5428  -9.0489  -8.9303   1.5592   1.6940
     2.1199   2.7656   3.2854   3.4421   3.9392   4.3182   4.4342   5.0100
     5.2229   5.4609   6.0963   6.1628   6.2705   6.5343   6.6605   6.7695

     occupation numbers 
     1.0000   1.0000   1.0000   1.0000   1.0000   1.0000   1.0000   1.0000
     1.0000   1.0000   1.0000   1.0000   1.0000   1.0000   1.0000   1.0000
     1.0000   1.0000   1.0000   1.0000   1.0000   1.0000   1.0000   1.0000

          k = 0.6272 0.5691 0.1317 (  7192 PWs)   bands (ev):

   -10.5088 -10.3019  -9.7731  -9.6351  -9.0265  -8.9559   1.4460   1.8480
     2.1647   2.5947   3.2147   3.4814   4.0141   4.1494   4.7779   5.0640
     5.2074   5.5127   6.1206   6.2007   6.3770   6.5379   6.6093   6.6894

     occupation numbers 
     1.0000   1.0000   1.0000   1.0000   1.0000   1.0000   1.0000   1.0000
     1.0000   1.0000   1.0000   1.0000   1.0000   1.0000   1.0000   1.0000
     1.0000   1.0000   1.0000   1.0000   1.0000   1.0000   1.0000   1.0000

          k = 0.5376 0.5173 0.1646 (  7200 PWs)   bands (ev):

   -10.4208 -10.2767  -9.8149  -9.6834  -9.0439  -8.9823   1.3615   1.9438
     2.1701   2.4615   3.1613   3.5415   3.7026   4.1896   5.1197   5.1582
     5.3304   5.5201   6.0465   6.2187   6.3544   6.5354   6.6581   6.8145

     occupation numbers 
     1.0000   1.0000   1.0000   1.0000   1.0000   1.0000   1.0000   1.0000
     1.0000   1.0000   1.0000   1.0000   1.0000   1.0000   1.0000   1.0000
     1.0000   1.0000   1.0000   1.0000   1.0000   1.0000   1.0000   1.0000

          k = 0.8065-0.4656-0.2963 (  7193 PWs)   bands (ev):

   -10.8116 -10.2870  -9.5630  -9.4511  -9.0935  -8.9264   1.4445   1.9975
     2.0355   2.8439   3.2002   3.6481   3.6535   4.1696   4.4755   4.9959
     5.2432   5.5553   5.7197   6.2318   6.3093   6.6019   6.7113   6.7654

     occupation numbers 
     1.0000   1.0000   1.0000   1.0000   1.0000   1.0000   1.0000   1.0000
     1.0000   1.0000   1.0000   1.0000   1.0000   1.0000   1.0000   1.0000
     1.0000   1.0000   1.0000   1.0000   1.0000   1.0000   1.0000   1.0000

          k = 0.7168-0.5173-0.2634 (  7190 PWs)   bands (ev):

   -10.6523 -10.3013  -9.6847  -9.5372  -9.0700  -8.9305   1.4471   1.8853
     2.2096   2.6898   3.3383   3.5980   3.8125   4.2100   4.4627   4.9184
     5.3117   5.4880   5.9804   6.1860   6.3470   6.4722   6.6819   6.6968

     occupation numbers 
     1.0000   1.0000   1.0000   1.0000   1.0000   1.0000   1.0000   1.0000
     1.0000   1.0000   1.0000   1.0000   1.0000   1.0000   1.0000   1.0000
     1.0000   1.0000   1.0000   1.0000   1.0000   1.0000   1.0000   1.0000

          k = 0.6272-0.5691-0.2305 (  7191 PWs)   bands (ev):

   -10.4746 -10.2986  -9.7748  -9.6771  -9.0348  -8.9526   1.5365   1.7555
     2.3302   2.5177   3.3585   3.4367   3.9164   4.0698   4.7950   5.0031
     5.3519   5.4111   6.1114   6.2468   6.3706   6.4556   6.6158   6.7032

     occupation numbers 
     1.0000   1.0000   1.0000   1.0000   1.0000   1.0000   1.0000   1.0000
     1.0000   1.0000   1.0000   1.0000   1.0000   1.0000   1.0000   1.0000
     1.0000   1.0000   1.0000   1.0000   1.0000   1.0000   1.0000   1.0000

          k = 0.5376-0.6208-0.1976 (  7210 PWs)   bands (ev):

   -10.3199 -10.3199  -9.7914  -9.7914  -9.0050  -9.0050   1.6623   1.6623
     2.3563   2.3563   3.3113   3.3113   3.9009   3.9009   5.1594   5.1594
     5.4161   5.4161   6.1428   6.1428   6.4629   6.4629   6.7312   6.7312

     occupation numbers 
     1.0000   1.0000   1.0000   1.0000   1.0000   1.0000   1.0000   1.0000
     1.0000   1.0000   1.0000   1.0000   1.0000   1.0000   1.0000   1.0000
     1.0000   1.0000   1.0000   1.0000   1.0000   1.0000   1.0000   1.0000

          k = 0.7168-0.4139-0.2305 (  7188 PWs)   bands (ev):

   -10.5449 -10.3158  -9.8086  -9.5065  -9.0887  -8.9327   1.3220   2.0945
     2.2069   2.5543   3.3530   3.6780   3.8035   4.2514   4.5156   4.8618
     5.2949   5.6410   5.9159   6.2312   6.3352   6.4611   6.5755   6.7255

     occupation numbers 
     1.0000   1.0000   1.0000   1.0000   1.0000   1.0000   1.0000   1.0000
     1.0000   1.0000   1.0000   1.0000   1.0000   1.0000   1.0000   1.0000
     1.0000   1.0000   1.0000   1.0000   1.0000   1.0000   1.0000   1.0000

          k = 0.6272-0.4656-0.1976 (  7194 PWs)   bands (ev):

   -10.4517 -10.3030  -9.8685  -9.5708  -9.0723  -8.9475   1.2968   2.0322
     2.2679   2.4739   3.3000   3.5828   3.7878   4.2624   4.7929   4.9756
     5.2963   5.5440   6.0295   6.2635   6.3566   6.4296   6.5540   6.7701

     occupation numbers 
     1.0000   1.0000   1.0000   1.0000   1.0000   1.0000   1.0000   1.0000
     1.0000   1.0000   1.0000   1.0000   1.0000   1.0000   1.0000   1.0000
     1.0000   1.0000   1.0000   1.0000   1.0000   1.0000   1.0000   1.0000

          k = 0.6272-0.3621-0.1646 (  7198 PWs)   bands (ev):

   -10.4871 -10.2877  -9.8563  -9.5232  -9.0975  -8.9545   1.1589   2.0879
     2.1301   2.5101   3.2711   3.6176   3.7038   4.5277   4.8256   5.0554
     5.2414   5.5747   6.0505   6.2333   6.2422   6.4493   6.6219   6.8212

     occupation numbers 
     1.0000   1.0000   1.0000   1.0000   1.0000   1.0000   1.0000   1.0000
     1.0000   1.0000   1.0000   1.0000   1.0000   1.0000   1.0000   1.0000
     1.0000   1.0000   1.0000   1.0000   1.0000   1.0000   1.0000   1.0000

          k = 0.0000 0.0000 0.3951 (  7194 PWs)   bands (ev):

   -11.2639 -10.1863  -9.1980  -9.1980  -9.0457  -9.0457   1.5438   1.9863
     2.2201   2.3645   2.3645   3.5165   3.5165   4.3698   4.6331   4.8775
     4.8775   5.6590   5.9763   5.9763   6.7719   6.7719   7.0723   7.0723

     occupation numbers 
     1.0000   1.0000   1.0000   1.0000   1.0000   1.0000   1.0000   1.0000
     1.0000   1.0000   1.0000   1.0000   1.0000   1.0000   1.0000   1.0000
     1.0000   1.0000   1.0000   1.0000   1.0000   1.0000   1.0000   1.0000

          k =-0.0896-0.0517 0.4280 (  7190 PWs)   bands (ev):

   -11.1624 -10.2632  -9.3015  -9.1489  -9.1160  -8.9892   1.5882   1.9431
     2.0738   2.5790   2.7044   3.3537   3.5938   4.3394   4.6181   4.7470
     5.2075   5.4564   5.8168   6.0093   6.7209   6.7325   6.9911   7.0174

     occupation numbers 
     1.0000   1.0000   1.0000   1.0000   1.0000   1.0000   1.0000   1.0000
     1.0000   1.0000   1.0000   1.0000   1.0000   1.0000   1.0000   1.0000
     1.0000   1.0000   1.0000   1.0000   1.0000   1.0000   1.0000   1.0000

          k = 0.8961 0.5173 0.0659 (  7187 PWs)   bands (ev):

   -11.0043 -10.3068  -9.4599  -9.2606  -9.0634  -8.9519   1.6539   1.6768
     2.1021   2.7595   3.1581   3.2206   3.7461   4.3102   4.4812   4.9068
     5.1563   5.5842   5.7572   6.0296   6.5893   6.5904   6.8506   6.9216

     occupation numbers 
     1.0000   1.0000   1.0000   1.0000   1.0000   1.0000   1.0000   1.0000
     1.0000   1.0000   1.0000   1.0000   1.0000   1.0000   1.0000   1.0000
     1.0000   1.0000   1.0000   1.0000   1.0000   1.0000   1.0000   1.0000

          k = 0.8065 0.4656 0.0988 (  7199 PWs)   bands (ev):

   -10.7973 -10.3284  -9.6471  -9.3673  -9.0416  -8.9364   1.4218   1.8313
     2.1502   2.6819   3.1995   3.4929   4.0540   4.2975   4.4444   4.8832
     5.0270   5.7496   5.8877   6.1205   6.3973   6.4688   6.7350   6.7793

     occupation numbers 
     1.0000   1.0000   1.0000   1.0000   1.0000   1.0000   1.0000   1.0000
     1.0000   1.0000   1.0000   1.0000   1.0000   1.0000   1.0000   1.0000
     1.0000   1.0000   1.0000   1.0000   1.0000   1.0000   1.0000   1.0000

          k = 0.7168 0.4139 0.1317 (  7200 PWs)   bands (ev):

   -10.5530 -10.3668  -9.8062  -9.4578  -9.0485  -8.9440   1.2565   1.9882
     2.2887   2.4397   3.2049   3.6101   4.0594   4.4858   4.5367   4.8621
     5.0877   5.6794   6.0163   6.2891   6.2894   6.4460   6.6450   6.6751

     occupation numbers 
     1.0000   1.0000   1.0000   1.0000   1.0000   1.0000   1.0000   1.0000
     1.0000   1.0000   1.0000   1.0000   1.0000   1.0000   1.0000   1.0000
     1.0000   1.0000   1.0000   1.0000   1.0000   1.0000   1.0000   1.0000

          k =-0.0896 0.0517 0.4610 (  7208 PWs)   bands (ev):

   -11.0849 -10.3572  -9.2745  -9.1794  -9.1122  -8.9956   1.6012   1.9922
     2.2029   2.6894   2.7622   3.3478   3.4284   4.2346   4.6114   4.9296
     5.1384   5.4358   5.6316   5.9873   6.6940   6.7947   6.9425   6.9918

     occupation numbers 
     1.0000   1.0000   1.0000   1.0000   1.0000   1.0000   1.0000   1.0000
     1.0000   1.0000   1.0000   1.0000   1.0000   1.0000   1.0000   1.0000
     1.0000   1.0000   1.0000   1.0000   1.0000   1.0000   1.0000   1.0000

          k = 0.8961 0.6208 0.0988 (  7208 PWs)   bands (ev):

   -10.9514 -10.4131  -9.3733  -9.2834  -9.0599  -8.9710   1.6341   1.8061
     2.2663   2.8246   3.0798   3.2667   3.5032   4.2154   4.5240   4.9561
     5.2068   5.4108   5.6422   6.0202   6.5844   6.7330   6.8129   6.9199

     occupation numbers 
     1.0000   1.0000   1.0000   1.0000   1.0000   1.0000   1.0000   1.0000
     1.0000   1.0000   1.0000   1.0000   1.0000   1.0000   1.0000   1.0000
     1.0000   1.0000   1.0000   1.0000   1.0000   1.0000   1.0000   1.0000

          k = 0.8065 0.5691 0.1317 (  7196 PWs)   bands (ev):

   -10.7685 -10.4328  -9.5400  -9.3963  -9.0202  -8.9557   1.5799   1.7478
     2.3106   2.6730   3.2343   3.5102   3.7996   4.1766   4.4850   4.8392
     5.1247   5.5082   5.9408   6.0892   6.4239   6.5314   6.7236   6.8109

     occupation numbers 
     1.0000   1.0000   1.0000   1.0000   1.0000   1.0000   1.0000   1.0000
     1.0000   1.0000   1.0000   1.0000   1.0000   1.0000   1.0000   1.0000
     1.0000   1.0000   1.0000   1.0000   1.0000   1.0000   1.0000   1.0000

          k = 0.7168 0.5173 0.1646 (  7194 PWs)   bands (ev):

   -10.5469 -10.4311  -9.7264  -9.4962  -9.0207  -8.9512   1.4091   1.9238
     2.3224   2.4754   3.3078   3.5981   4.0250   4.1839   4.5913   4.7621
     5.1590   5.5730   6.0636   6.2927   6.3017   6.4194   6.6325   6.6909

     occupation numbers 
     1.0000   1.0000   1.0000   1.0000   1.0000   1.0000   1.0000   1.0000
     1.0000   1.0000   1.0000   1.0000   1.0000   1.0000   1.0000   1.0000
     1.0000   1.0000   1.0000   1.0000   1.0000   1.0000   1.0000   1.0000

          k = 0.8961-0.5173-0.2634 (  7207 PWs)   bands (ev):

   -10.8450 -10.4823  -9.3870  -9.3453  -9.0571  -8.9632   1.5788   1.9000
     2.2671   2.9186   3.2037   3.3368   3.3890   4.1625   4.5057   5.0467
     5.1232   5.4016   5.6261   6.0689   6.5284   6.7154   6.7723   6.8495

     occupation numbers 
     1.0000   1.0000   1.0000   1.0000   1.0000   1.0000   1.0000   1.0000
     1.0000   1.0000   1.0000   1.0000   1.0000   1.0000   1.0000   1.0000
     1.0000   1.0000   1.0000   1.0000   1.0000   1.0000   1.0000   1.0000

          k = 0.8065-0.5691-0.2305 (  7201 PWs)   bands (ev):

   -10.6913 -10.5106  -9.4979  -9.4434  -9.0206  -8.9592   1.5771   1.8022
     2.3530   2.6874   3.3349   3.4598   3.7251   4.1189   4.5025   4.8098
     5.2256   5.3854   5.9045   6.1413   6.4144   6.5358   6.7325   6.7726

     occupation numbers 
     1.0000   1.0000   1.0000   1.0000   1.0000   1.0000   1.0000   1.0000
     1.0000   1.0000   1.0000   1.0000   1.0000   1.0000   1.0000   1.0000
     1.0000   1.0000   1.0000   1.0000   1.0000   1.0000   1.0000   1.0000

          k = 0.7168-0.6208-0.1976 (  7186 PWs)   bands (ev):

   -10.5022 -10.5022  -9.6038  -9.6038  -8.9797  -8.9797   1.6518   1.6518
     2.4563   2.4563   3.4503   3.4503   4.0313   4.0313   4.6859   4.6859
     5.3342   5.3342   6.2086   6.2086   6.3463   6.3463   6.6812   6.6812

     occupation numbers 
     1.0000   1.0000   1.0000   1.0000   1.0000   1.0000   1.0000   1.0000
     1.0000   1.0000   1.0000   1.0000   1.0000   1.0000   1.0000   1.0000
     1.0000   1.0000   1.0000   1.0000   1.0000   1.0000   1.0000   1.0000

          k = 0.8065-0.4656-0.1976 (  7188 PWs)   bands (ev):

   -10.5732 -10.5495  -9.6199  -9.4189  -9.0356  -8.9472   1.4512   1.9614
     2.3308   2.5503   3.3103   3.6586   3.8258   4.1558   4.4576   4.7605
     5.1154   5.6279   5.8657   6.2310   6.3570   6.4857   6.6931   6.7135

     occupation numbers 
     1.0000   1.0000   1.0000   1.0000   1.0000   1.0000   1.0000   1.0000
     1.0000   1.0000   1.0000   1.0000   1.0000   1.0000   1.0000   1.0000
     1.0000   1.0000   1.0000   1.0000   1.0000   1.0000   1.0000   1.0000

          k = 0.0000 0.0000 0.4939 (  7173 PWs)   bands (ev):

   -11.0292 -10.4745  -9.1645  -9.1645  -9.0857  -9.0857   1.6639   1.9974
     2.6095   2.6474   2.6474   3.3062   3.3062   3.9207   4.8588   5.0357
     5.0357   5.3150   5.6995   5.6995   6.8156   6.8156   6.9809   6.9809

     occupation numbers 
     1.0000   1.0000   1.0000   1.0000   1.0000   1.0000   1.0000   1.0000
     1.0000   1.0000   1.0000   1.0000   1.0000   1.0000   1.0000   1.0000
     1.0000   1.0000   1.0000   1.0000   1.0000   1.0000   1.0000   1.0000

          k = 0.9857 0.5691 0.1317 (  7192 PWs)   bands (ev):

   -10.9173 -10.5497  -9.2714  -9.1974  -9.0734  -9.0245   1.7064   1.8459
     2.5999   2.7510   3.0407   3.1300   3.3742   3.8318   4.8483   4.9272
     5.1828   5.4208   5.4985   5.7748   6.7722   6.7905   6.8864   6.9294

     occupation numbers 
     1.0000   1.0000   1.0000   1.0000   1.0000   1.0000   1.0000   1.0000
     1.0000   1.0000   1.0000   1.0000   1.0000   1.0000   1.0000   1.0000
     1.0000   1.0000   1.0000   1.0000   1.0000   1.0000   1.0000   1.0000

          k = 0.8961 0.5173 0.1646 (  7206 PWs)   bands (ev):

   -10.7544 -10.5809  -9.4295  -9.3126  -9.0272  -8.9801   1.6339   1.7923
     2.5731   2.6122   3.1129   3.5087   3.6745   3.8190   4.6672   4.9084
     5.0169   5.5280   5.7448   5.9266   6.6137   6.6214   6.7834   6.8360

     occupation numbers 
     1.0000   1.0000   1.0000   1.0000   1.0000   1.0000   1.0000   1.0000
     1.0000   1.0000   1.0000   1.0000   1.0000   1.0000   1.0000   1.0000
     1.0000   1.0000   1.0000   1.0000   1.0000   1.0000   1.0000   1.0000

          k = 0.9857-0.5691-0.2305 (  7195 PWs)   bands (ev):

   -10.8292 -10.6439  -9.2431  -9.2269  -9.0683  -9.0305   1.7191   1.8458
     2.6251   2.9830   3.0658   3.1373   3.2188   3.6857   4.8635   5.1082
     5.1409   5.3149   5.4865   5.7219   6.7763   6.8453   6.8538   6.8915

     occupation numbers 
     1.0000   1.0000   1.0000   1.0000   1.0000   1.0000   1.0000   1.0000
     1.0000   1.0000   1.0000   1.0000   1.0000   1.0000   1.0000   1.0000
     1.0000   1.0000   1.0000   1.0000   1.0000   1.0000   1.0000   1.0000

          k = 0.8961-0.6208-0.1976 (  7194 PWs)   bands (ev):

   -10.6909 -10.6909  -9.3351  -9.3351  -9.0111  -9.0111   1.7324   1.7324
     2.6574   2.6574   3.2327   3.2327   3.6728   3.6728   4.8166   4.8166
     5.2516   5.2516   5.7990   5.7990   6.6752   6.6752   6.8281   6.8281

     occupation numbers 
     1.0000   1.0000   1.0000   1.0000   1.0000   1.0000   1.0000   1.0000
     1.0000   1.0000   1.0000   1.0000   1.0000   1.0000   1.0000   1.0000
     1.0000   1.0000   1.0000   1.0000   1.0000   1.0000   1.0000   1.0000

          k = 0.0000 0.0000-0.5927 (  7206 PWs)   bands (ev):

   -10.7615 -10.7615  -9.1263  -9.1263  -9.1263  -9.1263   1.8109   1.8109
     2.9775   2.9775   2.9775   2.9775   3.2851   3.2851   5.0792   5.0792
     5.3571   5.3571   5.3571   5.3571   6.8906   6.8906   6.8906   6.8906

     occupation numbers 
     1.0000   1.0000   1.0000   1.0000   1.0000   1.0000   1.0000   1.0000
     1.0000   1.0000   1.0000   1.0000   1.0000   1.0000   1.0000   1.0000
     1.0000   1.0000   1.0000   1.0000   1.0000   1.0000   1.0000   1.0000

     highest occupied level (ev):     7.2705

!    total energy              =    -409.34518608 Ry

     total all-electron energy =     -2846.997648 Ry
     estimated scf accuracy    <          6.6E-11 Ry

     The total energy is the sum of the following terms:
     one-electron contribution =     -37.65726110 Ry
     hartree contribution      =      55.02053749 Ry
     xc contribution           =     -56.50271737 Ry
     ewald contribution        =    -174.09460887 Ry
     one-center paw contrib.   =    -196.11113622 Ry
      -> PAW hartree energy AE =      28.39759486 Ry
      -> PAW hartree energy PS =     -28.36371660 Ry
      -> PAW xc energy AE      =     -17.01700887 Ry
      -> PAW xc energy PS      =       7.39949142 Ry
      -> total E_H with PAW    =      55.05441574 Ry
      -> total E_XC with PAW   =     -66.12023481 Ry

     convergence has been achieved in  56 iterations

     Forces acting on atoms (cartesian axes, Ry/au):

     atom    1 type  1   force =     0.00013003   -0.00022522   -0.00000000
     atom    2 type  1   force =     0.00026007    0.00000000   -0.00000000
     atom    3 type  1   force =    -0.00026007    0.00000000    0.00000000
     atom    4 type  1   force =     0.00013003    0.00022522    0.00000000
     atom    5 type  1   force =    -0.00013003   -0.00022522   -0.00000000
     atom    6 type  1   force =    -0.00013003    0.00022522    0.00000000
     atom    7 type  2   force =     0.00000000    0.00000000    0.00573282
     atom    8 type  2   force =     0.00000000    0.00000000   -0.00573282
     atom    9 type  2   force =     0.00000000    0.00000000    0.00573282
     atom   10 type  2   force =     0.00000000    0.00000000   -0.00573282
     The non-local contrib.  to forces
     atom    1 type  1   force =     0.00549603   -0.00951939   -0.00000000
     atom    2 type  1   force =     0.01099205    0.00000000    0.00000000
     atom    3 type  1   force =    -0.01099205   -0.00000000    0.00000000
     atom    4 type  1   force =     0.00549603    0.00951939    0.00000000
     atom    5 type  1   force =    -0.00549603   -0.00951939   -0.00000000
     atom    6 type  1   force =    -0.00549603    0.00951939    0.00000000
     atom    7 type  2   force =     0.00000000    0.00000000    0.03991602
     atom    8 type  2   force =     0.00000000    0.00000000   -0.03991602
     atom    9 type  2   force =     0.00000000    0.00000000    0.03991602
     atom   10 type  2   force =    -0.00000000   -0.00000000   -0.03991602
     The ionic contribution  to forces
     atom    1 type  1   force =    -0.59088747    1.02344713    0.00000000
     atom    2 type  1   force =    -1.18177495   -0.00000000   -0.00000000
     atom    3 type  1   force =     1.18177495   -0.00000000    0.00000000
     atom    4 type  1   force =    -0.59088747   -1.02344713   -0.00000000
     atom    5 type  1   force =     0.59088747    1.02344713    0.00000000
     atom    6 type  1   force =     0.59088747   -1.02344713   -0.00000000
     atom    7 type  2   force =    -0.00000000   -0.00000000   -0.60346244
     atom    8 type  2   force =    -0.00000000    0.00000000    0.60346244
     atom    9 type  2   force =     0.00000000   -0.00000000   -0.60346244
     atom   10 type  2   force =     0.00000000    0.00000000    0.60346244
     The local contribution  to forces
     atom    1 type  1   force =     0.58549648   -1.01410965   -0.00000000
     atom    2 type  1   force =     1.17099296   -0.00000000   -0.00000000
     atom    3 type  1   force =    -1.17099296   -0.00000000   -0.00000000
     atom    4 type  1   force =     0.58549648    1.01410965    0.00000000
     atom    5 type  1   force =    -0.58549648   -1.01410965   -0.00000000
     atom    6 type  1   force =    -0.58549648    1.01410965    0.00000000
     atom    7 type  2   force =     0.00000000    0.00000000    0.57326477
     atom    8 type  2   force =     0.00000000   -0.00000000   -0.57326477
     atom    9 type  2   force =    -0.00000000    0.00000000    0.57326477
     atom   10 type  2   force =    -0.00000000   -0.00000000   -0.57326477
     The core correction contribution to forces
     atom    1 type  1   force =     0.00002497   -0.00004325   -0.00000000
     atom    2 type  1   force =     0.00004994    0.00000000    0.00000000
     atom    3 type  1   force =    -0.00004994   -0.00000000   -0.00000000
     atom    4 type  1   force =     0.00002497    0.00004325   -0.00000000
     atom    5 type  1   force =    -0.00002497   -0.00004325    0.00000000
     atom    6 type  1   force =    -0.00002497    0.00004325    0.00000000
     atom    7 type  2   force =     0.00000000   -0.00000000   -0.00398554
     atom    8 type  2   force =     0.00000000    0.00000000    0.00398554
     atom    9 type  2   force =    -0.00000000   -0.00000000   -0.00398554
     atom   10 type  2   force =    -0.00000000    0.00000000    0.00398554
     The Hubbard contrib.    to forces
     atom    1 type  1   force =     0.00000000    0.00000000    0.00000000
     atom    2 type  1   force =     0.00000000    0.00000000    0.00000000
     atom    3 type  1   force =     0.00000000    0.00000000    0.00000000
     atom    4 type  1   force =     0.00000000    0.00000000    0.00000000
     atom    5 type  1   force =     0.00000000    0.00000000    0.00000000
     atom    6 type  1   force =     0.00000000    0.00000000    0.00000000
     atom    7 type  2   force =     0.00000000    0.00000000    0.00000000
     atom    8 type  2   force =     0.00000000    0.00000000    0.00000000
     atom    9 type  2   force =     0.00000000    0.00000000    0.00000000
     atom   10 type  2   force =     0.00000000    0.00000000    0.00000000
     The SCF correction term to forces
     atom    1 type  1   force =     0.00000004   -0.00000006    0.00000000
     atom    2 type  1   force =     0.00000007   -0.00000000   -0.00000000
     atom    3 type  1   force =    -0.00000007    0.00000000    0.00000000
     atom    4 type  1   force =     0.00000004    0.00000006    0.00000000
     atom    5 type  1   force =    -0.00000004   -0.00000006   -0.00000000
     atom    6 type  1   force =    -0.00000004    0.00000006   -0.00000000
     atom    7 type  2   force =    -0.00000000    0.00000000    0.00000001
     atom    8 type  2   force =    -0.00000000    0.00000000   -0.00000001
     atom    9 type  2   force =     0.00000000   -0.00000000    0.00000001
     atom   10 type  2   force =     0.00000000   -0.00000000   -0.00000001

     Total force =     0.011483     Total SCF correction =     0.000000


     Computing stress (Cartesian axis) and pressure

          total   stress  (Ry/bohr**3)                   (kbar)     P=       -9.65
  -0.00007296   0.00000000   0.00000000          -10.73        0.00        0.00
  -0.00000000  -0.00007296  -0.00000000           -0.00      -10.73       -0.00
  -0.00000000  -0.00000000  -0.00005092           -0.00       -0.00       -7.49

     kinetic stress (kbar)  18213.55      0.00      0.00
                                0.00  18213.55      0.00
                                0.00      0.00  18364.18

     local   stress (kbar)  -6107.10      0.00      0.00
                                0.00  -6107.10      0.00
                                0.00      0.00  -5871.50

     nonloc. stress (kbar)   1738.51      0.00     -0.00
                                0.00   1738.51      0.00
                                0.00      0.00   1707.40

     hartree stress (kbar)   4464.59      0.00     -0.00
                                0.00   4464.59     -0.00
                               -0.00     -0.00   4672.58

     exc-cor stress (kbar)  -2550.42      0.00     -0.00
                                0.00  -2550.42     -0.00
                               -0.00     -0.00  -2555.09

     corecor stress (kbar)  -1610.77      0.00      0.00
                                0.00  -1610.77     -0.00
                                0.00     -0.00  -1604.90

     ewald   stress (kbar) -14159.09      0.00     -0.00
                                0.00 -14159.09      0.00
                               -0.00      0.00 -14720.15

     hubbard stress (kbar)      0.00      0.00      0.00
                                0.00      0.00      0.00
                                0.00      0.00      0.00

     DFT-D   stress (kbar)      0.00      0.00      0.00
                                0.00      0.00      0.00
                                0.00      0.00      0.00

     XDM     stress (kbar)      0.00      0.00      0.00
                                0.00      0.00      0.00
                                0.00      0.00      0.00

     dft-nl  stress (kbar)      0.00      0.00      0.00
                                0.00      0.00      0.00
                                0.00      0.00      0.00

     TS-vdW  stress (kbar)      0.00      0.00      0.00
                                0.00      0.00      0.00
                                0.00      0.00      0.00


                                0.00      0.00      0.00
                                0.00      0.00      0.00


                                0.00      0.00      0.00


     Writing all to output data dir ./tmp/alpha-Al2O3-sym.save/

     init_run     :      3.05s CPU      3.23s WALL (       1 calls)
     electrons    :    713.76s CPU    742.20s WALL (       1 calls)
     forces       :      0.66s CPU      0.71s WALL (       1 calls)
     stress       :      2.23s CPU      2.26s WALL (       1 calls)

     Called by init_run:
     wfcinit      :      2.53s CPU      2.65s WALL (       1 calls)
     wfcinit:atom :      0.02s CPU      0.02s WALL (     189 calls)
     wfcinit:wfcr :      2.38s CPU      2.50s WALL (     189 calls)
     potinit      :      0.19s CPU      0.20s WALL (       1 calls)
     hinit0       :      0.24s CPU      0.27s WALL (       1 calls)

     Called by electrons:
     c_bands      :    677.98s CPU    704.46s WALL (      56 calls)
     sum_band     :     29.77s CPU     31.35s WALL (      56 calls)
     v_of_rho     :      0.55s CPU      0.63s WALL (      57 calls)
     v_h          :      0.03s CPU      0.04s WALL (      57 calls)
     v_xc         :      0.54s CPU      0.61s WALL (      59 calls)
     newd         :      1.26s CPU      1.30s WALL (      57 calls)
     PAW_pot      :      4.11s CPU      4.33s WALL (      57 calls)
     mix_rho      :      0.11s CPU      0.13s WALL (      56 calls)

     Called by c_bands:
     init_us_2    :      3.14s CPU      3.38s WALL (   21735 calls)
     init_us_2:cp :      3.10s CPU      3.35s WALL (   21735 calls)
     cegterg      :    668.56s CPU    694.29s WALL (   10703 calls)

     Called by sum_band:
     sum_band:wei :      0.00s CPU      0.00s WALL (      56 calls)
     sum_band:loo :     28.20s CPU     29.71s WALL (      56 calls)
     sum_band:buf :      0.14s CPU      0.15s WALL (   10584 calls)
     sum_band:ini :      1.43s CPU      1.57s WALL (   10584 calls)
     sum_band:cal :      2.87s CPU      3.14s WALL (   10584 calls)
     sum_band:bec :      0.33s CPU      0.36s WALL (   10584 calls)
     addusdens    :      1.42s CPU      1.48s WALL (      56 calls)
     addusd:skk   :      0.02s CPU      0.02s WALL (     112 calls)
     addusd:dgemm :      0.38s CPU      0.42s WALL (     112 calls)
     addusd:qvan2 :      0.92s CPU      0.93s WALL (     112 calls)

     Called by *egterg:
     cdiaghg      :    235.16s CPU    243.74s WALL (   80057 calls)
     cegterg:over :     53.36s CPU     56.87s WALL (   69354 calls)
     cegterg:upda :     31.13s CPU     31.74s WALL (   69354 calls)
     cegterg:last :     57.80s CPU     59.42s WALL (   59552 calls)
     cdiaghg:chol :     15.35s CPU     15.83s WALL (   80057 calls)
     cdiaghg:inve :      3.58s CPU      3.68s WALL (   80057 calls)
     cdiaghg:para :     19.93s CPU     20.39s WALL (  160114 calls)
     h_psi        :    275.01s CPU    285.28s WALL (   80246 calls)
     s_psi        :      6.67s CPU      7.29s WALL (   80246 calls)
     g_psi        :      1.27s CPU      1.30s WALL (   69354 calls)

     Called by h_psi:
     h_psi:calbec :     19.36s CPU     21.22s WALL (   80246 calls)
     vloc_psi     :    247.50s CPU    255.20s WALL (   80246 calls)
     add_vuspsi   :      7.15s CPU      7.83s WALL (   80246 calls)

     General routines
     calbec       :     22.26s CPU     24.47s WALL (   91775 calls)
     fft          :      0.32s CPU      0.42s WALL (     764 calls)
     ffts         :      0.01s CPU      0.02s WALL (     113 calls)
     fftw         :    243.72s CPU    251.58s WALL ( 3036200 calls)
     interpolate  :      0.03s CPU      0.05s WALL (      57 calls)

     Parallel routines

     PAW routines
     PAW_pot      :      4.11s CPU      4.33s WALL (      57 calls)
     PAW_symme    :      0.03s CPU      0.03s WALL (     113 calls)

     PWSCF        :  12m 1.60s CPU  12m33.62s WALL


   This run was terminated on:   2:12:37  19Jul2026            

=------------------------------------------------------------------------------=
   JOB DONE.
=------------------------------------------------------------------------------=
