generated by phonopy
   1.0
   138.1249906443491966    0.0000000000000000    0.0000000000000000
    69.0639012647187940  216.6199784278512084    0.0000000000000000
     0.0000000000000000    0.0000000000000000   30.0000000000000000
Ga O
6400 9600
Direct
  0.0139322104011790  0.0197958186375033  0.4040940118915999
  0.0389322104011790  0.0197958186375033  0.4040940118915999
  0.0639322104011790  0.0197958186375033  0.4040940118915999
  0.0889322104011790  0.0197958186375033  0.4040940118915999
  0.1139322104011790  0.0197958186375033  0.4040940118915999
  0.1389322104011790  0.0197958186375033  0.4040940118915999
  0.1639322104011790  0.0197958186375033  0.4040940118915999
  0.1889322104011791  0.0197958186375033  0.4040940118915999
  0.2139322104011790  0.0197958186375033  0.4040940118915999
  0.2389322104011790  0.0197958186375033  0.4040940118915999
  0.2639322104011789  0.0197958186375033  0.4040940118915999
  0.2889322104011790  0.0197958186375033  0.4040940118915999
  0.3139322104011790  0.0197958186375033  0.4040940118915999
  0.3389322104011790  0.0197958186375033  0.4040940118915999
  0.3639322104011790  0.0197958186375033  0.4040940118915999
  0.3889322104011790  0.0197958186375033  0.4040940118915999
  0.4139322104011790  0.0197958186375033  0.4040940118915999
  0.4389322104011790  0.0197958186375033  0.4040940118915999
  0.4639322104011790  0.0197958186375033  0.4040940118915999
  0.4889322104011791  0.0197958186375033  0.4040940118915999
  0.5139322104011792  0.0197958186375033  0.4040940118915999
  0.5389322104011790  0.0197958186375033  0.4040940118915999
  0.5639322104011790  0.0197958186375033  0.4040940118915999
  0.5889322104011790  0.0197958186375033  0.4040940118915999
  0.6139322104011792  0.0197958186375033  0.4040940118915999
  0.6389322104011791  0.0197958186375033  0.4040940118915999
  0.6639322104011791  0.0197958186375033  0.4040940118915999
  0.6889322104011790  0.0197958186375033  0.4040940118915999
  0.7139322104011790  0.0197958186375033  0.4040940118915999
  0.7389322104011791  0.0197958186375033  0.4040940118915999
  0.7639322104011791  0.0197958186375033  0.4040940118915999
  0.7889322104011792  0.0197958186375033  0.4040940118915999
  0.8139322104011790  0.0197958186375033  0.4040940118915999
  0.8389322104011789  0.0197958186375033  0.4040940118915999
  0.8639322104011790  0.0197958186375033  0.4040940118915999
  0.8889322104011790  0.0197958186375033  0.4040940118915999
  0.9139322104011790  0.0197958186375033  0.4040940118915999
  0.9389322104011789  0.0197958186375033  0.4040940118915999
  0.9639322104011788  0.0197958186375033  0.4040940118915999
  0.9889322104011790  0.0197958186375033  0.4040940118915999
  0.0139322104011790  0.0447958186375033  0.4040940118915999
  0.0389322104011790  0.0447958186375033  0.4040940118915999
  0.0639322104011790  0.0447958186375033  0.4040940118915999
  0.0889322104011790  0.0447958186375033  0.4040940118915999
  0.1139322104011790  0.0447958186375033  0.4040940118915999
  0.1389322104011790  0.0447958186375033  0.4040940118915999
  0.1639322104011790  0.0447958186375033  0.4040940118915999
  0.1889322104011790  0.0447958186375033  0.4040940118915999
  0.2139322104011790  0.0447958186375033  0.4040940118915999
  0.2389322104011790  0.0447958186375033  0.4040940118915999
  0.2639322104011789  0.0447958186375033  0.4040940118915999
  0.2889322104011790  0.0447958186375033  0.4040940118915999
  0.3139322104011790  0.0447958186375033  0.4040940118915999
  0.3389322104011790  0.0447958186375033  0.4040940118915999
  0.3639322104011790  0.0447958186375033  0.4040940118915999
  0.3889322104011790  0.0447958186375033  0.4040940118915999
  0.4139322104011790  0.0447958186375033  0.4040940118915999
  0.4389322104011790  0.0447958186375033  0.4040940118915999
  0.4639322104011790  0.0447958186375033  0.4040940118915999
  0.4889322104011790  0.0447958186375033  0.4040940118915999
  0.5139322104011791  0.0447958186375033  0.4040940118915999
  0.5389322104011790  0.0447958186375033  0.4040940118915999
  0.5639322104011789  0.0447958186375033  0.4040940118915999
  0.5889322104011789  0.0447958186375033  0.4040940118915999
  0.6139322104011791  0.0447958186375033  0.4040940118915999
  0.6389322104011791  0.0447958186375033  0.4040940118915999
  0.6639322104011790  0.0447958186375033  0.4040940118915999
  0.6889322104011789  0.0447958186375033  0.4040940118915999
  0.7139322104011790  0.0447958186375033  0.4040940118915999
  0.7389322104011791  0.0447958186375033  0.4040940118915999
  0.7639322104011790  0.0447958186375033  0.4040940118915999
  0.7889322104011791  0.0447958186375033  0.4040940118915999
  0.8139322104011790  0.0447958186375033  0.4040940118915999
  0.8389322104011789  0.0447958186375033  0.4040940118915999
  0.8639322104011788  0.0447958186375033  0.4040940118915999
  0.8889322104011789  0.0447958186375033  0.4040940118915999
  0.9139322104011789  0.0447958186375033  0.4040940118915999
  0.9389322104011790  0.0447958186375033  0.4040940118915999
  0.9639322104011788  0.0447958186375033  0.4040940118915999
  0.9889322104011790  0.0447958186375033  0.4040940118915999
  0.0139322104011790  0.0697958186375033  0.4040940118915999
  0.0389322104011790  0.0697958186375033  0.4040940118915999
  0.0639322104011790  0.0697958186375033  0.4040940118915999
  0.0889322104011790  0.0697958186375033  0.4040940118915999
  0.1139322104011790  0.0697958186375033  0.4040940118915999
  0.1389322104011790  0.0697958186375033  0.4040940118915999
  0.1639322104011790  0.0697958186375033  0.4040940118915999
  0.1889322104011790  0.0697958186375033  0.4040940118915999
  0.2139322104011790  0.0697958186375033  0.4040940118915999
  0.2389322104011790  0.0697958186375033  0.4040940118915999
  0.2639322104011790  0.0697958186375033  0.4040940118915999
  0.2889322104011790  0.0697958186375033  0.4040940118915999
  0.3139322104011790  0.0697958186375033  0.4040940118915999
  0.3389322104011790  0.0697958186375033  0.4040940118915999
  0.3639322104011790  0.0697958186375033  0.4040940118915999
  0.3889322104011790  0.0697958186375033  0.4040940118915999
  0.4139322104011791  0.0697958186375033  0.4040940118915999
  0.4389322104011790  0.0697958186375033  0.4040940118915999
  0.4639322104011790  0.0697958186375033  0.4040940118915999
  0.4889322104011791  0.0697958186375033  0.4040940118915999
  0.5139322104011791  0.0697958186375033  0.4040940118915999
  0.5389322104011790  0.0697958186375033  0.4040940118915999
  0.5639322104011790  0.0697958186375033  0.4040940118915999
  0.5889322104011790  0.0697958186375033  0.4040940118915999
  0.6139322104011791  0.0697958186375033  0.4040940118915999
  0.6389322104011791  0.0697958186375033  0.4040940118915999
  0.6639322104011791  0.0697958186375033  0.4040940118915999
  0.6889322104011790  0.0697958186375033  0.4040940118915999
  0.7139322104011790  0.0697958186375033  0.4040940118915999
  0.7389322104011791  0.0697958186375033  0.4040940118915999
  0.7639322104011791  0.0697958186375033  0.4040940118915999
  0.7889322104011791  0.0697958186375033  0.4040940118915999
  0.8139322104011790  0.0697958186375033  0.4040940118915999
  0.8389322104011789  0.0697958186375033  0.4040940118915999
  0.8639322104011790  0.0697958186375033  0.4040940118915999
  0.8889322104011790  0.0697958186375033  0.4040940118915999
  0.9139322104011790  0.0697958186375033  0.4040940118915999
  0.9389322104011789  0.0697958186375033  0.4040940118915999
  0.9639322104011788  0.0697958186375033  0.4040940118915999
  0.9889322104011788  0.0697958186375033  0.4040940118915999
  0.0139322104011790  0.0947958186375032  0.4040940118915999
  0.0389322104011790  0.0947958186375032  0.4040940118915999
  0.0639322104011790  0.0947958186375032  0.4040940118915999
  0.0889322104011790  0.0947958186375032  0.4040940118915999
  0.1139322104011790  0.0947958186375032  0.4040940118915999
  0.1389322104011790  0.0947958186375032  0.4040940118915999
  0.1639322104011790  0.0947958186375032  0.4040940118915999
  0.1889322104011791  0.0947958186375032  0.4040940118915999
  0.2139322104011790  0.0947958186375032  0.4040940118915999
  0.2389322104011790  0.0947958186375032  0.4040940118915999
  0.2639322104011790  0.0947958186375032  0.4040940118915999
  0.2889322104011790  0.0947958186375032  0.4040940118915999
  0.3139322104011790  0.0947958186375032  0.4040940118915999
  0.3389322104011790  0.0947958186375032  0.4040940118915999
  0.3639322104011790  0.0947958186375032  0.4040940118915999
  0.3889322104011790  0.0947958186375032  0.4040940118915999
  0.4139322104011791  0.0947958186375032  0.4040940118915999
  0.4389322104011790  0.0947958186375032  0.4040940118915999
  0.4639322104011790  0.0947958186375032  0.4040940118915999
  0.4889322104011790  0.0947958186375032  0.4040940118915999
  0.5139322104011792  0.0947958186375032  0.4040940118915999
  0.5389322104011791  0.0947958186375032  0.4040940118915999
  0.5639322104011790  0.0947958186375032  0.4040940118915999
  0.5889322104011790  0.0947958186375032  0.4040940118915999
  0.6139322104011792  0.0947958186375032  0.4040940118915999
  0.6389322104011791  0.0947958186375032  0.4040940118915999
  0.6639322104011791  0.0947958186375032  0.4040940118915999
  0.6889322104011790  0.0947958186375032  0.4040940118915999
  0.7139322104011792  0.0947958186375032  0.4040940118915999
  0.7389322104011791  0.0947958186375032  0.4040940118915999
  0.7639322104011791  0.0947958186375032  0.4040940118915999
  0.7889322104011792  0.0947958186375032  0.4040940118915999
  0.8139322104011791  0.0947958186375032  0.4040940118915999
  0.8389322104011789  0.0947958186375032  0.4040940118915999
  0.8639322104011790  0.0947958186375032  0.4040940118915999
  0.8889322104011789  0.0947958186375032  0.4040940118915999
  0.9139322104011790  0.0947958186375032  0.4040940118915999
  0.9389322104011790  0.0947958186375032  0.4040940118915999
  0.9639322104011790  0.0947958186375032  0.4040940118915999
  0.9889322104011790  0.0947958186375032  0.4040940118915999
  0.0139322104011790  0.1197958186375033  0.4040940118915999
  0.0389322104011790  0.1197958186375033  0.4040940118915999
  0.0639322104011790  0.1197958186375033  0.4040940118915999
  0.0889322104011790  0.1197958186375033  0.4040940118915999
  0.1139322104011790  0.1197958186375033  0.4040940118915999
  0.1389322104011790  0.1197958186375033  0.4040940118915999
  0.1639322104011790  0.1197958186375033  0.4040940118915999
  0.1889322104011791  0.1197958186375033  0.4040940118915999
  0.2139322104011790  0.1197958186375033  0.4040940118915999
  0.2389322104011790  0.1197958186375033  0.4040940118915999
  0.2639322104011789  0.1197958186375033  0.4040940118915999
  0.2889322104011790  0.1197958186375033  0.4040940118915999
  0.3139322104011790  0.1197958186375033  0.4040940118915999
  0.3389322104011790  0.1197958186375033  0.4040940118915999
  0.3639322104011790  0.1197958186375033  0.4040940118915999
  0.3889322104011790  0.1197958186375033  0.4040940118915999
  0.4139322104011790  0.1197958186375033  0.4040940118915999
  0.4389322104011790  0.1197958186375033  0.4040940118915999
  0.4639322104011790  0.1197958186375033  0.4040940118915999
  0.4889322104011790  0.1197958186375033  0.4040940118915999
  0.5139322104011791  0.1197958186375033  0.4040940118915999
  0.5389322104011790  0.1197958186375033  0.4040940118915999
  0.5639322104011790  0.1197958186375033  0.4040940118915999
  0.5889322104011789  0.1197958186375033  0.4040940118915999
  0.6139322104011791  0.1197958186375033  0.4040940118915999
  0.6389322104011791  0.1197958186375033  0.4040940118915999
  0.6639322104011791  0.1197958186375033  0.4040940118915999
  0.6889322104011789  0.1197958186375033  0.4040940118915999
  0.7139322104011790  0.1197958186375033  0.4040940118915999
  0.7389322104011791  0.1197958186375033  0.4040940118915999
  0.7639322104011791  0.1197958186375033  0.4040940118915999
  0.7889322104011791  0.1197958186375033  0.4040940118915999
  0.8139322104011790  0.1197958186375033  0.4040940118915999
  0.8389322104011789  0.1197958186375033  0.4040940118915999
  0.8639322104011790  0.1197958186375033  0.4040940118915999
  0.8889322104011789  0.1197958186375033  0.4040940118915999
  0.9139322104011790  0.1197958186375033  0.4040940118915999
  0.9389322104011789  0.1197958186375033  0.4040940118915999
  0.9639322104011788  0.1197958186375033  0.4040940118915999
  0.9889322104011790  0.1197958186375033  0.4040940118915999
  0.0139322104011790  0.1447958186375033  0.4040940118915999
  0.0389322104011790  0.1447958186375033  0.4040940118915999
  0.0639322104011790  0.1447958186375033  0.4040940118915999
  0.0889322104011790  0.1447958186375033  0.4040940118915999
  0.1139322104011790  0.1447958186375033  0.4040940118915999
  0.1389322104011790  0.1447958186375033  0.4040940118915999
  0.1639322104011790  0.1447958186375033  0.4040940118915999
  0.1889322104011791  0.1447958186375033  0.4040940118915999
  0.2139322104011790  0.1447958186375033  0.4040940118915999
  0.2389322104011790  0.1447958186375033  0.4040940118915999
  0.2639322104011789  0.1447958186375033  0.4040940118915999
  0.2889322104011790  0.1447958186375033  0.4040940118915999
  0.3139322104011790  0.1447958186375033  0.4040940118915999
  0.3389322104011790  0.1447958186375033  0.4040940118915999
  0.3639322104011790  0.1447958186375033  0.4040940118915999
  0.3889322104011790  0.1447958186375033  0.4040940118915999
  0.4139322104011790  0.1447958186375033  0.4040940118915999
  0.4389322104011790  0.1447958186375033  0.4040940118915999
  0.4639322104011790  0.1447958186375033  0.4040940118915999
  0.4889322104011790  0.1447958186375033  0.4040940118915999
  0.5139322104011791  0.1447958186375033  0.4040940118915999
  0.5389322104011790  0.1447958186375033  0.4040940118915999
  0.5639322104011790  0.1447958186375033  0.4040940118915999
  0.5889322104011790  0.1447958186375033  0.4040940118915999
  0.6139322104011791  0.1447958186375033  0.4040940118915999
  0.6389322104011791  0.1447958186375033  0.4040940118915999
  0.6639322104011791  0.1447958186375033  0.4040940118915999
  0.6889322104011790  0.1447958186375033  0.4040940118915999
  0.7139322104011790  0.1447958186375033  0.4040940118915999
  0.7389322104011791  0.1447958186375033  0.4040940118915999
  0.7639322104011791  0.1447958186375033  0.4040940118915999
  0.7889322104011792  0.1447958186375033  0.4040940118915999
  0.8139322104011790  0.1447958186375033  0.4040940118915999
  0.8389322104011789  0.1447958186375033  0.4040940118915999
  0.8639322104011790  0.1447958186375033  0.4040940118915999
  0.8889322104011789  0.1447958186375033  0.4040940118915999
  0.9139322104011790  0.1447958186375033  0.4040940118915999
  0.9389322104011790  0.1447958186375033  0.4040940118915999
  0.9639322104011789  0.1447958186375033  0.4040940118915999
  0.9889322104011791  0.1447958186375033  0.4040940118915999
  0.0139322104011790  0.1697958186375033  0.4040940118915999
  0.0389322104011790  0.1697958186375033  0.4040940118915999
  0.0639322104011790  0.1697958186375033  0.4040940118915999
  0.0889322104011790  0.1697958186375033  0.4040940118915999
  0.1139322104011790  0.1697958186375033  0.4040940118915999
  0.1389322104011790  0.1697958186375033  0.4040940118915999
  0.1639322104011790  0.1697958186375033  0.4040940118915999
  0.1889322104011790  0.1697958186375033  0.4040940118915999
  0.2139322104011790  0.1697958186375033  0.4040940118915999
  0.2389322104011790  0.1697958186375033  0.4040940118915999
  0.2639322104011790  0.1697958186375033  0.4040940118915999
  0.2889322104011790  0.1697958186375033  0.4040940118915999
  0.3139322104011790  0.1697958186375033  0.4040940118915999
  0.3389322104011790  0.1697958186375033  0.4040940118915999
  0.3639322104011790  0.1697958186375033  0.4040940118915999
  0.3889322104011790  0.1697958186375033  0.4040940118915999
  0.4139322104011791  0.1697958186375033  0.4040940118915999
  0.4389322104011791  0.1697958186375033  0.4040940118915999
  0.4639322104011790  0.1697958186375033  0.4040940118915999
  0.4889322104011790  0.1697958186375033  0.4040940118915999
  0.5139322104011791  0.1697958186375033  0.4040940118915999
  0.5389322104011790  0.1697958186375033  0.4040940118915999
  0.5639322104011789  0.1697958186375033  0.4040940118915999
  0.5889322104011789  0.1697958186375033  0.4040940118915999
  0.6139322104011791  0.1697958186375033  0.4040940118915999
  0.6389322104011791  0.1697958186375033  0.4040940118915999
  0.6639322104011790  0.1697958186375033  0.4040940118915999
  0.6889322104011789  0.1697958186375033  0.4040940118915999
  0.7139322104011790  0.1697958186375033  0.4040940118915999
  0.7389322104011791  0.1697958186375033  0.4040940118915999
  0.7639322104011790  0.1697958186375033  0.4040940118915999
  0.7889322104011791  0.1697958186375033  0.4040940118915999
  0.8139322104011790  0.1697958186375033  0.4040940118915999
  0.8389322104011789  0.1697958186375033  0.4040940118915999
  0.8639322104011790  0.1697958186375033  0.4040940118915999
  0.8889322104011789  0.1697958186375033  0.4040940118915999
  0.9139322104011790  0.1697958186375033  0.4040940118915999
  0.9389322104011790  0.1697958186375033  0.4040940118915999
  0.9639322104011789  0.1697958186375033  0.4040940118915999
  0.9889322104011791  0.1697958186375033  0.4040940118915999
  0.0139322104011790  0.1947958186375033  0.4040940118915999
  0.0389322104011790  0.1947958186375033  0.4040940118915999
  0.0639322104011790  0.1947958186375033  0.4040940118915999
  0.0889322104011790  0.1947958186375033  0.4040940118915999
  0.1139322104011790  0.1947958186375033  0.4040940118915999
  0.1389322104011790  0.1947958186375033  0.4040940118915999
  0.1639322104011791  0.1947958186375033  0.4040940118915999
  0.1889322104011790  0.1947958186375033  0.4040940118915999
  0.2139322104011790  0.1947958186375033  0.4040940118915999
  0.2389322104011790  0.1947958186375033  0.4040940118915999
  0.2639322104011790  0.1947958186375033  0.4040940118915999
  0.2889322104011790  0.1947958186375033  0.4040940118915999
  0.3139322104011790  0.1947958186375033  0.4040940118915999
  0.3389322104011790  0.1947958186375033  0.4040940118915999
  0.3639322104011790  0.1947958186375033  0.4040940118915999
  0.3889322104011790  0.1947958186375033  0.4040940118915999
  0.4139322104011790  0.1947958186375033  0.4040940118915999
  0.4389322104011790  0.1947958186375033  0.4040940118915999
  0.4639322104011790  0.1947958186375033  0.4040940118915999
  0.4889322104011791  0.1947958186375033  0.4040940118915999
  0.5139322104011791  0.1947958186375033  0.4040940118915999
  0.5389322104011790  0.1947958186375033  0.4040940118915999
  0.5639322104011790  0.1947958186375033  0.4040940118915999
  0.5889322104011790  0.1947958186375033  0.4040940118915999
  0.6139322104011791  0.1947958186375033  0.4040940118915999
  0.6389322104011791  0.1947958186375033  0.4040940118915999
  0.6639322104011791  0.1947958186375033  0.4040940118915999
  0.6889322104011790  0.1947958186375033  0.4040940118915999
  0.7139322104011790  0.1947958186375033  0.4040940118915999
  0.7389322104011791  0.1947958186375033  0.4040940118915999
  0.7639322104011791  0.1947958186375033  0.4040940118915999
  0.7889322104011791  0.1947958186375033  0.4040940118915999
  0.8139322104011790  0.1947958186375033  0.4040940118915999
  0.8389322104011790  0.1947958186375033  0.4040940118915999
  0.8639322104011790  0.1947958186375033  0.4040940118915999
  0.8889322104011790  0.1947958186375033  0.4040940118915999
  0.9139322104011792  0.1947958186375033  0.4040940118915999
  0.9389322104011789  0.1947958186375033  0.4040940118915999
  0.9639322104011788  0.1947958186375033  0.4040940118915999
  0.9889322104011790  0.1947958186375033  0.4040940118915999
  0.0139322104011790  0.2197958186375033  0.4040940118915999
  0.0389322104011790  0.2197958186375033  0.4040940118915999
  0.0639322104011790  0.2197958186375033  0.4040940118915999
  0.0889322104011790  0.2197958186375033  0.4040940118915999
  0.1139322104011790  0.2197958186375033  0.4040940118915999
  0.1389322104011790  0.2197958186375033  0.4040940118915999
  0.1639322104011791  0.2197958186375033  0.4040940118915999
  0.1889322104011790  0.2197958186375033  0.4040940118915999
  0.2139322104011790  0.2197958186375033  0.4040940118915999
  0.2389322104011790  0.2197958186375033  0.4040940118915999
  0.2639322104011790  0.2197958186375033  0.4040940118915999
  0.2889322104011790  0.2197958186375033  0.4040940118915999
  0.3139322104011790  0.2197958186375033  0.4040940118915999
  0.3389322104011790  0.2197958186375033  0.4040940118915999
  0.3639322104011790  0.2197958186375033  0.4040940118915999
  0.3889322104011790  0.2197958186375033  0.4040940118915999
  0.4139322104011791  0.2197958186375033  0.4040940118915999
  0.4389322104011790  0.2197958186375033  0.4040940118915999
  0.4639322104011790  0.2197958186375033  0.4040940118915999
  0.4889322104011790  0.2197958186375033  0.4040940118915999
  0.5139322104011791  0.2197958186375033  0.4040940118915999
  0.5389322104011789  0.2197958186375033  0.4040940118915999
  0.5639322104011789  0.2197958186375033  0.4040940118915999
  0.5889322104011789  0.2197958186375033  0.4040940118915999
  0.6139322104011791  0.2197958186375033  0.4040940118915999
  0.6389322104011790  0.2197958186375033  0.4040940118915999
  0.6639322104011790  0.2197958186375033  0.4040940118915999
  0.6889322104011789  0.2197958186375033  0.4040940118915999
  0.7139322104011790  0.2197958186375033  0.4040940118915999
  0.7389322104011790  0.2197958186375033  0.4040940118915999
  0.7639322104011790  0.2197958186375033  0.4040940118915999
  0.7889322104011791  0.2197958186375033  0.4040940118915999
  0.8139322104011790  0.2197958186375033  0.4040940118915999
  0.8389322104011788  0.2197958186375033  0.4040940118915999
  0.8639322104011790  0.2197958186375033  0.4040940118915999
  0.8889322104011789  0.2197958186375033  0.4040940118915999
  0.9139322104011790  0.2197958186375033  0.4040940118915999
  0.9389322104011791  0.2197958186375033  0.4040940118915999
  0.9639322104011790  0.2197958186375033  0.4040940118915999
  0.9889322104011790  0.2197958186375033  0.4040940118915999
  0.0139322104011790  0.2447958186375033  0.4040940118915999
  0.0389322104011790  0.2447958186375033  0.4040940118915999
  0.0639322104011790  0.2447958186375033  0.4040940118915999
  0.0889322104011790  0.2447958186375033  0.4040940118915999
  0.1139322104011790  0.2447958186375033  0.4040940118915999
  0.1389322104011790  0.2447958186375033  0.4040940118915999
  0.1639322104011790  0.2447958186375033  0.4040940118915999
  0.1889322104011790  0.2447958186375033  0.4040940118915999
  0.2139322104011790  0.2447958186375033  0.4040940118915999
  0.2389322104011790  0.2447958186375033  0.4040940118915999
  0.2639322104011789  0.2447958186375033  0.4040940118915999
  0.2889322104011790  0.2447958186375033  0.4040940118915999
  0.3139322104011790  0.2447958186375033  0.4040940118915999
  0.3389322104011790  0.2447958186375033  0.4040940118915999
  0.3639322104011790  0.2447958186375033  0.4040940118915999
  0.3889322104011790  0.2447958186375033  0.4040940118915999
  0.4139322104011790  0.2447958186375033  0.4040940118915999
  0.4389322104011790  0.2447958186375033  0.4040940118915999
  0.4639322104011790  0.2447958186375033  0.4040940118915999
  0.4889322104011790  0.2447958186375033  0.4040940118915999
  0.5139322104011791  0.2447958186375033  0.4040940118915999
  0.5389322104011790  0.2447958186375033  0.4040940118915999
  0.5639322104011790  0.2447958186375033  0.4040940118915999
  0.5889322104011789  0.2447958186375033  0.4040940118915999
  0.6139322104011791  0.2447958186375033  0.4040940118915999
  0.6389322104011791  0.2447958186375033  0.4040940118915999
  0.6639322104011791  0.2447958186375033  0.4040940118915999
  0.6889322104011789  0.2447958186375033  0.4040940118915999
  0.7139322104011790  0.2447958186375033  0.4040940118915999
  0.7389322104011791  0.2447958186375033  0.4040940118915999
  0.7639322104011790  0.2447958186375033  0.4040940118915999
  0.7889322104011791  0.2447958186375033  0.4040940118915999
  0.8139322104011791  0.2447958186375033  0.4040940118915999
  0.8389322104011790  0.2447958186375033  0.4040940118915999
  0.8639322104011790  0.2447958186375033  0.4040940118915999
  0.8889322104011790  0.2447958186375033  0.4040940118915999
  0.9139322104011791  0.2447958186375033  0.4040940118915999
  0.9389322104011790  0.2447958186375033  0.4040940118915999
  0.9639322104011789  0.2447958186375033  0.4040940118915999
  0.9889322104011791  0.2447958186375033  0.4040940118915999
  0.0139322104011790  0.2697958186375033  0.4040940118915999
  0.0389322104011790  0.2697958186375033  0.4040940118915999
  0.0639322104011790  0.2697958186375033  0.4040940118915999
  0.0889322104011790  0.2697958186375033  0.4040940118915999
  0.1139322104011790  0.2697958186375033  0.4040940118915999
  0.1389322104011790  0.2697958186375033  0.4040940118915999
  0.1639322104011790  0.2697958186375033  0.4040940118915999
  0.1889322104011790  0.2697958186375033  0.4040940118915999
  0.2139322104011790  0.2697958186375033  0.4040940118915999
  0.2389322104011790  0.2697958186375033  0.4040940118915999
  0.2639322104011790  0.2697958186375033  0.4040940118915999
  0.2889322104011790  0.2697958186375033  0.4040940118915999
  0.3139322104011790  0.2697958186375033  0.4040940118915999
  0.3389322104011790  0.2697958186375033  0.4040940118915999
  0.3639322104011790  0.2697958186375033  0.4040940118915999
  0.3889322104011790  0.2697958186375033  0.4040940118915999
  0.4139322104011789  0.2697958186375033  0.4040940118915999
  0.4389322104011790  0.2697958186375033  0.4040940118915999
  0.4639322104011790  0.2697958186375033  0.4040940118915999
  0.4889322104011790  0.2697958186375033  0.4040940118915999
  0.5139322104011791  0.2697958186375033  0.4040940118915999
  0.5389322104011790  0.2697958186375033  0.4040940118915999
  0.5639322104011790  0.2697958186375033  0.4040940118915999
  0.5889322104011790  0.2697958186375033  0.4040940118915999
  0.6139322104011791  0.2697958186375033  0.4040940118915999
  0.6389322104011791  0.2697958186375033  0.4040940118915999
  0.6639322104011791  0.2697958186375033  0.4040940118915999
  0.6889322104011790  0.2697958186375033  0.4040940118915999
  0.7139322104011790  0.2697958186375033  0.4040940118915999
  0.7389322104011791  0.2697958186375033  0.4040940118915999
  0.7639322104011791  0.2697958186375033  0.4040940118915999
  0.7889322104011792  0.2697958186375033  0.4040940118915999
  0.8139322104011790  0.2697958186375033  0.4040940118915999
  0.8389322104011789  0.2697958186375033  0.4040940118915999
  0.8639322104011791  0.2697958186375033  0.4040940118915999
  0.8889322104011789  0.2697958186375033  0.4040940118915999
  0.9139322104011790  0.2697958186375033  0.4040940118915999
  0.9389322104011791  0.2697958186375033  0.4040940118915999
  0.9639322104011790  0.2697958186375033  0.4040940118915999
  0.9889322104011792  0.2697958186375033  0.4040940118915999
  0.0139322104011790  0.2947958186375033  0.4040940118915999
  0.0389322104011790  0.2947958186375033  0.4040940118915999
  0.0639322104011791  0.2947958186375033  0.4040940118915999
  0.0889322104011790  0.2947958186375033  0.4040940118915999
  0.1139322104011790  0.2947958186375033  0.4040940118915999
  0.1389322104011790  0.2947958186375033  0.4040940118915999
  0.1639322104011790  0.2947958186375033  0.4040940118915999
  0.1889322104011791  0.2947958186375033  0.4040940118915999
  0.2139322104011790  0.2947958186375033  0.4040940118915999
  0.2389322104011790  0.2947958186375033  0.4040940118915999
  0.2639322104011790  0.2947958186375033  0.4040940118915999
  0.2889322104011790  0.2947958186375033  0.4040940118915999
  0.3139322104011790  0.2947958186375033  0.4040940118915999
  0.3389322104011790  0.2947958186375033  0.4040940118915999
  0.3639322104011790  0.2947958186375033  0.4040940118915999
  0.3889322104011790  0.2947958186375033  0.4040940118915999
  0.4139322104011790  0.2947958186375033  0.4040940118915999
  0.4389322104011790  0.2947958186375033  0.4040940118915999
  0.4639322104011789  0.2947958186375033  0.4040940118915999
  0.4889322104011790  0.2947958186375033  0.4040940118915999
  0.5139322104011791  0.2947958186375033  0.4040940118915999
  0.5389322104011790  0.2947958186375033  0.4040940118915999
  0.5639322104011789  0.2947958186375033  0.4040940118915999
  0.5889322104011789  0.2947958186375033  0.4040940118915999
  0.6139322104011791  0.2947958186375033  0.4040940118915999
  0.6389322104011791  0.2947958186375033  0.4040940118915999
  0.6639322104011790  0.2947958186375033  0.4040940118915999
  0.6889322104011789  0.2947958186375033  0.4040940118915999
  0.7139322104011790  0.2947958186375033  0.4040940118915999
  0.7389322104011791  0.2947958186375033  0.4040940118915999
  0.7639322104011790  0.2947958186375033  0.4040940118915999
  0.7889322104011792  0.2947958186375033  0.4040940118915999
  0.8139322104011791  0.2947958186375033  0.4040940118915999
  0.8389322104011790  0.2947958186375033  0.4040940118915999
  0.8639322104011790  0.2947958186375033  0.4040940118915999
  0.8889322104011791  0.2947958186375033  0.4040940118915999
  0.9139322104011790  0.2947958186375033  0.4040940118915999
  0.9389322104011789  0.2947958186375033  0.4040940118915999
  0.9639322104011788  0.2947958186375033  0.4040940118915999
  0.9889322104011790  0.2947958186375033  0.4040940118915999
  0.0139322104011790  0.3197958186375033  0.4040940118915999
  0.0389322104011790  0.3197958186375033  0.4040940118915999
  0.0639322104011790  0.3197958186375033  0.4040940118915999
  0.0889322104011790  0.3197958186375033  0.4040940118915999
  0.1139322104011790  0.3197958186375033  0.4040940118915999
  0.1389322104011790  0.3197958186375033  0.4040940118915999
  0.1639322104011790  0.3197958186375033  0.4040940118915999
  0.1889322104011791  0.3197958186375033  0.4040940118915999
  0.2139322104011790  0.3197958186375033  0.4040940118915999
  0.2389322104011790  0.3197958186375033  0.4040940118915999
  0.2639322104011790  0.3197958186375033  0.4040940118915999
  0.2889322104011791  0.3197958186375033  0.4040940118915999
  0.3139322104011791  0.3197958186375033  0.4040940118915999
  0.3389322104011790  0.3197958186375033  0.4040940118915999
  0.3639322104011791  0.3197958186375033  0.4040940118915999
  0.3889322104011791  0.3197958186375033  0.4040940118915999
  0.4139322104011790  0.3197958186375033  0.4040940118915999
  0.4389322104011790  0.3197958186375033  0.4040940118915999
  0.4639322104011790  0.3197958186375033  0.4040940118915999
  0.4889322104011791  0.3197958186375033  0.4040940118915999
  0.5139322104011791  0.3197958186375033  0.4040940118915999
  0.5389322104011790  0.3197958186375033  0.4040940118915999
  0.5639322104011790  0.3197958186375033  0.4040940118915999
  0.5889322104011789  0.3197958186375033  0.4040940118915999
  0.6139322104011791  0.3197958186375033  0.4040940118915999
  0.6389322104011791  0.3197958186375033  0.4040940118915999
  0.6639322104011791  0.3197958186375033  0.4040940118915999
  0.6889322104011789  0.3197958186375033  0.4040940118915999
  0.7139322104011790  0.3197958186375033  0.4040940118915999
  0.7389322104011791  0.3197958186375033  0.4040940118915999
  0.7639322104011791  0.3197958186375033  0.4040940118915999
  0.7889322104011791  0.3197958186375033  0.4040940118915999
  0.8139322104011790  0.3197958186375033  0.4040940118915999
  0.8389322104011789  0.3197958186375033  0.4040940118915999
  0.8639322104011791  0.3197958186375033  0.4040940118915999
  0.8889322104011790  0.3197958186375033  0.4040940118915999
  0.9139322104011791  0.3197958186375033  0.4040940118915999
  0.9389322104011790  0.3197958186375033  0.4040940118915999
  0.9639322104011789  0.3197958186375033  0.4040940118915999
  0.9889322104011791  0.3197958186375033  0.4040940118915999
  0.0139322104011790  0.3447958186375033  0.4040940118915999
  0.0389322104011790  0.3447958186375033  0.4040940118915999
  0.0639322104011790  0.3447958186375033  0.4040940118915999
  0.0889322104011790  0.3447958186375033  0.4040940118915999
  0.1139322104011790  0.3447958186375033  0.4040940118915999
  0.1389322104011791  0.3447958186375033  0.4040940118915999
  0.1639322104011790  0.3447958186375033  0.4040940118915999
  0.1889322104011791  0.3447958186375033  0.4040940118915999
  0.2139322104011790  0.3447958186375033  0.4040940118915999
  0.2389322104011790  0.3447958186375033  0.4040940118915999
  0.2639322104011790  0.3447958186375033  0.4040940118915999
  0.2889322104011791  0.3447958186375033  0.4040940118915999
  0.3139322104011790  0.3447958186375033  0.4040940118915999
  0.3389322104011790  0.3447958186375033  0.4040940118915999
  0.3639322104011790  0.3447958186375033  0.4040940118915999
  0.3889322104011790  0.3447958186375033  0.4040940118915999
  0.4139322104011792  0.3447958186375033  0.4040940118915999
  0.4389322104011791  0.3447958186375033  0.4040940118915999
  0.4639322104011791  0.3447958186375033  0.4040940118915999
  0.4889322104011791  0.3447958186375033  0.4040940118915999
  0.5139322104011791  0.3447958186375033  0.4040940118915999
  0.5389322104011790  0.3447958186375033  0.4040940118915999
  0.5639322104011790  0.3447958186375033  0.4040940118915999
  0.5889322104011790  0.3447958186375033  0.4040940118915999
  0.6139322104011791  0.3447958186375033  0.4040940118915999
  0.6389322104011791  0.3447958186375033  0.4040940118915999
  0.6639322104011791  0.3447958186375033  0.4040940118915999
  0.6889322104011790  0.3447958186375033  0.4040940118915999
  0.7139322104011790  0.3447958186375033  0.4040940118915999
  0.7389322104011791  0.3447958186375033  0.4040940118915999
  0.7639322104011791  0.3447958186375033  0.4040940118915999
  0.7889322104011792  0.3447958186375033  0.4040940118915999
  0.8139322104011790  0.3447958186375033  0.4040940118915999
  0.8389322104011789  0.3447958186375033  0.4040940118915999
  0.8639322104011788  0.3447958186375033  0.4040940118915999
  0.8889322104011790  0.3447958186375033  0.4040940118915999
  0.9139322104011791  0.3447958186375033  0.4040940118915999
  0.9389322104011790  0.3447958186375033  0.4040940118915999
  0.9639322104011789  0.3447958186375033  0.4040940118915999
  0.9889322104011788  0.3447958186375033  0.4040940118915999
  0.0139322104011790  0.3697958186375033  0.4040940118915999
  0.0389322104011790  0.3697958186375033  0.4040940118915999
  0.0639322104011790  0.3697958186375033  0.4040940118915999
  0.0889322104011790  0.3697958186375033  0.4040940118915999
  0.1139322104011790  0.3697958186375033  0.4040940118915999
  0.1389322104011790  0.3697958186375033  0.4040940118915999
  0.1639322104011790  0.3697958186375033  0.4040940118915999
  0.1889322104011791  0.3697958186375033  0.4040940118915999
  0.2139322104011790  0.3697958186375033  0.4040940118915999
  0.2389322104011790  0.3697958186375033  0.4040940118915999
  0.2639322104011790  0.3697958186375033  0.4040940118915999
  0.2889322104011791  0.3697958186375033  0.4040940118915999
  0.3139322104011790  0.3697958186375033  0.4040940118915999
  0.3389322104011790  0.3697958186375033  0.4040940118915999
  0.3639322104011791  0.3697958186375033  0.4040940118915999
  0.3889322104011790  0.3697958186375033  0.4040940118915999
  0.4139322104011790  0.3697958186375033  0.4040940118915999
  0.4389322104011790  0.3697958186375033  0.4040940118915999
  0.4639322104011790  0.3697958186375033  0.4040940118915999
  0.4889322104011790  0.3697958186375033  0.4040940118915999
  0.5139322104011791  0.3697958186375033  0.4040940118915999
  0.5389322104011790  0.3697958186375033  0.4040940118915999
  0.5639322104011790  0.3697958186375033  0.4040940118915999
  0.5889322104011789  0.3697958186375033  0.4040940118915999
  0.6139322104011791  0.3697958186375033  0.4040940118915999
  0.6389322104011791  0.3697958186375033  0.4040940118915999
  0.6639322104011790  0.3697958186375033  0.4040940118915999
  0.6889322104011789  0.3697958186375033  0.4040940118915999
  0.7139322104011790  0.3697958186375033  0.4040940118915999
  0.7389322104011791  0.3697958186375033  0.4040940118915999
  0.7639322104011790  0.3697958186375033  0.4040940118915999
  0.7889322104011791  0.3697958186375033  0.4040940118915999
  0.8139322104011790  0.3697958186375033  0.4040940118915999
  0.8389322104011788  0.3697958186375033  0.4040940118915999
  0.8639322104011790  0.3697958186375033  0.4040940118915999
  0.8889322104011789  0.3697958186375033  0.4040940118915999
  0.9139322104011790  0.3697958186375033  0.4040940118915999
  0.9389322104011791  0.3697958186375033  0.4040940118915999
  0.9639322104011790  0.3697958186375033  0.4040940118915999
  0.9889322104011792  0.3697958186375033  0.4040940118915999
  0.0139322104011790  0.3947958186375033  0.4040940118915999
  0.0389322104011790  0.3947958186375033  0.4040940118915999
  0.0639322104011790  0.3947958186375033  0.4040940118915999
  0.0889322104011790  0.3947958186375033  0.4040940118915999
  0.1139322104011791  0.3947958186375033  0.4040940118915999
  0.1389322104011790  0.3947958186375033  0.4040940118915999
  0.1639322104011791  0.3947958186375033  0.4040940118915999
  0.1889322104011790  0.3947958186375033  0.4040940118915999
  0.2139322104011790  0.3947958186375033  0.4040940118915999
  0.2389322104011790  0.3947958186375033  0.4040940118915999
  0.2639322104011790  0.3947958186375033  0.4040940118915999
  0.2889322104011790  0.3947958186375033  0.4040940118915999
  0.3139322104011790  0.3947958186375033  0.4040940118915999
  0.3389322104011790  0.3947958186375033  0.4040940118915999
  0.3639322104011790  0.3947958186375033  0.4040940118915999
  0.3889322104011790  0.3947958186375033  0.4040940118915999
  0.4139322104011791  0.3947958186375033  0.4040940118915999
  0.4389322104011791  0.3947958186375033  0.4040940118915999
  0.4639322104011791  0.3947958186375033  0.4040940118915999
  0.4889322104011791  0.3947958186375033  0.4040940118915999
  0.5139322104011791  0.3947958186375033  0.4040940118915999
  0.5389322104011790  0.3947958186375033  0.4040940118915999
  0.5639322104011790  0.3947958186375033  0.4040940118915999
  0.5889322104011790  0.3947958186375033  0.4040940118915999
  0.6139322104011791  0.3947958186375033  0.4040940118915999
  0.6389322104011791  0.3947958186375033  0.4040940118915999
  0.6639322104011791  0.3947958186375033  0.4040940118915999
  0.6889322104011790  0.3947958186375033  0.4040940118915999
  0.7139322104011790  0.3947958186375033  0.4040940118915999
  0.7389322104011790  0.3947958186375033  0.4040940118915999
  0.7639322104011791  0.3947958186375033  0.4040940118915999
  0.7889322104011791  0.3947958186375033  0.4040940118915999
  0.8139322104011791  0.3947958186375033  0.4040940118915999
  0.8389322104011790  0.3947958186375033  0.4040940118915999
  0.8639322104011787  0.3947958186375033  0.4040940118915999
  0.8889322104011789  0.3947958186375033  0.4040940118915999
  0.9139322104011790  0.3947958186375033  0.4040940118915999
  0.9389322104011789  0.3947958186375033  0.4040940118915999
  0.9639322104011788  0.3947958186375033  0.4040940118915999
  0.9889322104011790  0.3947958186375033  0.4040940118915999
  0.0139322104011791  0.4197958186375033  0.4040940118915999
  0.0389322104011791  0.4197958186375033  0.4040940118915999
  0.0639322104011791  0.4197958186375033  0.4040940118915999
  0.0889322104011790  0.4197958186375033  0.4040940118915999
  0.1139322104011791  0.4197958186375033  0.4040940118915999
  0.1389322104011791  0.4197958186375033  0.4040940118915999
  0.1639322104011791  0.4197958186375033  0.4040940118915999
  0.1889322104011791  0.4197958186375033  0.4040940118915999
  0.2139322104011791  0.4197958186375033  0.4040940118915999
  0.2389322104011790  0.4197958186375033  0.4040940118915999
  0.2639322104011790  0.4197958186375033  0.4040940118915999
  0.2889322104011790  0.4197958186375033  0.4040940118915999
  0.3139322104011790  0.4197958186375033  0.4040940118915999
  0.3389322104011790  0.4197958186375033  0.4040940118915999
  0.3639322104011790  0.4197958186375033  0.4040940118915999
  0.3889322104011790  0.4197958186375033  0.4040940118915999
  0.4139322104011791  0.4197958186375033  0.4040940118915999
  0.4389322104011790  0.4197958186375033  0.4040940118915999
  0.4639322104011790  0.4197958186375033  0.4040940118915999
  0.4889322104011791  0.4197958186375033  0.4040940118915999
  0.5139322104011792  0.4197958186375033  0.4040940118915999
  0.5389322104011790  0.4197958186375033  0.4040940118915999
  0.5639322104011790  0.4197958186375033  0.4040940118915999
  0.5889322104011790  0.4197958186375033  0.4040940118915999
  0.6139322104011792  0.4197958186375033  0.4040940118915999
  0.6389322104011791  0.4197958186375033  0.4040940118915999
  0.6639322104011791  0.4197958186375033  0.4040940118915999
  0.6889322104011790  0.4197958186375033  0.4040940118915999
  0.7139322104011792  0.4197958186375033  0.4040940118915999
  0.7389322104011791  0.4197958186375033  0.4040940118915999
  0.7639322104011790  0.4197958186375033  0.4040940118915999
  0.7889322104011791  0.4197958186375033  0.4040940118915999
  0.8139322104011790  0.4197958186375033  0.4040940118915999
  0.8389322104011789  0.4197958186375033  0.4040940118915999
  0.8639322104011791  0.4197958186375033  0.4040940118915999
  0.8889322104011790  0.4197958186375033  0.4040940118915999
  0.9139322104011789  0.4197958186375033  0.4040940118915999
  0.9389322104011790  0.4197958186375033  0.4040940118915999
  0.9639322104011789  0.4197958186375033  0.4040940118915999
  0.9889322104011791  0.4197958186375033  0.4040940118915999
  0.0139322104011790  0.4447958186375033  0.4040940118915999
  0.0389322104011790  0.4447958186375033  0.4040940118915999
  0.0639322104011790  0.4447958186375033  0.4040940118915999
  0.0889322104011790  0.4447958186375033  0.4040940118915999
  0.1139322104011790  0.4447958186375033  0.4040940118915999
  0.1389322104011790  0.4447958186375033  0.4040940118915999
  0.1639322104011790  0.4447958186375033  0.4040940118915999
  0.1889322104011790  0.4447958186375033  0.4040940118915999
  0.2139322104011790  0.4447958186375033  0.4040940118915999
  0.2389322104011790  0.4447958186375033  0.4040940118915999
  0.2639322104011790  0.4447958186375033  0.4040940118915999
  0.2889322104011789  0.4447958186375033  0.4040940118915999
  0.3139322104011790  0.4447958186375033  0.4040940118915999
  0.3389322104011790  0.4447958186375033  0.4040940118915999
  0.3639322104011790  0.4447958186375033  0.4040940118915999
  0.3889322104011789  0.4447958186375033  0.4040940118915999
  0.4139322104011791  0.4447958186375033  0.4040940118915999
  0.4389322104011791  0.4447958186375033  0.4040940118915999
  0.4639322104011791  0.4447958186375033  0.4040940118915999
  0.4889322104011790  0.4447958186375033  0.4040940118915999
  0.5139322104011791  0.4447958186375033  0.4040940118915999
  0.5389322104011790  0.4447958186375033  0.4040940118915999
  0.5639322104011790  0.4447958186375033  0.4040940118915999
  0.5889322104011789  0.4447958186375033  0.4040940118915999
  0.6139322104011791  0.4447958186375033  0.4040940118915999
  0.6389322104011791  0.4447958186375033  0.4040940118915999
  0.6639322104011791  0.4447958186375033  0.4040940118915999
  0.6889322104011789  0.4447958186375033  0.4040940118915999
  0.7139322104011790  0.4447958186375033  0.4040940118915999
  0.7389322104011790  0.4447958186375033  0.4040940118915999
  0.7639322104011791  0.4447958186375033  0.4040940118915999
  0.7889322104011791  0.4447958186375033  0.4040940118915999
  0.8139322104011790  0.4447958186375033  0.4040940118915999
  0.8389322104011789  0.4447958186375033  0.4040940118915999
  0.8639322104011788  0.4447958186375033  0.4040940118915999
  0.8889322104011790  0.4447958186375033  0.4040940118915999
  0.9139322104011791  0.4447958186375033  0.4040940118915999
  0.9389322104011788  0.4447958186375033  0.4040940118915999
  0.9639322104011787  0.4447958186375033  0.4040940118915999
  0.9889322104011788  0.4447958186375033  0.4040940118915999
  0.0139322104011790  0.4697958186375033  0.4040940118915999
  0.0389322104011791  0.4697958186375033  0.4040940118915999
  0.0639322104011790  0.4697958186375033  0.4040940118915999
  0.0889322104011790  0.4697958186375033  0.4040940118915999
  0.1139322104011790  0.4697958186375033  0.4040940118915999
  0.1389322104011790  0.4697958186375033  0.4040940118915999
  0.1639322104011790  0.4697958186375033  0.4040940118915999
  0.1889322104011791  0.4697958186375033  0.4040940118915999
  0.2139322104011790  0.4697958186375033  0.4040940118915999
  0.2389322104011790  0.4697958186375033  0.4040940118915999
  0.2639322104011790  0.4697958186375033  0.4040940118915999
  0.2889322104011790  0.4697958186375033  0.4040940118915999
  0.3139322104011790  0.4697958186375033  0.4040940118915999
  0.3389322104011789  0.4697958186375033  0.4040940118915999
  0.3639322104011790  0.4697958186375033  0.4040940118915999
  0.3889322104011790  0.4697958186375033  0.4040940118915999
  0.4139322104011791  0.4697958186375033  0.4040940118915999
  0.4389322104011790  0.4697958186375033  0.4040940118915999
  0.4639322104011790  0.4697958186375033  0.4040940118915999
  0.4889322104011791  0.4697958186375033  0.4040940118915999
  0.5139322104011791  0.4697958186375033  0.4040940118915999
  0.5389322104011790  0.4697958186375033  0.4040940118915999
  0.5639322104011790  0.4697958186375033  0.4040940118915999
  0.5889322104011790  0.4697958186375033  0.4040940118915999
  0.6139322104011791  0.4697958186375033  0.4040940118915999
  0.6389322104011791  0.4697958186375033  0.4040940118915999
  0.6639322104011791  0.4697958186375033  0.4040940118915999
  0.6889322104011790  0.4697958186375033  0.4040940118915999
  0.7139322104011789  0.4697958186375033  0.4040940118915999
  0.7389322104011791  0.4697958186375033  0.4040940118915999
  0.7639322104011790  0.4697958186375033  0.4040940118915999
  0.7889322104011790  0.4697958186375033  0.4040940118915999
  0.8139322104011789  0.4697958186375033  0.4040940118915999
  0.8389322104011788  0.4697958186375033  0.4040940118915999
  0.8639322104011790  0.4697958186375033  0.4040940118915999
  0.8889322104011789  0.4697958186375033  0.4040940118915999
  0.9139322104011790  0.4697958186375033  0.4040940118915999
  0.9389322104011791  0.4697958186375033  0.4040940118915999
  0.9639322104011788  0.4697958186375033  0.4040940118915999
  0.9889322104011790  0.4697958186375033  0.4040940118915999
  0.0139322104011790  0.4947958186375033  0.4040940118915999
  0.0389322104011790  0.4947958186375033  0.4040940118915999
  0.0639322104011791  0.4947958186375033  0.4040940118915999
  0.0889322104011791  0.4947958186375033  0.4040940118915999
  0.1139322104011791  0.4947958186375033  0.4040940118915999
  0.1389322104011791  0.4947958186375033  0.4040940118915999
  0.1639322104011790  0.4947958186375033  0.4040940118915999
  0.1889322104011790  0.4947958186375033  0.4040940118915999
  0.2139322104011790  0.4947958186375033  0.4040940118915999
  0.2389322104011790  0.4947958186375033  0.4040940118915999
  0.2639322104011790  0.4947958186375033  0.4040940118915999
  0.2889322104011790  0.4947958186375033  0.4040940118915999
  0.3139322104011790  0.4947958186375033  0.4040940118915999
  0.3389322104011790  0.4947958186375033  0.4040940118915999
  0.3639322104011790  0.4947958186375033  0.4040940118915999
  0.3889322104011790  0.4947958186375033  0.4040940118915999
  0.4139322104011791  0.4947958186375033  0.4040940118915999
  0.4389322104011791  0.4947958186375033  0.4040940118915999
  0.4639322104011790  0.4947958186375033  0.4040940118915999
  0.4889322104011791  0.4947958186375033  0.4040940118915999
  0.5139322104011792  0.4947958186375033  0.4040940118915999
  0.5389322104011791  0.4947958186375033  0.4040940118915999
  0.5639322104011790  0.4947958186375033  0.4040940118915999
  0.5889322104011790  0.4947958186375033  0.4040940118915999
  0.6139322104011792  0.4947958186375033  0.4040940118915999
  0.6389322104011792  0.4947958186375033  0.4040940118915999
  0.6639322104011791  0.4947958186375033  0.4040940118915999
  0.6889322104011790  0.4947958186375033  0.4040940118915999
  0.7139322104011792  0.4947958186375033  0.4040940118915999
  0.7389322104011791  0.4947958186375033  0.4040940118915999
  0.7639322104011792  0.4947958186375033  0.4040940118915999
  0.7889322104011791  0.4947958186375033  0.4040940118915999
  0.8139322104011790  0.4947958186375033  0.4040940118915999
  0.8389322104011789  0.4947958186375033  0.4040940118915999
  0.8639322104011788  0.4947958186375033  0.4040940118915999
  0.8889322104011790  0.4947958186375033  0.4040940118915999
  0.9139322104011791  0.4947958186375033  0.4040940118915999
  0.9389322104011790  0.4947958186375033  0.4040940118915999
  0.9639322104011789  0.4947958186375033  0.4040940118915999
  0.9889322104011791  0.4947958186375033  0.4040940118915999
  0.0139322104011790  0.5197958186375032  0.4040940118915999
  0.0389322104011790  0.5197958186375032  0.4040940118915999
  0.0639322104011790  0.5197958186375032  0.4040940118915999
  0.0889322104011790  0.5197958186375032  0.4040940118915999
  0.1139322104011791  0.5197958186375032  0.4040940118915999
  0.1389322104011790  0.5197958186375032  0.4040940118915999
  0.1639322104011791  0.5197958186375032  0.4040940118915999
  0.1889322104011790  0.5197958186375032  0.4040940118915999
  0.2139322104011790  0.5197958186375032  0.4040940118915999
  0.2389322104011790  0.5197958186375032  0.4040940118915999
  0.2639322104011790  0.5197958186375032  0.4040940118915999
  0.2889322104011791  0.5197958186375032  0.4040940118915999
  0.3139322104011790  0.5197958186375032  0.4040940118915999
  0.3389322104011790  0.5197958186375032  0.4040940118915999
  0.3639322104011790  0.5197958186375032  0.4040940118915999
  0.3889322104011790  0.5197958186375032  0.4040940118915999
  0.4139322104011791  0.5197958186375032  0.4040940118915999
  0.4389322104011791  0.5197958186375032  0.4040940118915999
  0.4639322104011791  0.5197958186375032  0.4040940118915999
  0.4889322104011791  0.5197958186375032  0.4040940118915999
  0.5139322104011791  0.5197958186375032  0.4040940118915999
  0.5389322104011790  0.5197958186375032  0.4040940118915999
  0.5639322104011790  0.5197958186375032  0.4040940118915999
  0.5889322104011790  0.5197958186375032  0.4040940118915999
  0.6139322104011791  0.5197958186375032  0.4040940118915999
  0.6389322104011791  0.5197958186375032  0.4040940118915999
  0.6639322104011791  0.5197958186375032  0.4040940118915999
  0.6889322104011789  0.5197958186375032  0.4040940118915999
  0.7139322104011789  0.5197958186375032  0.4040940118915999
  0.7389322104011791  0.5197958186375032  0.4040940118915999
  0.7639322104011790  0.5197958186375032  0.4040940118915999
  0.7889322104011791  0.5197958186375032  0.4040940118915999
  0.8139322104011790  0.5197958186375032  0.4040940118915999
  0.8389322104011789  0.5197958186375032  0.4040940118915999
  0.8639322104011788  0.5197958186375032  0.4040940118915999
  0.8889322104011788  0.5197958186375032  0.4040940118915999
  0.9139322104011789  0.5197958186375032  0.4040940118915999
  0.9389322104011790  0.5197958186375032  0.4040940118915999
  0.9639322104011789  0.5197958186375032  0.4040940118915999
  0.9889322104011791  0.5197958186375032  0.4040940118915999
  0.0139322104011790  0.5447958186375033  0.4040940118915999
  0.0389322104011790  0.5447958186375033  0.4040940118915999
  0.0639322104011791  0.5447958186375033  0.4040940118915999
  0.0889322104011790  0.5447958186375033  0.4040940118915999
  0.1139322104011791  0.5447958186375033  0.4040940118915999
  0.1389322104011790  0.5447958186375033  0.4040940118915999
  0.1639322104011791  0.5447958186375033  0.4040940118915999
  0.1889322104011791  0.5447958186375033  0.4040940118915999
  0.2139322104011790  0.5447958186375033  0.4040940118915999
  0.2389322104011791  0.5447958186375033  0.4040940118915999
  0.2639322104011790  0.5447958186375033  0.4040940118915999
  0.2889322104011790  0.5447958186375033  0.4040940118915999
  0.3139322104011790  0.5447958186375033  0.4040940118915999
  0.3389322104011790  0.5447958186375033  0.4040940118915999
  0.3639322104011790  0.5447958186375033  0.4040940118915999
  0.3889322104011790  0.5447958186375033  0.4040940118915999
  0.4139322104011791  0.5447958186375033  0.4040940118915999
  0.4389322104011790  0.5447958186375033  0.4040940118915999
  0.4639322104011790  0.5447958186375033  0.4040940118915999
  0.4889322104011791  0.5447958186375033  0.4040940118915999
  0.5139322104011792  0.5447958186375033  0.4040940118915999
  0.5389322104011790  0.5447958186375033  0.4040940118915999
  0.5639322104011790  0.5447958186375033  0.4040940118915999
  0.5889322104011790  0.5447958186375033  0.4040940118915999
  0.6139322104011792  0.5447958186375033  0.4040940118915999
  0.6389322104011791  0.5447958186375033  0.4040940118915999
  0.6639322104011791  0.5447958186375033  0.4040940118915999
  0.6889322104011790  0.5447958186375033  0.4040940118915999
  0.7139322104011792  0.5447958186375033  0.4040940118915999
  0.7389322104011790  0.5447958186375033  0.4040940118915999
  0.7639322104011791  0.5447958186375033  0.4040940118915999
  0.7889322104011792  0.5447958186375033  0.4040940118915999
  0.8139322104011791  0.5447958186375033  0.4040940118915999
  0.8389322104011790  0.5447958186375033  0.4040940118915999
  0.8639322104011790  0.5447958186375033  0.4040940118915999
  0.8889322104011789  0.5447958186375033  0.4040940118915999
  0.9139322104011790  0.5447958186375033  0.4040940118915999
  0.9389322104011789  0.5447958186375033  0.4040940118915999
  0.9639322104011788  0.5447958186375033  0.4040940118915999
  0.9889322104011790  0.5447958186375033  0.4040940118915999
  0.0139322104011790  0.5697958186375033  0.4040940118915999
  0.0389322104011791  0.5697958186375033  0.4040940118915999
  0.0639322104011790  0.5697958186375033  0.4040940118915999
  0.0889322104011790  0.5697958186375033  0.4040940118915999
  0.1139322104011790  0.5697958186375033  0.4040940118915999
  0.1389322104011790  0.5697958186375033  0.4040940118915999
  0.1639322104011790  0.5697958186375033  0.4040940118915999
  0.1889322104011790  0.5697958186375033  0.4040940118915999
  0.2139322104011790  0.5697958186375033  0.4040940118915999
  0.2389322104011790  0.5697958186375033  0.4040940118915999
  0.2639322104011790  0.5697958186375033  0.4040940118915999
  0.2889322104011789  0.5697958186375033  0.4040940118915999
  0.3139322104011790  0.5697958186375033  0.4040940118915999
  0.3389322104011790  0.5697958186375033  0.4040940118915999
  0.3639322104011790  0.5697958186375033  0.4040940118915999
  0.3889322104011789  0.5697958186375033  0.4040940118915999
  0.4139322104011791  0.5697958186375033  0.4040940118915999
  0.4389322104011791  0.5697958186375033  0.4040940118915999
  0.4639322104011791  0.5697958186375033  0.4040940118915999
  0.4889322104011790  0.5697958186375033  0.4040940118915999
  0.5139322104011792  0.5697958186375033  0.4040940118915999
  0.5389322104011791  0.5697958186375033  0.4040940118915999
  0.5639322104011791  0.5697958186375033  0.4040940118915999
  0.5889322104011790  0.5697958186375033  0.4040940118915999
  0.6139322104011792  0.5697958186375033  0.4040940118915999
  0.6389322104011792  0.5697958186375033  0.4040940118915999
  0.6639322104011791  0.5697958186375033  0.4040940118915999
  0.6889322104011789  0.5697958186375033  0.4040940118915999
  0.7139322104011790  0.5697958186375033  0.4040940118915999
  0.7389322104011791  0.5697958186375033  0.4040940118915999
  0.7639322104011790  0.5697958186375033  0.4040940118915999
  0.7889322104011791  0.5697958186375033  0.4040940118915999
  0.8139322104011790  0.5697958186375033  0.4040940118915999
  0.8389322104011789  0.5697958186375033  0.4040940118915999
  0.8639322104011791  0.5697958186375033  0.4040940118915999
  0.8889322104011790  0.5697958186375033  0.4040940118915999
  0.9139322104011791  0.5697958186375033  0.4040940118915999
  0.9389322104011790  0.5697958186375033  0.4040940118915999
  0.9639322104011789  0.5697958186375033  0.4040940118915999
  0.9889322104011791  0.5697958186375033  0.4040940118915999
  0.0139322104011790  0.5947958186375033  0.4040940118915999
  0.0389322104011791  0.5947958186375033  0.4040940118915999
  0.0639322104011790  0.5947958186375033  0.4040940118915999
  0.0889322104011790  0.5947958186375033  0.4040940118915999
  0.1139322104011791  0.5947958186375033  0.4040940118915999
  0.1389322104011791  0.5947958186375033  0.4040940118915999
  0.1639322104011791  0.5947958186375033  0.4040940118915999
  0.1889322104011791  0.5947958186375033  0.4040940118915999
  0.2139322104011790  0.5947958186375033  0.4040940118915999
  0.2389322104011790  0.5947958186375033  0.4040940118915999
  0.2639322104011790  0.5947958186375033  0.4040940118915999
  0.2889322104011791  0.5947958186375033  0.4040940118915999
  0.3139322104011790  0.5947958186375033  0.4040940118915999
  0.3389322104011790  0.5947958186375033  0.4040940118915999
  0.3639322104011791  0.5947958186375033  0.4040940118915999
  0.3889322104011791  0.5947958186375033  0.4040940118915999
  0.4139322104011790  0.5947958186375033  0.4040940118915999
  0.4389322104011790  0.5947958186375033  0.4040940118915999
  0.4639322104011790  0.5947958186375033  0.4040940118915999
  0.4889322104011791  0.5947958186375033  0.4040940118915999
  0.5139322104011791  0.5947958186375033  0.4040940118915999
  0.5389322104011790  0.5947958186375033  0.4040940118915999
  0.5639322104011790  0.5947958186375033  0.4040940118915999
  0.5889322104011790  0.5947958186375033  0.4040940118915999
  0.6139322104011791  0.5947958186375033  0.4040940118915999
  0.6389322104011792  0.5947958186375033  0.4040940118915999
  0.6639322104011791  0.5947958186375033  0.4040940118915999
  0.6889322104011790  0.5947958186375033  0.4040940118915999
  0.7139322104011792  0.5947958186375033  0.4040940118915999
  0.7389322104011793  0.5947958186375033  0.4040940118915999
  0.7639322104011790  0.5947958186375033  0.4040940118915999
  0.7889322104011791  0.5947958186375033  0.4040940118915999
  0.8139322104011790  0.5947958186375033  0.4040940118915999
  0.8389322104011789  0.5947958186375033  0.4040940118915999
  0.8639322104011791  0.5947958186375033  0.4040940118915999
  0.8889322104011790  0.5947958186375033  0.4040940118915999
  0.9139322104011791  0.5947958186375033  0.4040940118915999
  0.9389322104011792  0.5947958186375033  0.4040940118915999
  0.9639322104011789  0.5947958186375033  0.4040940118915999
  0.9889322104011791  0.5947958186375033  0.4040940118915999
  0.0139322104011790  0.6197958186375033  0.4040940118915999
  0.0389322104011790  0.6197958186375033  0.4040940118915999
  0.0639322104011791  0.6197958186375033  0.4040940118915999
  0.0889322104011791  0.6197958186375033  0.4040940118915999
  0.1139322104011791  0.6197958186375033  0.4040940118915999
  0.1389322104011790  0.6197958186375033  0.4040940118915999
  0.1639322104011790  0.6197958186375033  0.4040940118915999
  0.1889322104011791  0.6197958186375033  0.4040940118915999
  0.2139322104011790  0.6197958186375033  0.4040940118915999
  0.2389322104011790  0.6197958186375033  0.4040940118915999
  0.2639322104011789  0.6197958186375033  0.4040940118915999
  0.2889322104011791  0.6197958186375033  0.4040940118915999
  0.3139322104011791  0.6197958186375033  0.4040940118915999
  0.3389322104011791  0.6197958186375033  0.4040940118915999
  0.3639322104011790  0.6197958186375033  0.4040940118915999
  0.3889322104011790  0.6197958186375033  0.4040940118915999
  0.4139322104011791  0.6197958186375033  0.4040940118915999
  0.4389322104011791  0.6197958186375033  0.4040940118915999
  0.4639322104011790  0.6197958186375033  0.4040940118915999
  0.4889322104011790  0.6197958186375033  0.4040940118915999
  0.5139322104011792  0.6197958186375033  0.4040940118915999
  0.5389322104011791  0.6197958186375033  0.4040940118915999
  0.5639322104011790  0.6197958186375033  0.4040940118915999
  0.5889322104011790  0.6197958186375033  0.4040940118915999
  0.6139322104011792  0.6197958186375033  0.4040940118915999
  0.6389322104011792  0.6197958186375033  0.4040940118915999
  0.6639322104011792  0.6197958186375033  0.4040940118915999
  0.6889322104011791  0.6197958186375033  0.4040940118915999
  0.7139322104011793  0.6197958186375033  0.4040940118915999
  0.7389322104011792  0.6197958186375033  0.4040940118915999
  0.7639322104011793  0.6197958186375033  0.4040940118915999
  0.7889322104011792  0.6197958186375033  0.4040940118915999
  0.8139322104011791  0.6197958186375033  0.4040940118915999
  0.8389322104011790  0.6197958186375033  0.4040940118915999
  0.8639322104011790  0.6197958186375033  0.4040940118915999
  0.8889322104011791  0.6197958186375033  0.4040940118915999
  0.9139322104011792  0.6197958186375033  0.4040940118915999
  0.9389322104011791  0.6197958186375033  0.4040940118915999
  0.9639322104011790  0.6197958186375033  0.4040940118915999
  0.9889322104011790  0.6197958186375033  0.4040940118915999
  0.0139322104011791  0.6447958186375033  0.4040940118915999
  0.0389322104011791  0.6447958186375033  0.4040940118915999
  0.0639322104011791  0.6447958186375033  0.4040940118915999
  0.0889322104011791  0.6447958186375033  0.4040940118915999
  0.1139322104011791  0.6447958186375033  0.4040940118915999
  0.1389322104011791  0.6447958186375033  0.4040940118915999
  0.1639322104011791  0.6447958186375033  0.4040940118915999
  0.1889322104011792  0.6447958186375033  0.4040940118915999
  0.2139322104011791  0.6447958186375033  0.4040940118915999
  0.2389322104011790  0.6447958186375033  0.4040940118915999
  0.2639322104011790  0.6447958186375033  0.4040940118915999
  0.2889322104011791  0.6447958186375033  0.4040940118915999
  0.3139322104011790  0.6447958186375033  0.4040940118915999
  0.3389322104011790  0.6447958186375033  0.4040940118915999
  0.3639322104011791  0.6447958186375033  0.4040940118915999
  0.3889322104011790  0.6447958186375033  0.4040940118915999
  0.4139322104011790  0.6447958186375033  0.4040940118915999
  0.4389322104011790  0.6447958186375033  0.4040940118915999
  0.4639322104011790  0.6447958186375033  0.4040940118915999
  0.4889322104011790  0.6447958186375033  0.4040940118915999
  0.5139322104011791  0.6447958186375033  0.4040940118915999
  0.5389322104011790  0.6447958186375033  0.4040940118915999
  0.5639322104011790  0.6447958186375033  0.4040940118915999
  0.5889322104011789  0.6447958186375033  0.4040940118915999
  0.6139322104011791  0.6447958186375033  0.4040940118915999
  0.6389322104011792  0.6447958186375033  0.4040940118915999
  0.6639322104011791  0.6447958186375033  0.4040940118915999
  0.6889322104011789  0.6447958186375033  0.4040940118915999
  0.7139322104011790  0.6447958186375033  0.4040940118915999
  0.7389322104011792  0.6447958186375033  0.4040940118915999
  0.7639322104011791  0.6447958186375033  0.4040940118915999
  0.7889322104011792  0.6447958186375033  0.4040940118915999
  0.8139322104011791  0.6447958186375033  0.4040940118915999
  0.8389322104011788  0.6447958186375033  0.4040940118915999
  0.8639322104011790  0.6447958186375033  0.4040940118915999
  0.8889322104011789  0.6447958186375033  0.4040940118915999
  0.9139322104011790  0.6447958186375033  0.4040940118915999
  0.9389322104011791  0.6447958186375033  0.4040940118915999
  0.9639322104011790  0.6447958186375033  0.4040940118915999
  0.9889322104011792  0.6447958186375033  0.4040940118915999
  0.0139322104011790  0.6697958186375034  0.4040940118915999
  0.0389322104011790  0.6697958186375034  0.4040940118915999
  0.0639322104011790  0.6697958186375034  0.4040940118915999
  0.0889322104011790  0.6697958186375034  0.4040940118915999
  0.1139322104011790  0.6697958186375034  0.4040940118915999
  0.1389322104011790  0.6697958186375034  0.4040940118915999
  0.1639322104011790  0.6697958186375034  0.4040940118915999
  0.1889322104011791  0.6697958186375034  0.4040940118915999
  0.2139322104011790  0.6697958186375034  0.4040940118915999
  0.2389322104011789  0.6697958186375034  0.4040940118915999
  0.2639322104011789  0.6697958186375034  0.4040940118915999
  0.2889322104011791  0.6697958186375034  0.4040940118915999
  0.3139322104011791  0.6697958186375034  0.4040940118915999
  0.3389322104011790  0.6697958186375034  0.4040940118915999
  0.3639322104011790  0.6697958186375034  0.4040940118915999
  0.3889322104011790  0.6697958186375034  0.4040940118915999
  0.4139322104011791  0.6697958186375034  0.4040940118915999
  0.4389322104011790  0.6697958186375034  0.4040940118915999
  0.4639322104011790  0.6697958186375034  0.4040940118915999
  0.4889322104011790  0.6697958186375034  0.4040940118915999
  0.5139322104011792  0.6697958186375034  0.4040940118915999
  0.5389322104011790  0.6697958186375034  0.4040940118915999
  0.5639322104011790  0.6697958186375034  0.4040940118915999
  0.5889322104011790  0.6697958186375034  0.4040940118915999
  0.6139322104011792  0.6697958186375034  0.4040940118915999
  0.6389322104011791  0.6697958186375034  0.4040940118915999
  0.6639322104011792  0.6697958186375034  0.4040940118915999
  0.6889322104011790  0.6697958186375034  0.4040940118915999
  0.7139322104011792  0.6697958186375034  0.4040940118915999
  0.7389322104011791  0.6697958186375034  0.4040940118915999
  0.7639322104011792  0.6697958186375034  0.4040940118915999
  0.7889322104011793  0.6697958186375034  0.4040940118915999
  0.8139322104011792  0.6697958186375034  0.4040940118915999
  0.8389322104011792  0.6697958186375034  0.4040940118915999
  0.8639322104011791  0.6697958186375034  0.4040940118915999
  0.8889322104011790  0.6697958186375034  0.4040940118915999
  0.9139322104011791  0.6697958186375034  0.4040940118915999
  0.9389322104011790  0.6697958186375034  0.4040940118915999
  0.9639322104011789  0.6697958186375034  0.4040940118915999
  0.9889322104011791  0.6697958186375034  0.4040940118915999
  0.0139322104011790  0.6947958186375033  0.4040940118915999
  0.0389322104011790  0.6947958186375033  0.4040940118915999
  0.0639322104011791  0.6947958186375033  0.4040940118915999
  0.0889322104011791  0.6947958186375033  0.4040940118915999
  0.1139322104011790  0.6947958186375033  0.4040940118915999
  0.1389322104011790  0.6947958186375033  0.4040940118915999
  0.1639322104011790  0.6947958186375033  0.4040940118915999
  0.1889322104011791  0.6947958186375033  0.4040940118915999
  0.2139322104011790  0.6947958186375033  0.4040940118915999
  0.2389322104011790  0.6947958186375033  0.4040940118915999
  0.2639322104011790  0.6947958186375033  0.4040940118915999
  0.2889322104011790  0.6947958186375033  0.4040940118915999
  0.3139322104011790  0.6947958186375033  0.4040940118915999
  0.3389322104011790  0.6947958186375033  0.4040940118915999
  0.3639322104011791  0.6947958186375033  0.4040940118915999
  0.3889322104011790  0.6947958186375033  0.4040940118915999
  0.4139322104011790  0.6947958186375033  0.4040940118915999
  0.4389322104011790  0.6947958186375033  0.4040940118915999
  0.4639322104011790  0.6947958186375033  0.4040940118915999
  0.4889322104011790  0.6947958186375033  0.4040940118915999
  0.5139322104011791  0.6947958186375033  0.4040940118915999
  0.5389322104011790  0.6947958186375033  0.4040940118915999
  0.5639322104011790  0.6947958186375033  0.4040940118915999
  0.5889322104011789  0.6947958186375033  0.4040940118915999
  0.6139322104011791  0.6947958186375033  0.4040940118915999
  0.6389322104011792  0.6947958186375033  0.4040940118915999
  0.6639322104011791  0.6947958186375033  0.4040940118915999
  0.6889322104011790  0.6947958186375033  0.4040940118915999
  0.7139322104011789  0.6947958186375033  0.4040940118915999
  0.7389322104011791  0.6947958186375033  0.4040940118915999
  0.7639322104011790  0.6947958186375033  0.4040940118915999
  0.7889322104011791  0.6947958186375033  0.4040940118915999
  0.8139322104011790  0.6947958186375033  0.4040940118915999
  0.8389322104011789  0.6947958186375033  0.4040940118915999
  0.8639322104011791  0.6947958186375033  0.4040940118915999
  0.8889322104011790  0.6947958186375033  0.4040940118915999
  0.9139322104011789  0.6947958186375033  0.4040940118915999
  0.9389322104011790  0.6947958186375033  0.4040940118915999
  0.9639322104011789  0.6947958186375033  0.4040940118915999
  0.9889322104011791  0.6947958186375033  0.4040940118915999
  0.0139322104011790  0.7197958186375033  0.4040940118915999
  0.0389322104011790  0.7197958186375033  0.4040940118915999
  0.0639322104011791  0.7197958186375033  0.4040940118915999
  0.0889322104011790  0.7197958186375033  0.4040940118915999
  0.1139322104011791  0.7197958186375033  0.4040940118915999
  0.1389322104011791  0.7197958186375033  0.4040940118915999
  0.1639322104011791  0.7197958186375033  0.4040940118915999
  0.1889322104011791  0.7197958186375033  0.4040940118915999
  0.2139322104011790  0.7197958186375033  0.4040940118915999
  0.2389322104011789  0.7197958186375033  0.4040940118915999
  0.2639322104011790  0.7197958186375033  0.4040940118915999
  0.2889322104011791  0.7197958186375033  0.4040940118915999
  0.3139322104011790  0.7197958186375033  0.4040940118915999
  0.3389322104011790  0.7197958186375033  0.4040940118915999
  0.3639322104011791  0.7197958186375033  0.4040940118915999
  0.3889322104011791  0.7197958186375033  0.4040940118915999
  0.4139322104011790  0.7197958186375033  0.4040940118915999
  0.4389322104011790  0.7197958186375033  0.4040940118915999
  0.4639322104011790  0.7197958186375033  0.4040940118915999
  0.4889322104011791  0.7197958186375033  0.4040940118915999
  0.5139322104011791  0.7197958186375033  0.4040940118915999
  0.5389322104011790  0.7197958186375033  0.4040940118915999
  0.5639322104011790  0.7197958186375033  0.4040940118915999
  0.5889322104011792  0.7197958186375033  0.4040940118915999
  0.6139322104011792  0.7197958186375033  0.4040940118915999
  0.6389322104011791  0.7197958186375033  0.4040940118915999
  0.6639322104011792  0.7197958186375033  0.4040940118915999
  0.6889322104011791  0.7197958186375033  0.4040940118915999
  0.7139322104011793  0.7197958186375033  0.4040940118915999
  0.7389322104011792  0.7197958186375033  0.4040940118915999
  0.7639322104011791  0.7197958186375033  0.4040940118915999
  0.7889322104011792  0.7197958186375033  0.4040940118915999
  0.8139322104011791  0.7197958186375033  0.4040940118915999
  0.8389322104011790  0.7197958186375033  0.4040940118915999
  0.8639322104011790  0.7197958186375033  0.4040940118915999
  0.8889322104011791  0.7197958186375033  0.4040940118915999
  0.9139322104011792  0.7197958186375033  0.4040940118915999
  0.9389322104011791  0.7197958186375033  0.4040940118915999
  0.9639322104011788  0.7197958186375033  0.4040940118915999
  0.9889322104011790  0.7197958186375033  0.4040940118915999
  0.0139322104011791  0.7447958186375033  0.4040940118915999
  0.0389322104011790  0.7447958186375033  0.4040940118915999
  0.0639322104011791  0.7447958186375033  0.4040940118915999
  0.0889322104011790  0.7447958186375033  0.4040940118915999
  0.1139322104011791  0.7447958186375033  0.4040940118915999
  0.1389322104011791  0.7447958186375033  0.4040940118915999
  0.1639322104011790  0.7447958186375033  0.4040940118915999
  0.1889322104011791  0.7447958186375033  0.4040940118915999
  0.2139322104011791  0.7447958186375033  0.4040940118915999
  0.2389322104011790  0.7447958186375033  0.4040940118915999
  0.2639322104011789  0.7447958186375033  0.4040940118915999
  0.2889322104011791  0.7447958186375033  0.4040940118915999
  0.3139322104011791  0.7447958186375033  0.4040940118915999
  0.3389322104011791  0.7447958186375033  0.4040940118915999
  0.3639322104011790  0.7447958186375033  0.4040940118915999
  0.3889322104011790  0.7447958186375033  0.4040940118915999
  0.4139322104011791  0.7447958186375033  0.4040940118915999
  0.4389322104011791  0.7447958186375033  0.4040940118915999
  0.4639322104011790  0.7447958186375033  0.4040940118915999
  0.4889322104011790  0.7447958186375033  0.4040940118915999
  0.5139322104011791  0.7447958186375033  0.4040940118915999
  0.5389322104011790  0.7447958186375033  0.4040940118915999
  0.5639322104011790  0.7447958186375033  0.4040940118915999
  0.5889322104011789  0.7447958186375033  0.4040940118915999
  0.6139322104011791  0.7447958186375033  0.4040940118915999
  0.6389322104011791  0.7447958186375033  0.4040940118915999
  0.6639322104011790  0.7447958186375033  0.4040940118915999
  0.6889322104011789  0.7447958186375033  0.4040940118915999
  0.7139322104011790  0.7447958186375033  0.4040940118915999
  0.7389322104011792  0.7447958186375033  0.4040940118915999
  0.7639322104011791  0.7447958186375033  0.4040940118915999
  0.7889322104011790  0.7447958186375033  0.4040940118915999
  0.8139322104011789  0.7447958186375033  0.4040940118915999
  0.8389322104011788  0.7447958186375033  0.4040940118915999
  0.8639322104011790  0.7447958186375033  0.4040940118915999
  0.8889322104011789  0.7447958186375033  0.4040940118915999
  0.9139322104011790  0.7447958186375033  0.4040940118915999
  0.9389322104011791  0.7447958186375033  0.4040940118915999
  0.9639322104011790  0.7447958186375033  0.4040940118915999
  0.9889322104011790  0.7447958186375033  0.4040940118915999
  0.0139322104011791  0.7697958186375033  0.4040940118915999
  0.0389322104011790  0.7697958186375033  0.4040940118915999
  0.0639322104011791  0.7697958186375033  0.4040940118915999
  0.0889322104011791  0.7697958186375033  0.4040940118915999
  0.1139322104011791  0.7697958186375033  0.4040940118915999
  0.1389322104011791  0.7697958186375033  0.4040940118915999
  0.1639322104011791  0.7697958186375033  0.4040940118915999
  0.1889322104011790  0.7697958186375033  0.4040940118915999
  0.2139322104011790  0.7697958186375033  0.4040940118915999
  0.2389322104011791  0.7697958186375033  0.4040940118915999
  0.2639322104011791  0.7697958186375033  0.4040940118915999
  0.2889322104011790  0.7697958186375033  0.4040940118915999
  0.3139322104011790  0.7697958186375033  0.4040940118915999
  0.3389322104011790  0.7697958186375033  0.4040940118915999
  0.3639322104011791  0.7697958186375033  0.4040940118915999
  0.3889322104011790  0.7697958186375033  0.4040940118915999
  0.4139322104011791  0.7697958186375033  0.4040940118915999
  0.4389322104011791  0.7697958186375033  0.4040940118915999
  0.4639322104011792  0.7697958186375033  0.4040940118915999
  0.4889322104011791  0.7697958186375033  0.4040940118915999
  0.5139322104011792  0.7697958186375033  0.4040940118915999
  0.5389322104011791  0.7697958186375033  0.4040940118915999
  0.5639322104011790  0.7697958186375033  0.4040940118915999
  0.5889322104011790  0.7697958186375033  0.4040940118915999
  0.6139322104011792  0.7697958186375033  0.4040940118915999
  0.6389322104011790  0.7697958186375033  0.4040940118915999
  0.6639322104011791  0.7697958186375033  0.4040940118915999
  0.6889322104011790  0.7697958186375033  0.4040940118915999
  0.7139322104011792  0.7697958186375033  0.4040940118915999
  0.7389322104011791  0.7697958186375033  0.4040940118915999
  0.7639322104011792  0.7697958186375033  0.4040940118915999
  0.7889322104011793  0.7697958186375033  0.4040940118915999
  0.8139322104011792  0.7697958186375033  0.4040940118915999
  0.8389322104011789  0.7697958186375033  0.4040940118915999
  0.8639322104011788  0.7697958186375033  0.4040940118915999
  0.8889322104011790  0.7697958186375033  0.4040940118915999
  0.9139322104011791  0.7697958186375033  0.4040940118915999
  0.9389322104011790  0.7697958186375033  0.4040940118915999
  0.9639322104011789  0.7697958186375033  0.4040940118915999
  0.9889322104011791  0.7697958186375033  0.4040940118915999
  0.0139322104011790  0.7947958186375033  0.4040940118915999
  0.0389322104011791  0.7947958186375033  0.4040940118915999
  0.0639322104011791  0.7947958186375033  0.4040940118915999
  0.0889322104011790  0.7947958186375033  0.4040940118915999
  0.1139322104011792  0.7947958186375033  0.4040940118915999
  0.1389322104011791  0.7947958186375033  0.4040940118915999
  0.1639322104011791  0.7947958186375033  0.4040940118915999
  0.1889322104011791  0.7947958186375033  0.4040940118915999
  0.2139322104011792  0.7947958186375033  0.4040940118915999
  0.2389322104011790  0.7947958186375033  0.4040940118915999
  0.2639322104011790  0.7947958186375033  0.4040940118915999
  0.2889322104011791  0.7947958186375033  0.4040940118915999
  0.3139322104011791  0.7947958186375033  0.4040940118915999
  0.3389322104011790  0.7947958186375033  0.4040940118915999
  0.3639322104011791  0.7947958186375033  0.4040940118915999
  0.3889322104011791  0.7947958186375033  0.4040940118915999
  0.4139322104011791  0.7947958186375033  0.4040940118915999
  0.4389322104011790  0.7947958186375033  0.4040940118915999
  0.4639322104011790  0.7947958186375033  0.4040940118915999
  0.4889322104011791  0.7947958186375033  0.4040940118915999
  0.5139322104011791  0.7947958186375033  0.4040940118915999
  0.5389322104011790  0.7947958186375033  0.4040940118915999
  0.5639322104011791  0.7947958186375033  0.4040940118915999
  0.5889322104011790  0.7947958186375033  0.4040940118915999
  0.6139322104011792  0.7947958186375033  0.4040940118915999
  0.6389322104011793  0.7947958186375033  0.4040940118915999
  0.6639322104011790  0.7947958186375033  0.4040940118915999
  0.6889322104011789  0.7947958186375033  0.4040940118915999
  0.7139322104011790  0.7947958186375033  0.4040940118915999
  0.7389322104011792  0.7947958186375033  0.4040940118915999
  0.7639322104011791  0.7947958186375033  0.4040940118915999
  0.7889322104011792  0.7947958186375033  0.4040940118915999
  0.8139322104011791  0.7947958186375033  0.4040940118915999
  0.8389322104011790  0.7947958186375033  0.4040940118915999
  0.8639322104011790  0.7947958186375033  0.4040940118915999
  0.8889322104011789  0.7947958186375033  0.4040940118915999
  0.9139322104011790  0.7947958186375033  0.4040940118915999
  0.9389322104011791  0.7947958186375033  0.4040940118915999
  0.9639322104011790  0.7947958186375033  0.4040940118915999
  0.9889322104011792  0.7947958186375033  0.4040940118915999
  0.0139322104011790  0.8197958186375034  0.4040940118915999
  0.0389322104011791  0.8197958186375034  0.4040940118915999
  0.0639322104011791  0.8197958186375034  0.4040940118915999
  0.0889322104011790  0.8197958186375034  0.4040940118915999
  0.1139322104011791  0.8197958186375034  0.4040940118915999
  0.1389322104011791  0.8197958186375034  0.4040940118915999
  0.1639322104011790  0.8197958186375034  0.4040940118915999
  0.1889322104011790  0.8197958186375034  0.4040940118915999
  0.2139322104011790  0.8197958186375034  0.4040940118915999
  0.2389322104011790  0.8197958186375034  0.4040940118915999
  0.2639322104011790  0.8197958186375034  0.4040940118915999
  0.2889322104011790  0.8197958186375034  0.4040940118915999
  0.3139322104011790  0.8197958186375034  0.4040940118915999
  0.3389322104011790  0.8197958186375034  0.4040940118915999
  0.3639322104011790  0.8197958186375034  0.4040940118915999
  0.3889322104011790  0.8197958186375034  0.4040940118915999
  0.4139322104011790  0.8197958186375034  0.4040940118915999
  0.4389322104011790  0.8197958186375034  0.4040940118915999
  0.4639322104011789  0.8197958186375034  0.4040940118915999
  0.4889322104011790  0.8197958186375034  0.4040940118915999
  0.5139322104011791  0.8197958186375034  0.4040940118915999
  0.5389322104011791  0.8197958186375034  0.4040940118915999
  0.5639322104011789  0.8197958186375034  0.4040940118915999
  0.5889322104011790  0.8197958186375034  0.4040940118915999
  0.6139322104011792  0.8197958186375034  0.4040940118915999
  0.6389322104011791  0.8197958186375034  0.4040940118915999
  0.6639322104011792  0.8197958186375034  0.4040940118915999
  0.6889322104011791  0.8197958186375034  0.4040940118915999
  0.7139322104011790  0.8197958186375034  0.4040940118915999
  0.7389322104011790  0.8197958186375034  0.4040940118915999
  0.7639322104011791  0.8197958186375034  0.4040940118915999
  0.7889322104011792  0.8197958186375034  0.4040940118915999
  0.8139322104011791  0.8197958186375034  0.4040940118915999
  0.8389322104011790  0.8197958186375034  0.4040940118915999
  0.8639322104011790  0.8197958186375034  0.4040940118915999
  0.8889322104011791  0.8197958186375034  0.4040940118915999
  0.9139322104011790  0.8197958186375034  0.4040940118915999
  0.9389322104011789  0.8197958186375034  0.4040940118915999
  0.9639322104011788  0.8197958186375034  0.4040940118915999
  0.9889322104011790  0.8197958186375034  0.4040940118915999
  0.0139322104011790  0.8447958186375034  0.4040940118915999
  0.0389322104011790  0.8447958186375034  0.4040940118915999
  0.0639322104011791  0.8447958186375034  0.4040940118915999
  0.0889322104011791  0.8447958186375034  0.4040940118915999
  0.1139322104011790  0.8447958186375034  0.4040940118915999
  0.1389322104011790  0.8447958186375034  0.4040940118915999
  0.1639322104011791  0.8447958186375034  0.4040940118915999
  0.1889322104011791  0.8447958186375034  0.4040940118915999
  0.2139322104011790  0.8447958186375034  0.4040940118915999
  0.2389322104011790  0.8447958186375034  0.4040940118915999
  0.2639322104011790  0.8447958186375034  0.4040940118915999
  0.2889322104011791  0.8447958186375034  0.4040940118915999
  0.3139322104011790  0.8447958186375034  0.4040940118915999
  0.3389322104011790  0.8447958186375034  0.4040940118915999
  0.3639322104011790  0.8447958186375034  0.4040940118915999
  0.3889322104011790  0.8447958186375034  0.4040940118915999
  0.4139322104011791  0.8447958186375034  0.4040940118915999
  0.4389322104011791  0.8447958186375034  0.4040940118915999
  0.4639322104011791  0.8447958186375034  0.4040940118915999
  0.4889322104011791  0.8447958186375034  0.4040940118915999
  0.5139322104011791  0.8447958186375034  0.4040940118915999
  0.5389322104011790  0.8447958186375034  0.4040940118915999
  0.5639322104011791  0.8447958186375034  0.4040940118915999
  0.5889322104011789  0.8447958186375034  0.4040940118915999
  0.6139322104011791  0.8447958186375034  0.4040940118915999
  0.6389322104011792  0.8447958186375034  0.4040940118915999
  0.6639322104011791  0.8447958186375034  0.4040940118915999
  0.6889322104011790  0.8447958186375034  0.4040940118915999
  0.7139322104011792  0.8447958186375034  0.4040940118915999
  0.7389322104011791  0.8447958186375034  0.4040940118915999
  0.7639322104011790  0.8447958186375034  0.4040940118915999
  0.7889322104011791  0.8447958186375034  0.4040940118915999
  0.8139322104011790  0.8447958186375034  0.4040940118915999
  0.8389322104011789  0.8447958186375034  0.4040940118915999
  0.8639322104011791  0.8447958186375034  0.4040940118915999
  0.8889322104011790  0.8447958186375034  0.4040940118915999
  0.9139322104011791  0.8447958186375034  0.4040940118915999
  0.9389322104011790  0.8447958186375034  0.4040940118915999
  0.9639322104011789  0.8447958186375034  0.4040940118915999
  0.9889322104011791  0.8447958186375034  0.4040940118915999
  0.0139322104011790  0.8697958186375034  0.4040940118915999
  0.0389322104011791  0.8697958186375034  0.4040940118915999
  0.0639322104011791  0.8697958186375034  0.4040940118915999
  0.0889322104011791  0.8697958186375034  0.4040940118915999
  0.1139322104011791  0.8697958186375034  0.4040940118915999
  0.1389322104011791  0.8697958186375034  0.4040940118915999
  0.1639322104011790  0.8697958186375034  0.4040940118915999
  0.1889322104011790  0.8697958186375034  0.4040940118915999
  0.2139322104011790  0.8697958186375034  0.4040940118915999
  0.2389322104011791  0.8697958186375034  0.4040940118915999
  0.2639322104011790  0.8697958186375034  0.4040940118915999
  0.2889322104011790  0.8697958186375034  0.4040940118915999
  0.3139322104011790  0.8697958186375034  0.4040940118915999
  0.3389322104011789  0.8697958186375034  0.4040940118915999
  0.3639322104011790  0.8697958186375034  0.4040940118915999
  0.3889322104011790  0.8697958186375034  0.4040940118915999
  0.4139322104011791  0.8697958186375034  0.4040940118915999
  0.4389322104011790  0.8697958186375034  0.4040940118915999
  0.4639322104011790  0.8697958186375034  0.4040940118915999
  0.4889322104011791  0.8697958186375034  0.4040940118915999
  0.5139322104011792  0.8697958186375034  0.4040940118915999
  0.5389322104011790  0.8697958186375034  0.4040940118915999
  0.5639322104011789  0.8697958186375034  0.4040940118915999
  0.5889322104011789  0.8697958186375034  0.4040940118915999
  0.6139322104011791  0.8697958186375034  0.4040940118915999
  0.6389322104011790  0.8697958186375034  0.4040940118915999
  0.6639322104011791  0.8697958186375034  0.4040940118915999
  0.6889322104011790  0.8697958186375034  0.4040940118915999
  0.7139322104011792  0.8697958186375034  0.4040940118915999
  0.7389322104011791  0.8697958186375034  0.4040940118915999
  0.7639322104011792  0.8697958186375034  0.4040940118915999
  0.7889322104011791  0.8697958186375034  0.4040940118915999
  0.8139322104011790  0.8697958186375034  0.4040940118915999
  0.8389322104011789  0.8697958186375034  0.4040940118915999
  0.8639322104011788  0.8697958186375034  0.4040940118915999
  0.8889322104011790  0.8697958186375034  0.4040940118915999
  0.9139322104011791  0.8697958186375034  0.4040940118915999
  0.9389322104011790  0.8697958186375034  0.4040940118915999
  0.9639322104011789  0.8697958186375034  0.4040940118915999
  0.9889322104011788  0.8697958186375034  0.4040940118915999
  0.0139322104011790  0.8947958186375033  0.4040940118915999
  0.0389322104011791  0.8947958186375033  0.4040940118915999
  0.0639322104011791  0.8947958186375033  0.4040940118915999
  0.0889322104011790  0.8947958186375033  0.4040940118915999
  0.1139322104011790  0.8947958186375033  0.4040940118915999
  0.1389322104011790  0.8947958186375033  0.4040940118915999
  0.1639322104011791  0.8947958186375033  0.4040940118915999
  0.1889322104011790  0.8947958186375033  0.4040940118915999
  0.2139322104011790  0.8947958186375033  0.4040940118915999
  0.2389322104011790  0.8947958186375033  0.4040940118915999
  0.2639322104011790  0.8947958186375033  0.4040940118915999
  0.2889322104011789  0.8947958186375033  0.4040940118915999
  0.3139322104011790  0.8947958186375033  0.4040940118915999
  0.3389322104011790  0.8947958186375033  0.4040940118915999
  0.3639322104011790  0.8947958186375033  0.4040940118915999
  0.3889322104011789  0.8947958186375033  0.4040940118915999
  0.4139322104011791  0.8947958186375033  0.4040940118915999
  0.4389322104011791  0.8947958186375033  0.4040940118915999
  0.4639322104011791  0.8947958186375033  0.4040940118915999
  0.4889322104011789  0.8947958186375033  0.4040940118915999
  0.5139322104011791  0.8947958186375033  0.4040940118915999
  0.5389322104011790  0.8947958186375033  0.4040940118915999
  0.5639322104011791  0.8947958186375033  0.4040940118915999
  0.5889322104011790  0.8947958186375033  0.4040940118915999
  0.6139322104011792  0.8947958186375033  0.4040940118915999
  0.6389322104011791  0.8947958186375033  0.4040940118915999
  0.6639322104011790  0.8947958186375033  0.4040940118915999
  0.6889322104011789  0.8947958186375033  0.4040940118915999
  0.7139322104011790  0.8947958186375033  0.4040940118915999
  0.7389322104011792  0.8947958186375033  0.4040940118915999
  0.7639322104011791  0.8947958186375033  0.4040940118915999
  0.7889322104011792  0.8947958186375033  0.4040940118915999
  0.8139322104011791  0.8947958186375033  0.4040940118915999
  0.8389322104011788  0.8947958186375033  0.4040940118915999
  0.8639322104011790  0.8947958186375033  0.4040940118915999
  0.8889322104011789  0.8947958186375033  0.4040940118915999
  0.9139322104011790  0.8947958186375033  0.4040940118915999
  0.9389322104011791  0.8947958186375033  0.4040940118915999
  0.9639322104011790  0.8947958186375033  0.4040940118915999
  0.9889322104011792  0.8947958186375033  0.4040940118915999
  0.0139322104011790  0.9197958186375033  0.4040940118915999
  0.0389322104011790  0.9197958186375033  0.4040940118915999
  0.0639322104011791  0.9197958186375033  0.4040940118915999
  0.0889322104011791  0.9197958186375033  0.4040940118915999
  0.1139322104011792  0.9197958186375033  0.4040940118915999
  0.1389322104011791  0.9197958186375033  0.4040940118915999
  0.1639322104011791  0.9197958186375033  0.4040940118915999
  0.1889322104011791  0.9197958186375033  0.4040940118915999
  0.2139322104011791  0.9197958186375033  0.4040940118915999
  0.2389322104011790  0.9197958186375033  0.4040940118915999
  0.2639322104011790  0.9197958186375033  0.4040940118915999
  0.2889322104011791  0.9197958186375033  0.4040940118915999
  0.3139322104011791  0.9197958186375033  0.4040940118915999
  0.3389322104011790  0.9197958186375033  0.4040940118915999
  0.3639322104011790  0.9197958186375033  0.4040940118915999
  0.3889322104011790  0.9197958186375033  0.4040940118915999
  0.4139322104011791  0.9197958186375033  0.4040940118915999
  0.4389322104011791  0.9197958186375033  0.4040940118915999
  0.4639322104011791  0.9197958186375033  0.4040940118915999
  0.4889322104011791  0.9197958186375033  0.4040940118915999
  0.5139322104011792  0.9197958186375033  0.4040940118915999
  0.5389322104011791  0.9197958186375033  0.4040940118915999
  0.5639322104011790  0.9197958186375033  0.4040940118915999
  0.5889322104011792  0.9197958186375033  0.4040940118915999
  0.6139322104011793  0.9197958186375033  0.4040940118915999
  0.6389322104011792  0.9197958186375033  0.4040940118915999
  0.6639322104011791  0.9197958186375033  0.4040940118915999
  0.6889322104011790  0.9197958186375033  0.4040940118915999
  0.7139322104011792  0.9197958186375033  0.4040940118915999
  0.7389322104011791  0.9197958186375033  0.4040940118915999
  0.7639322104011792  0.9197958186375033  0.4040940118915999
  0.7889322104011793  0.9197958186375033  0.4040940118915999
  0.8139322104011792  0.9197958186375033  0.4040940118915999
  0.8389322104011792  0.9197958186375033  0.4040940118915999
  0.8639322104011788  0.9197958186375033  0.4040940118915999
  0.8889322104011790  0.9197958186375033  0.4040940118915999
  0.9139322104011791  0.9197958186375033  0.4040940118915999
  0.9389322104011790  0.9197958186375033  0.4040940118915999
  0.9639322104011789  0.9197958186375033  0.4040940118915999
  0.9889322104011791  0.9197958186375033  0.4040940118915999
  0.0139322104011791  0.9447958186375033  0.4040940118915999
  0.0389322104011791  0.9447958186375033  0.4040940118915999
  0.0639322104011791  0.9447958186375033  0.4040940118915999
  0.0889322104011791  0.9447958186375033  0.4040940118915999
  0.1139322104011791  0.9447958186375033  0.4040940118915999
  0.1389322104011791  0.9447958186375033  0.4040940118915999
  0.1639322104011790  0.9447958186375033  0.4040940118915999
  0.1889322104011791  0.9447958186375033  0.4040940118915999
  0.2139322104011791  0.9447958186375033  0.4040940118915999
  0.2389322104011791  0.9447958186375033  0.4040940118915999
  0.2639322104011790  0.9447958186375033  0.4040940118915999
  0.2889322104011791  0.9447958186375033  0.4040940118915999
  0.3139322104011791  0.9447958186375033  0.4040940118915999
  0.3389322104011791  0.9447958186375033  0.4040940118915999
  0.3639322104011790  0.9447958186375033  0.4040940118915999
  0.3889322104011790  0.9447958186375033  0.4040940118915999
  0.4139322104011792  0.9447958186375033  0.4040940118915999
  0.4389322104011792  0.9447958186375033  0.4040940118915999
  0.4639322104011791  0.9447958186375033  0.4040940118915999
  0.4889322104011790  0.9447958186375033  0.4040940118915999
  0.5139322104011791  0.9447958186375033  0.4040940118915999
  0.5389322104011789  0.9447958186375033  0.4040940118915999
  0.5639322104011790  0.9447958186375033  0.4040940118915999
  0.5889322104011789  0.9447958186375033  0.4040940118915999
  0.6139322104011791  0.9447958186375033  0.4040940118915999
  0.6389322104011792  0.9447958186375033  0.4040940118915999
  0.6639322104011791  0.9447958186375033  0.4040940118915999
  0.6889322104011790  0.9447958186375033  0.4040940118915999
  0.7139322104011789  0.9447958186375033  0.4040940118915999
  0.7389322104011791  0.9447958186375033  0.4040940118915999
  0.7639322104011790  0.9447958186375033  0.4040940118915999
  0.7889322104011791  0.9447958186375033  0.4040940118915999
  0.8139322104011790  0.9447958186375033  0.4040940118915999
  0.8389322104011789  0.9447958186375033  0.4040940118915999
  0.8639322104011791  0.9447958186375033  0.4040940118915999
  0.8889322104011790  0.9447958186375033  0.4040940118915999
  0.9139322104011789  0.9447958186375033  0.4040940118915999
  0.9389322104011790  0.9447958186375033  0.4040940118915999
  0.9639322104011789  0.9447958186375033  0.4040940118915999
  0.9889322104011791  0.9447958186375033  0.4040940118915999
  0.0139322104011791  0.9697958186375033  0.4040940118915999
  0.0389322104011791  0.9697958186375033  0.4040940118915999
  0.0639322104011791  0.9697958186375033  0.4040940118915999
  0.0889322104011791  0.9697958186375033  0.4040940118915999
  0.1139322104011791  0.9697958186375033  0.4040940118915999
  0.1389322104011791  0.9697958186375033  0.4040940118915999
  0.1639322104011791  0.9697958186375033  0.4040940118915999
  0.1889322104011791  0.9697958186375033  0.4040940118915999
  0.2139322104011790  0.9697958186375033  0.4040940118915999
  0.2389322104011790  0.9697958186375033  0.4040940118915999
  0.2639322104011791  0.9697958186375033  0.4040940118915999
  0.2889322104011791  0.9697958186375033  0.4040940118915999
  0.3139322104011790  0.9697958186375033  0.4040940118915999
  0.3389322104011790  0.9697958186375033  0.4040940118915999
  0.3639322104011791  0.9697958186375033  0.4040940118915999
  0.3889322104011791  0.9697958186375033  0.4040940118915999
  0.4139322104011791  0.9697958186375033  0.4040940118915999
  0.4389322104011791  0.9697958186375033  0.4040940118915999
  0.4639322104011790  0.9697958186375033  0.4040940118915999
  0.4889322104011791  0.9697958186375033  0.4040940118915999
  0.5139322104011792  0.9697958186375033  0.4040940118915999
  0.5389322104011790  0.9697958186375033  0.4040940118915999
  0.5639322104011789  0.9697958186375033  0.4040940118915999
  0.5889322104011790  0.9697958186375033  0.4040940118915999
  0.6139322104011792  0.9697958186375033  0.4040940118915999
  0.6389322104011791  0.9697958186375033  0.4040940118915999
  0.6639322104011792  0.9697958186375033  0.4040940118915999
  0.6889322104011791  0.9697958186375033  0.4040940118915999
  0.7139322104011793  0.9697958186375033  0.4040940118915999
  0.7389322104011790  0.9697958186375033  0.4040940118915999
  0.7639322104011791  0.9697958186375033  0.4040940118915999
  0.7889322104011792  0.9697958186375033  0.4040940118915999
  0.8139322104011791  0.9697958186375033  0.4040940118915999
  0.8389322104011790  0.9697958186375033  0.4040940118915999
  0.8639322104011790  0.9697958186375033  0.4040940118915999
  0.8889322104011791  0.9697958186375033  0.4040940118915999
  0.9139322104011792  0.9697958186375033  0.4040940118915999
  0.9389322104011789  0.9697958186375033  0.4040940118915999
  0.9639322104011788  0.9697958186375033  0.4040940118915999
  0.9889322104011790  0.9697958186375033  0.4040940118915999
  0.0139322104011791  0.9947958186375034  0.4040940118915999
  0.0389322104011790  0.9947958186375034  0.4040940118915999
  0.0639322104011790  0.9947958186375034  0.4040940118915999
  0.0889322104011790  0.9947958186375034  0.4040940118915999
  0.1139322104011790  0.9947958186375034  0.4040940118915999
  0.1389322104011790  0.9947958186375034  0.4040940118915999
  0.1639322104011790  0.9947958186375034  0.4040940118915999
  0.1889322104011790  0.9947958186375034  0.4040940118915999
  0.2139322104011790  0.9947958186375034  0.4040940118915999
  0.2389322104011789  0.9947958186375034  0.4040940118915999
  0.2639322104011790  0.9947958186375034  0.4040940118915999
  0.2889322104011790  0.9947958186375034  0.4040940118915999
  0.3139322104011790  0.9947958186375034  0.4040940118915999
  0.3389322104011789  0.9947958186375034  0.4040940118915999
  0.3639322104011790  0.9947958186375034  0.4040940118915999
  0.3889322104011790  0.9947958186375034  0.4040940118915999
  0.4139322104011791  0.9947958186375034  0.4040940118915999
  0.4389322104011789  0.9947958186375034  0.4040940118915999
  0.4639322104011790  0.9947958186375034  0.4040940118915999
  0.4889322104011790  0.9947958186375034  0.4040940118915999
  0.5139322104011791  0.9947958186375034  0.4040940118915999
  0.5389322104011790  0.9947958186375034  0.4040940118915999
  0.5639322104011791  0.9947958186375034  0.4040940118915999
  0.5889322104011788  0.9947958186375034  0.4040940118915999
  0.6139322104011790  0.9947958186375034  0.4040940118915999
  0.6389322104011791  0.9947958186375034  0.4040940118915999
  0.6639322104011790  0.9947958186375034  0.4040940118915999
  0.6889322104011789  0.9947958186375034  0.4040940118915999
  0.7139322104011790  0.9947958186375034  0.4040940118915999
  0.7389322104011792  0.9947958186375034  0.4040940118915999
  0.7639322104011791  0.9947958186375034  0.4040940118915999
  0.7889322104011790  0.9947958186375034  0.4040940118915999
  0.8139322104011789  0.9947958186375034  0.4040940118915999
  0.8389322104011788  0.9947958186375034  0.4040940118915999
  0.8639322104011790  0.9947958186375034  0.4040940118915999
  0.8889322104011789  0.9947958186375034  0.4040940118915999
  0.9139322104011790  0.9947958186375034  0.4040940118915999
  0.9389322104011791  0.9947958186375034  0.4040940118915999
  0.9639322104011790  0.9947958186375034  0.4040940118915999
  0.9889322104011790  0.9947958186375034  0.4040940118915999
  0.0062264714038273  0.0102074181606907  0.3750824751567000
  0.0312264714038272  0.0102074181606907  0.3750824751567000
  0.0562264714038273  0.0102074181606907  0.3750824751567000
  0.0812264714038273  0.0102074181606907  0.3750824751567000
  0.1062264714038273  0.0102074181606907  0.3750824751567000
  0.1312264714038273  0.0102074181606907  0.3750824751567000
  0.1562264714038273  0.0102074181606907  0.3750824751567000
  0.1812264714038273  0.0102074181606907  0.3750824751567000
  0.2062264714038272  0.0102074181606907  0.3750824751567000
  0.2312264714038273  0.0102074181606907  0.3750824751567000
  0.2562264714038273  0.0102074181606907  0.3750824751567000
  0.2812264714038272  0.0102074181606907  0.3750824751567000
  0.3062264714038272  0.0102074181606907  0.3750824751567000
  0.3312264714038273  0.0102074181606907  0.3750824751567000
  0.3562264714038272  0.0102074181606907  0.3750824751567000
  0.3812264714038273  0.0102074181606907  0.3750824751567000
  0.4062264714038273  0.0102074181606907  0.3750824751567000
  0.4312264714038273  0.0102074181606907  0.3750824751567000
  0.4562264714038273  0.0102074181606907  0.3750824751567000
  0.4812264714038273  0.0102074181606907  0.3750824751567000
  0.5062264714038273  0.0102074181606907  0.3750824751567000
  0.5312264714038273  0.0102074181606907  0.3750824751567000
  0.5562264714038273  0.0102074181606907  0.3750824751567000
  0.5812264714038273  0.0102074181606907  0.3750824751567000
  0.6062264714038273  0.0102074181606907  0.3750824751567000
  0.6312264714038274  0.0102074181606907  0.3750824751567000
  0.6562264714038273  0.0102074181606907  0.3750824751567000
  0.6812264714038273  0.0102074181606907  0.3750824751567000
  0.7062264714038273  0.0102074181606907  0.3750824751567000
  0.7312264714038273  0.0102074181606907  0.3750824751567000
  0.7562264714038274  0.0102074181606907  0.3750824751567000
  0.7812264714038273  0.0102074181606907  0.3750824751567000
  0.8062264714038273  0.0102074181606907  0.3750824751567000
  0.8312264714038273  0.0102074181606907  0.3750824751567000
  0.8562264714038273  0.0102074181606907  0.3750824751567000
  0.8812264714038274  0.0102074181606907  0.3750824751567000
  0.9062264714038273  0.0102074181606907  0.3750824751567000
  0.9312264714038273  0.0102074181606907  0.3750824751567000
  0.9562264714038273  0.0102074181606907  0.3750824751567000
  0.9812264714038272  0.0102074181606907  0.3750824751567000
  0.0062264714038273  0.0352074181606908  0.3750824751567000
  0.0312264714038272  0.0352074181606908  0.3750824751567000
  0.0562264714038273  0.0352074181606908  0.3750824751567000
  0.0812264714038273  0.0352074181606908  0.3750824751567000
  0.1062264714038273  0.0352074181606908  0.3750824751567000
  0.1312264714038273  0.0352074181606908  0.3750824751567000
  0.1562264714038273  0.0352074181606908  0.3750824751567000
  0.1812264714038273  0.0352074181606908  0.3750824751567000
  0.2062264714038272  0.0352074181606908  0.3750824751567000
  0.2312264714038273  0.0352074181606908  0.3750824751567000
  0.2562264714038273  0.0352074181606908  0.3750824751567000
  0.2812264714038272  0.0352074181606908  0.3750824751567000
  0.3062264714038272  0.0352074181606908  0.3750824751567000
  0.3312264714038273  0.0352074181606908  0.3750824751567000
  0.3562264714038272  0.0352074181606908  0.3750824751567000
  0.3812264714038272  0.0352074181606908  0.3750824751567000
  0.4062264714038273  0.0352074181606908  0.3750824751567000
  0.4312264714038273  0.0352074181606908  0.3750824751567000
  0.4562264714038273  0.0352074181606908  0.3750824751567000
  0.4812264714038273  0.0352074181606908  0.3750824751567000
  0.5062264714038273  0.0352074181606908  0.3750824751567000
  0.5312264714038273  0.0352074181606908  0.3750824751567000
  0.5562264714038274  0.0352074181606908  0.3750824751567000
  0.5812264714038273  0.0352074181606908  0.3750824751567000
  0.6062264714038273  0.0352074181606908  0.3750824751567000
  0.6312264714038274  0.0352074181606908  0.3750824751567000
  0.6562264714038274  0.0352074181606908  0.3750824751567000
  0.6812264714038273  0.0352074181606908  0.3750824751567000
  0.7062264714038273  0.0352074181606908  0.3750824751567000
  0.7312264714038273  0.0352074181606908  0.3750824751567000
  0.7562264714038275  0.0352074181606908  0.3750824751567000
  0.7812264714038273  0.0352074181606908  0.3750824751567000
  0.8062264714038273  0.0352074181606908  0.3750824751567000
  0.8312264714038273  0.0352074181606908  0.3750824751567000
  0.8562264714038275  0.0352074181606908  0.3750824751567000
  0.8812264714038274  0.0352074181606908  0.3750824751567000
  0.9062264714038273  0.0352074181606908  0.3750824751567000
  0.9312264714038272  0.0352074181606908  0.3750824751567000
  0.9562264714038273  0.0352074181606908  0.3750824751567000
  0.9812264714038272  0.0352074181606908  0.3750824751567000
  0.0062264714038272  0.0602074181606908  0.3750824751567000
  0.0312264714038273  0.0602074181606908  0.3750824751567000
  0.0562264714038272  0.0602074181606908  0.3750824751567000
  0.0812264714038273  0.0602074181606908  0.3750824751567000
  0.1062264714038273  0.0602074181606908  0.3750824751567000
  0.1312264714038273  0.0602074181606908  0.3750824751567000
  0.1562264714038273  0.0602074181606908  0.3750824751567000
  0.1812264714038273  0.0602074181606908  0.3750824751567000
  0.2062264714038272  0.0602074181606908  0.3750824751567000
  0.2312264714038272  0.0602074181606908  0.3750824751567000
  0.2562264714038273  0.0602074181606908  0.3750824751567000
  0.2812264714038272  0.0602074181606908  0.3750824751567000
  0.3062264714038272  0.0602074181606908  0.3750824751567000
  0.3312264714038273  0.0602074181606908  0.3750824751567000
  0.3562264714038272  0.0602074181606908  0.3750824751567000
  0.3812264714038272  0.0602074181606908  0.3750824751567000
  0.4062264714038272  0.0602074181606908  0.3750824751567000
  0.4312264714038273  0.0602074181606908  0.3750824751567000
  0.4562264714038273  0.0602074181606908  0.3750824751567000
  0.4812264714038273  0.0602074181606908  0.3750824751567000
  0.5062264714038274  0.0602074181606908  0.3750824751567000
  0.5312264714038273  0.0602074181606908  0.3750824751567000
  0.5562264714038274  0.0602074181606908  0.3750824751567000
  0.5812264714038274  0.0602074181606908  0.3750824751567000
  0.6062264714038275  0.0602074181606908  0.3750824751567000
  0.6312264714038274  0.0602074181606908  0.3750824751567000
  0.6562264714038274  0.0602074181606908  0.3750824751567000
  0.6812264714038274  0.0602074181606908  0.3750824751567000
  0.7062264714038274  0.0602074181606908  0.3750824751567000
  0.7312264714038273  0.0602074181606908  0.3750824751567000
  0.7562264714038275  0.0602074181606908  0.3750824751567000
  0.7812264714038274  0.0602074181606908  0.3750824751567000
  0.8062264714038274  0.0602074181606908  0.3750824751567000
  0.8312264714038273  0.0602074181606908  0.3750824751567000
  0.8562264714038275  0.0602074181606908  0.3750824751567000
  0.8812264714038275  0.0602074181606908  0.3750824751567000
  0.9062264714038273  0.0602074181606908  0.3750824751567000
  0.9312264714038273  0.0602074181606908  0.3750824751567000
  0.9562264714038274  0.0602074181606908  0.3750824751567000
  0.9812264714038273  0.0602074181606908  0.3750824751567000
  0.0062264714038273  0.0852074181606908  0.3750824751567000
  0.0312264714038273  0.0852074181606908  0.3750824751567000
  0.0562264714038273  0.0852074181606908  0.3750824751567000
  0.0812264714038273  0.0852074181606908  0.3750824751567000
  0.1062264714038273  0.0852074181606908  0.3750824751567000
  0.1312264714038273  0.0852074181606908  0.3750824751567000
  0.1562264714038273  0.0852074181606908  0.3750824751567000
  0.1812264714038273  0.0852074181606908  0.3750824751567000
  0.2062264714038272  0.0852074181606908  0.3750824751567000
  0.2312264714038272  0.0852074181606908  0.3750824751567000
  0.2562264714038273  0.0852074181606908  0.3750824751567000
  0.2812264714038272  0.0852074181606908  0.3750824751567000
  0.3062264714038272  0.0852074181606908  0.3750824751567000
  0.3312264714038273  0.0852074181606908  0.3750824751567000
  0.3562264714038272  0.0852074181606908  0.3750824751567000
  0.3812264714038273  0.0852074181606908  0.3750824751567000
  0.4062264714038273  0.0852074181606908  0.3750824751567000
  0.4312264714038273  0.0852074181606908  0.3750824751567000
  0.4562264714038273  0.0852074181606908  0.3750824751567000
  0.4812264714038272  0.0852074181606908  0.3750824751567000
  0.5062264714038273  0.0852074181606908  0.3750824751567000
  0.5312264714038273  0.0852074181606908  0.3750824751567000
  0.5562264714038274  0.0852074181606908  0.3750824751567000
  0.5812264714038273  0.0852074181606908  0.3750824751567000
  0.6062264714038273  0.0852074181606908  0.3750824751567000
  0.6312264714038274  0.0852074181606908  0.3750824751567000
  0.6562264714038274  0.0852074181606908  0.3750824751567000
  0.6812264714038273  0.0852074181606908  0.3750824751567000
  0.7062264714038273  0.0852074181606908  0.3750824751567000
  0.7312264714038273  0.0852074181606908  0.3750824751567000
  0.7562264714038274  0.0852074181606908  0.3750824751567000
  0.7812264714038273  0.0852074181606908  0.3750824751567000
  0.8062264714038273  0.0852074181606908  0.3750824751567000
  0.8312264714038273  0.0852074181606908  0.3750824751567000
  0.8562264714038273  0.0852074181606908  0.3750824751567000
  0.8812264714038274  0.0852074181606908  0.3750824751567000
  0.9062264714038273  0.0852074181606908  0.3750824751567000
  0.9312264714038272  0.0852074181606908  0.3750824751567000
  0.9562264714038272  0.0852074181606908  0.3750824751567000
  0.9812264714038271  0.0852074181606908  0.3750824751567000
  0.0062264714038273  0.1102074181606908  0.3750824751567000
  0.0312264714038273  0.1102074181606908  0.3750824751567000
  0.0562264714038273  0.1102074181606908  0.3750824751567000
  0.0812264714038273  0.1102074181606908  0.3750824751567000
  0.1062264714038273  0.1102074181606908  0.3750824751567000
  0.1312264714038273  0.1102074181606908  0.3750824751567000
  0.1562264714038273  0.1102074181606908  0.3750824751567000
  0.1812264714038273  0.1102074181606908  0.3750824751567000
  0.2062264714038272  0.1102074181606908  0.3750824751567000
  0.2312264714038273  0.1102074181606908  0.3750824751567000
  0.2562264714038273  0.1102074181606908  0.3750824751567000
  0.2812264714038272  0.1102074181606908  0.3750824751567000
  0.3062264714038272  0.1102074181606908  0.3750824751567000
  0.3312264714038273  0.1102074181606908  0.3750824751567000
  0.3562264714038272  0.1102074181606908  0.3750824751567000
  0.3812264714038273  0.1102074181606908  0.3750824751567000
  0.4062264714038273  0.1102074181606908  0.3750824751567000
  0.4312264714038272  0.1102074181606908  0.3750824751567000
  0.4562264714038273  0.1102074181606908  0.3750824751567000
  0.4812264714038273  0.1102074181606908  0.3750824751567000
  0.5062264714038273  0.1102074181606908  0.3750824751567000
  0.5312264714038273  0.1102074181606908  0.3750824751567000
  0.5562264714038274  0.1102074181606908  0.3750824751567000
  0.5812264714038274  0.1102074181606908  0.3750824751567000
  0.6062264714038273  0.1102074181606908  0.3750824751567000
  0.6312264714038274  0.1102074181606908  0.3750824751567000
  0.6562264714038274  0.1102074181606908  0.3750824751567000
  0.6812264714038274  0.1102074181606908  0.3750824751567000
  0.7062264714038273  0.1102074181606908  0.3750824751567000
  0.7312264714038273  0.1102074181606908  0.3750824751567000
  0.7562264714038275  0.1102074181606908  0.3750824751567000
  0.7812264714038274  0.1102074181606908  0.3750824751567000
  0.8062264714038273  0.1102074181606908  0.3750824751567000
  0.8312264714038273  0.1102074181606908  0.3750824751567000
  0.8562264714038275  0.1102074181606908  0.3750824751567000
  0.8812264714038274  0.1102074181606908  0.3750824751567000
  0.9062264714038272  0.1102074181606908  0.3750824751567000
  0.9312264714038273  0.1102074181606908  0.3750824751567000
  0.9562264714038273  0.1102074181606908  0.3750824751567000
  0.9812264714038272  0.1102074181606908  0.3750824751567000
  0.0062264714038273  0.1352074181606908  0.3750824751567000
  0.0312264714038273  0.1352074181606908  0.3750824751567000
  0.0562264714038273  0.1352074181606908  0.3750824751567000
  0.0812264714038273  0.1352074181606908  0.3750824751567000
  0.1062264714038273  0.1352074181606908  0.3750824751567000
  0.1312264714038273  0.1352074181606908  0.3750824751567000
  0.1562264714038273  0.1352074181606908  0.3750824751567000
  0.1812264714038273  0.1352074181606908  0.3750824751567000
  0.2062264714038272  0.1352074181606908  0.3750824751567000
  0.2312264714038272  0.1352074181606908  0.3750824751567000
  0.2562264714038273  0.1352074181606908  0.3750824751567000
  0.2812264714038272  0.1352074181606908  0.3750824751567000
  0.3062264714038272  0.1352074181606908  0.3750824751567000
  0.3312264714038273  0.1352074181606908  0.3750824751567000
  0.3562264714038272  0.1352074181606908  0.3750824751567000
  0.3812264714038272  0.1352074181606908  0.3750824751567000
  0.4062264714038273  0.1352074181606908  0.3750824751567000
  0.4312264714038272  0.1352074181606908  0.3750824751567000
  0.4562264714038272  0.1352074181606908  0.3750824751567000
  0.4812264714038272  0.1352074181606908  0.3750824751567000
  0.5062264714038273  0.1352074181606908  0.3750824751567000
  0.5312264714038273  0.1352074181606908  0.3750824751567000
  0.5562264714038273  0.1352074181606908  0.3750824751567000
  0.5812264714038273  0.1352074181606908  0.3750824751567000
  0.6062264714038273  0.1352074181606908  0.3750824751567000
  0.6312264714038274  0.1352074181606908  0.3750824751567000
  0.6562264714038273  0.1352074181606908  0.3750824751567000
  0.6812264714038273  0.1352074181606908  0.3750824751567000
  0.7062264714038273  0.1352074181606908  0.3750824751567000
  0.7312264714038273  0.1352074181606908  0.3750824751567000
  0.7562264714038274  0.1352074181606908  0.3750824751567000
  0.7812264714038273  0.1352074181606908  0.3750824751567000
  0.8062264714038273  0.1352074181606908  0.3750824751567000
  0.8312264714038273  0.1352074181606908  0.3750824751567000
  0.8562264714038273  0.1352074181606908  0.3750824751567000
  0.8812264714038274  0.1352074181606908  0.3750824751567000
  0.9062264714038273  0.1352074181606908  0.3750824751567000
  0.9312264714038272  0.1352074181606908  0.3750824751567000
  0.9562264714038273  0.1352074181606908  0.3750824751567000
  0.9812264714038272  0.1352074181606908  0.3750824751567000
  0.0062264714038273  0.1602074181606908  0.3750824751567000
  0.0312264714038273  0.1602074181606908  0.3750824751567000
  0.0562264714038272  0.1602074181606908  0.3750824751567000
  0.0812264714038272  0.1602074181606908  0.3750824751567000
  0.1062264714038273  0.1602074181606908  0.3750824751567000
  0.1312264714038273  0.1602074181606908  0.3750824751567000
  0.1562264714038273  0.1602074181606908  0.3750824751567000
  0.1812264714038273  0.1602074181606908  0.3750824751567000
  0.2062264714038272  0.1602074181606908  0.3750824751567000
  0.2312264714038272  0.1602074181606908  0.3750824751567000
  0.2562264714038273  0.1602074181606908  0.3750824751567000
  0.2812264714038272  0.1602074181606908  0.3750824751567000
  0.3062264714038273  0.1602074181606908  0.3750824751567000
  0.3312264714038273  0.1602074181606908  0.3750824751567000
  0.3562264714038273  0.1602074181606908  0.3750824751567000
  0.3812264714038273  0.1602074181606908  0.3750824751567000
  0.4062264714038273  0.1602074181606908  0.3750824751567000
  0.4312264714038273  0.1602074181606908  0.3750824751567000
  0.4562264714038273  0.1602074181606908  0.3750824751567000
  0.4812264714038273  0.1602074181606908  0.3750824751567000
  0.5062264714038273  0.1602074181606908  0.3750824751567000
  0.5312264714038273  0.1602074181606908  0.3750824751567000
  0.5562264714038274  0.1602074181606908  0.3750824751567000
  0.5812264714038273  0.1602074181606908  0.3750824751567000
  0.6062264714038273  0.1602074181606908  0.3750824751567000
  0.6312264714038274  0.1602074181606908  0.3750824751567000
  0.6562264714038274  0.1602074181606908  0.3750824751567000
  0.6812264714038273  0.1602074181606908  0.3750824751567000
  0.7062264714038273  0.1602074181606908  0.3750824751567000
  0.7312264714038273  0.1602074181606908  0.3750824751567000
  0.7562264714038275  0.1602074181606908  0.3750824751567000
  0.7812264714038273  0.1602074181606908  0.3750824751567000
  0.8062264714038273  0.1602074181606908  0.3750824751567000
  0.8312264714038273  0.1602074181606908  0.3750824751567000
  0.8562264714038275  0.1602074181606908  0.3750824751567000
  0.8812264714038273  0.1602074181606908  0.3750824751567000
  0.9062264714038272  0.1602074181606908  0.3750824751567000
  0.9312264714038273  0.1602074181606908  0.3750824751567000
  0.9562264714038274  0.1602074181606908  0.3750824751567000
  0.9812264714038273  0.1602074181606908  0.3750824751567000
  0.0062264714038273  0.1852074181606908  0.3750824751567000
  0.0312264714038272  0.1852074181606908  0.3750824751567000
  0.0562264714038273  0.1852074181606908  0.3750824751567000
  0.0812264714038273  0.1852074181606908  0.3750824751567000
  0.1062264714038273  0.1852074181606908  0.3750824751567000
  0.1312264714038273  0.1852074181606908  0.3750824751567000
  0.1562264714038273  0.1852074181606908  0.3750824751567000
  0.1812264714038273  0.1852074181606908  0.3750824751567000
  0.2062264714038272  0.1852074181606908  0.3750824751567000
  0.2312264714038272  0.1852074181606908  0.3750824751567000
  0.2562264714038273  0.1852074181606908  0.3750824751567000
  0.2812264714038272  0.1852074181606908  0.3750824751567000
  0.3062264714038272  0.1852074181606908  0.3750824751567000
  0.3312264714038273  0.1852074181606908  0.3750824751567000
  0.3562264714038272  0.1852074181606908  0.3750824751567000
  0.3812264714038272  0.1852074181606908  0.3750824751567000
  0.4062264714038273  0.1852074181606908  0.3750824751567000
  0.4312264714038272  0.1852074181606908  0.3750824751567000
  0.4562264714038273  0.1852074181606908  0.3750824751567000
  0.4812264714038273  0.1852074181606908  0.3750824751567000
  0.5062264714038273  0.1852074181606908  0.3750824751567000
  0.5312264714038272  0.1852074181606908  0.3750824751567000
  0.5562264714038273  0.1852074181606908  0.3750824751567000
  0.5812264714038273  0.1852074181606908  0.3750824751567000
  0.6062264714038273  0.1852074181606908  0.3750824751567000
  0.6312264714038273  0.1852074181606908  0.3750824751567000
  0.6562264714038273  0.1852074181606908  0.3750824751567000
  0.6812264714038273  0.1852074181606908  0.3750824751567000
  0.7062264714038273  0.1852074181606908  0.3750824751567000
  0.7312264714038272  0.1852074181606908  0.3750824751567000
  0.7562264714038274  0.1852074181606908  0.3750824751567000
  0.7812264714038273  0.1852074181606908  0.3750824751567000
  0.8062264714038273  0.1852074181606908  0.3750824751567000
  0.8312264714038272  0.1852074181606908  0.3750824751567000
  0.8562264714038272  0.1852074181606908  0.3750824751567000
  0.8812264714038274  0.1852074181606908  0.3750824751567000
  0.9062264714038273  0.1852074181606908  0.3750824751567000
  0.9312264714038271  0.1852074181606908  0.3750824751567000
  0.9562264714038272  0.1852074181606908  0.3750824751567000
  0.9812264714038271  0.1852074181606908  0.3750824751567000
  0.0062264714038273  0.2102074181606907  0.3750824751567000
  0.0312264714038273  0.2102074181606907  0.3750824751567000
  0.0562264714038273  0.2102074181606907  0.3750824751567000
  0.0812264714038273  0.2102074181606907  0.3750824751567000
  0.1062264714038273  0.2102074181606907  0.3750824751567000
  0.1312264714038273  0.2102074181606907  0.3750824751567000
  0.1562264714038273  0.2102074181606907  0.3750824751567000
  0.1812264714038273  0.2102074181606907  0.3750824751567000
  0.2062264714038272  0.2102074181606907  0.3750824751567000
  0.2312264714038272  0.2102074181606907  0.3750824751567000
  0.2562264714038273  0.2102074181606907  0.3750824751567000
  0.2812264714038272  0.2102074181606907  0.3750824751567000
  0.3062264714038272  0.2102074181606907  0.3750824751567000
  0.3312264714038273  0.2102074181606907  0.3750824751567000
  0.3562264714038272  0.2102074181606907  0.3750824751567000
  0.3812264714038272  0.2102074181606907  0.3750824751567000
  0.4062264714038273  0.2102074181606907  0.3750824751567000
  0.4312264714038273  0.2102074181606907  0.3750824751567000
  0.4562264714038273  0.2102074181606907  0.3750824751567000
  0.4812264714038272  0.2102074181606907  0.3750824751567000
  0.5062264714038273  0.2102074181606907  0.3750824751567000
  0.5312264714038273  0.2102074181606907  0.3750824751567000
  0.5562264714038273  0.2102074181606907  0.3750824751567000
  0.5812264714038273  0.2102074181606907  0.3750824751567000
  0.6062264714038273  0.2102074181606907  0.3750824751567000
  0.6312264714038274  0.2102074181606907  0.3750824751567000
  0.6562264714038273  0.2102074181606907  0.3750824751567000
  0.6812264714038273  0.2102074181606907  0.3750824751567000
  0.7062264714038273  0.2102074181606907  0.3750824751567000
  0.7312264714038273  0.2102074181606907  0.3750824751567000
  0.7562264714038274  0.2102074181606907  0.3750824751567000
  0.7812264714038273  0.2102074181606907  0.3750824751567000
  0.8062264714038273  0.2102074181606907  0.3750824751567000
  0.8312264714038273  0.2102074181606907  0.3750824751567000
  0.8562264714038273  0.2102074181606907  0.3750824751567000
  0.8812264714038273  0.2102074181606907  0.3750824751567000
  0.9062264714038273  0.2102074181606907  0.3750824751567000
  0.9312264714038272  0.2102074181606907  0.3750824751567000
  0.9562264714038273  0.2102074181606907  0.3750824751567000
  0.9812264714038272  0.2102074181606907  0.3750824751567000
  0.0062264714038272  0.2352074181606908  0.3750824751567000
  0.0312264714038273  0.2352074181606908  0.3750824751567000
  0.0562264714038273  0.2352074181606908  0.3750824751567000
  0.0812264714038273  0.2352074181606908  0.3750824751567000
  0.1062264714038273  0.2352074181606908  0.3750824751567000
  0.1312264714038272  0.2352074181606908  0.3750824751567000
  0.1562264714038273  0.2352074181606908  0.3750824751567000
  0.1812264714038272  0.2352074181606908  0.3750824751567000
  0.2062264714038272  0.2352074181606908  0.3750824751567000
  0.2312264714038272  0.2352074181606908  0.3750824751567000
  0.2562264714038273  0.2352074181606908  0.3750824751567000
  0.2812264714038272  0.2352074181606908  0.3750824751567000
  0.3062264714038272  0.2352074181606908  0.3750824751567000
  0.3312264714038273  0.2352074181606908  0.3750824751567000
  0.3562264714038272  0.2352074181606908  0.3750824751567000
  0.3812264714038272  0.2352074181606908  0.3750824751567000
  0.4062264714038272  0.2352074181606908  0.3750824751567000
  0.4312264714038272  0.2352074181606908  0.3750824751567000
  0.4562264714038273  0.2352074181606908  0.3750824751567000
  0.4812264714038273  0.2352074181606908  0.3750824751567000
  0.5062264714038273  0.2352074181606908  0.3750824751567000
  0.5312264714038273  0.2352074181606908  0.3750824751567000
  0.5562264714038274  0.2352074181606908  0.3750824751567000
  0.5812264714038274  0.2352074181606908  0.3750824751567000
  0.6062264714038273  0.2352074181606908  0.3750824751567000
  0.6312264714038274  0.2352074181606908  0.3750824751567000
  0.6562264714038274  0.2352074181606908  0.3750824751567000
  0.6812264714038274  0.2352074181606908  0.3750824751567000
  0.7062264714038273  0.2352074181606908  0.3750824751567000
  0.7312264714038273  0.2352074181606908  0.3750824751567000
  0.7562264714038275  0.2352074181606908  0.3750824751567000
  0.7812264714038274  0.2352074181606908  0.3750824751567000
  0.8062264714038273  0.2352074181606908  0.3750824751567000
  0.8312264714038272  0.2352074181606908  0.3750824751567000
  0.8562264714038273  0.2352074181606908  0.3750824751567000
  0.8812264714038274  0.2352074181606908  0.3750824751567000
  0.9062264714038274  0.2352074181606908  0.3750824751567000
  0.9312264714038273  0.2352074181606908  0.3750824751567000
  0.9562264714038272  0.2352074181606908  0.3750824751567000
  0.9812264714038271  0.2352074181606908  0.3750824751567000
  0.0062264714038273  0.2602074181606908  0.3750824751567000
  0.0312264714038273  0.2602074181606908  0.3750824751567000
  0.0562264714038273  0.2602074181606908  0.3750824751567000
  0.0812264714038273  0.2602074181606908  0.3750824751567000
  0.1062264714038273  0.2602074181606908  0.3750824751567000
  0.1312264714038273  0.2602074181606908  0.3750824751567000
  0.1562264714038273  0.2602074181606908  0.3750824751567000
  0.1812264714038272  0.2602074181606908  0.3750824751567000
  0.2062264714038273  0.2602074181606908  0.3750824751567000
  0.2312264714038272  0.2602074181606908  0.3750824751567000
  0.2562264714038273  0.2602074181606908  0.3750824751567000
  0.2812264714038272  0.2602074181606908  0.3750824751567000
  0.3062264714038272  0.2602074181606908  0.3750824751567000
  0.3312264714038273  0.2602074181606908  0.3750824751567000
  0.3562264714038273  0.2602074181606908  0.3750824751567000
  0.3812264714038273  0.2602074181606908  0.3750824751567000
  0.4062264714038273  0.2602074181606908  0.3750824751567000
  0.4312264714038273  0.2602074181606908  0.3750824751567000
  0.4562264714038273  0.2602074181606908  0.3750824751567000
  0.4812264714038272  0.2602074181606908  0.3750824751567000
  0.5062264714038273  0.2602074181606908  0.3750824751567000
  0.5312264714038273  0.2602074181606908  0.3750824751567000
  0.5562264714038273  0.2602074181606908  0.3750824751567000
  0.5812264714038273  0.2602074181606908  0.3750824751567000
  0.6062264714038273  0.2602074181606908  0.3750824751567000
  0.6312264714038273  0.2602074181606908  0.3750824751567000
  0.6562264714038273  0.2602074181606908  0.3750824751567000
  0.6812264714038273  0.2602074181606908  0.3750824751567000
  0.7062264714038273  0.2602074181606908  0.3750824751567000
  0.7312264714038272  0.2602074181606908  0.3750824751567000
  0.7562264714038274  0.2602074181606908  0.3750824751567000
  0.7812264714038273  0.2602074181606908  0.3750824751567000
  0.8062264714038274  0.2602074181606908  0.3750824751567000
  0.8312264714038272  0.2602074181606908  0.3750824751567000
  0.8562264714038273  0.2602074181606908  0.3750824751567000
  0.8812264714038275  0.2602074181606908  0.3750824751567000
  0.9062264714038274  0.2602074181606908  0.3750824751567000
  0.9312264714038273  0.2602074181606908  0.3750824751567000
  0.9562264714038274  0.2602074181606908  0.3750824751567000
  0.9812264714038271  0.2602074181606908  0.3750824751567000
  0.0062264714038273  0.2852074181606907  0.3750824751567000
  0.0312264714038273  0.2852074181606907  0.3750824751567000
  0.0562264714038273  0.2852074181606907  0.3750824751567000
  0.0812264714038273  0.2852074181606907  0.3750824751567000
  0.1062264714038273  0.2852074181606907  0.3750824751567000
  0.1312264714038273  0.2852074181606907  0.3750824751567000
  0.1562264714038273  0.2852074181606907  0.3750824751567000
  0.1812264714038273  0.2852074181606907  0.3750824751567000
  0.2062264714038273  0.2852074181606907  0.3750824751567000
  0.2312264714038273  0.2852074181606907  0.3750824751567000
  0.2562264714038273  0.2852074181606907  0.3750824751567000
  0.2812264714038272  0.2852074181606907  0.3750824751567000
  0.3062264714038272  0.2852074181606907  0.3750824751567000
  0.3312264714038273  0.2852074181606907  0.3750824751567000
  0.3562264714038273  0.2852074181606907  0.3750824751567000
  0.3812264714038273  0.2852074181606907  0.3750824751567000
  0.4062264714038273  0.2852074181606907  0.3750824751567000
  0.4312264714038274  0.2852074181606907  0.3750824751567000
  0.4562264714038274  0.2852074181606907  0.3750824751567000
  0.4812264714038272  0.2852074181606907  0.3750824751567000
  0.5062264714038273  0.2852074181606907  0.3750824751567000
  0.5312264714038273  0.2852074181606907  0.3750824751567000
  0.5562264714038274  0.2852074181606907  0.3750824751567000
  0.5812264714038273  0.2852074181606907  0.3750824751567000
  0.6062264714038273  0.2852074181606907  0.3750824751567000
  0.6312264714038274  0.2852074181606907  0.3750824751567000
  0.6562264714038274  0.2852074181606907  0.3750824751567000
  0.6812264714038273  0.2852074181606907  0.3750824751567000
  0.7062264714038273  0.2852074181606907  0.3750824751567000
  0.7312264714038273  0.2852074181606907  0.3750824751567000
  0.7562264714038275  0.2852074181606907  0.3750824751567000
  0.7812264714038273  0.2852074181606907  0.3750824751567000
  0.8062264714038273  0.2852074181606907  0.3750824751567000
  0.8312264714038274  0.2852074181606907  0.3750824751567000
  0.8562264714038275  0.2852074181606907  0.3750824751567000
  0.8812264714038274  0.2852074181606907  0.3750824751567000
  0.9062264714038273  0.2852074181606907  0.3750824751567000
  0.9312264714038274  0.2852074181606907  0.3750824751567000
  0.9562264714038275  0.2852074181606907  0.3750824751567000
  0.9812264714038275  0.2852074181606907  0.3750824751567000
  0.0062264714038273  0.3102074181606908  0.3750824751567000
  0.0312264714038273  0.3102074181606908  0.3750824751567000
  0.0562264714038273  0.3102074181606908  0.3750824751567000
  0.0812264714038273  0.3102074181606908  0.3750824751567000
  0.1062264714038273  0.3102074181606908  0.3750824751567000
  0.1312264714038273  0.3102074181606908  0.3750824751567000
  0.1562264714038273  0.3102074181606908  0.3750824751567000
  0.1812264714038273  0.3102074181606908  0.3750824751567000
  0.2062264714038272  0.3102074181606908  0.3750824751567000
  0.2312264714038273  0.3102074181606908  0.3750824751567000
  0.2562264714038272  0.3102074181606908  0.3750824751567000
  0.2812264714038272  0.3102074181606908  0.3750824751567000
  0.3062264714038272  0.3102074181606908  0.3750824751567000
  0.3312264714038273  0.3102074181606908  0.3750824751567000
  0.3562264714038272  0.3102074181606908  0.3750824751567000
  0.3812264714038273  0.3102074181606908  0.3750824751567000
  0.4062264714038273  0.3102074181606908  0.3750824751567000
  0.4312264714038273  0.3102074181606908  0.3750824751567000
  0.4562264714038273  0.3102074181606908  0.3750824751567000
  0.4812264714038272  0.3102074181606908  0.3750824751567000
  0.5062264714038273  0.3102074181606908  0.3750824751567000
  0.5312264714038272  0.3102074181606908  0.3750824751567000
  0.5562264714038273  0.3102074181606908  0.3750824751567000
  0.5812264714038273  0.3102074181606908  0.3750824751567000
  0.6062264714038273  0.3102074181606908  0.3750824751567000
  0.6312264714038273  0.3102074181606908  0.3750824751567000
  0.6562264714038273  0.3102074181606908  0.3750824751567000
  0.6812264714038273  0.3102074181606908  0.3750824751567000
  0.7062264714038273  0.3102074181606908  0.3750824751567000
  0.7312264714038272  0.3102074181606908  0.3750824751567000
  0.7562264714038274  0.3102074181606908  0.3750824751567000
  0.7812264714038273  0.3102074181606908  0.3750824751567000
  0.8062264714038273  0.3102074181606908  0.3750824751567000
  0.8312264714038272  0.3102074181606908  0.3750824751567000
  0.8562264714038272  0.3102074181606908  0.3750824751567000
  0.8812264714038274  0.3102074181606908  0.3750824751567000
  0.9062264714038273  0.3102074181606908  0.3750824751567000
  0.9312264714038272  0.3102074181606908  0.3750824751567000
  0.9562264714038273  0.3102074181606908  0.3750824751567000
  0.9812264714038272  0.3102074181606908  0.3750824751567000
  0.0062264714038273  0.3352074181606908  0.3750824751567000
  0.0312264714038273  0.3352074181606908  0.3750824751567000
  0.0562264714038272  0.3352074181606908  0.3750824751567000
  0.0812264714038273  0.3352074181606908  0.3750824751567000
  0.1062264714038273  0.3352074181606908  0.3750824751567000
  0.1312264714038273  0.3352074181606908  0.3750824751567000
  0.1562264714038273  0.3352074181606908  0.3750824751567000
  0.1812264714038273  0.3352074181606908  0.3750824751567000
  0.2062264714038272  0.3352074181606908  0.3750824751567000
  0.2312264714038273  0.3352074181606908  0.3750824751567000
  0.2562264714038273  0.3352074181606908  0.3750824751567000
  0.2812264714038273  0.3352074181606908  0.3750824751567000
  0.3062264714038273  0.3352074181606908  0.3750824751567000
  0.3312264714038273  0.3352074181606908  0.3750824751567000
  0.3562264714038272  0.3352074181606908  0.3750824751567000
  0.3812264714038273  0.3352074181606908  0.3750824751567000
  0.4062264714038273  0.3352074181606908  0.3750824751567000
  0.4312264714038274  0.3352074181606908  0.3750824751567000
  0.4562264714038273  0.3352074181606908  0.3750824751567000
  0.4812264714038272  0.3352074181606908  0.3750824751567000
  0.5062264714038273  0.3352074181606908  0.3750824751567000
  0.5312264714038273  0.3352074181606908  0.3750824751567000
  0.5562264714038273  0.3352074181606908  0.3750824751567000
  0.5812264714038273  0.3352074181606908  0.3750824751567000
  0.6062264714038273  0.3352074181606908  0.3750824751567000
  0.6312264714038274  0.3352074181606908  0.3750824751567000
  0.6562264714038273  0.3352074181606908  0.3750824751567000
  0.6812264714038273  0.3352074181606908  0.3750824751567000
  0.7062264714038273  0.3352074181606908  0.3750824751567000
  0.7312264714038273  0.3352074181606908  0.3750824751567000
  0.7562264714038274  0.3352074181606908  0.3750824751567000
  0.7812264714038274  0.3352074181606908  0.3750824751567000
  0.8062264714038273  0.3352074181606908  0.3750824751567000
  0.8312264714038274  0.3352074181606908  0.3750824751567000
  0.8562264714038276  0.3352074181606908  0.3750824751567000
  0.8812264714038275  0.3352074181606908  0.3750824751567000
  0.9062264714038272  0.3352074181606908  0.3750824751567000
  0.9312264714038273  0.3352074181606908  0.3750824751567000
  0.9562264714038274  0.3352074181606908  0.3750824751567000
  0.9812264714038273  0.3352074181606908  0.3750824751567000
  0.0062264714038273  0.3602074181606907  0.3750824751567000
  0.0312264714038273  0.3602074181606907  0.3750824751567000
  0.0562264714038273  0.3602074181606907  0.3750824751567000
  0.0812264714038273  0.3602074181606907  0.3750824751567000
  0.1062264714038273  0.3602074181606907  0.3750824751567000
  0.1312264714038273  0.3602074181606907  0.3750824751567000
  0.1562264714038273  0.3602074181606907  0.3750824751567000
  0.1812264714038272  0.3602074181606907  0.3750824751567000
  0.2062264714038273  0.3602074181606907  0.3750824751567000
  0.2312264714038272  0.3602074181606907  0.3750824751567000
  0.2562264714038273  0.3602074181606907  0.3750824751567000
  0.2812264714038272  0.3602074181606907  0.3750824751567000
  0.3062264714038273  0.3602074181606907  0.3750824751567000
  0.3312264714038273  0.3602074181606907  0.3750824751567000
  0.3562264714038273  0.3602074181606907  0.3750824751567000
  0.3812264714038273  0.3602074181606907  0.3750824751567000
  0.4062264714038272  0.3602074181606907  0.3750824751567000
  0.4312264714038274  0.3602074181606907  0.3750824751567000
  0.4562264714038274  0.3602074181606907  0.3750824751567000
  0.4812264714038273  0.3602074181606907  0.3750824751567000
  0.5062264714038273  0.3602074181606907  0.3750824751567000
  0.5312264714038273  0.3602074181606907  0.3750824751567000
  0.5562264714038274  0.3602074181606907  0.3750824751567000
  0.5812264714038274  0.3602074181606907  0.3750824751567000
  0.6062264714038273  0.3602074181606907  0.3750824751567000
  0.6312264714038274  0.3602074181606907  0.3750824751567000
  0.6562264714038274  0.3602074181606907  0.3750824751567000
  0.6812264714038274  0.3602074181606907  0.3750824751567000
  0.7062264714038273  0.3602074181606907  0.3750824751567000
  0.7312264714038273  0.3602074181606907  0.3750824751567000
  0.7562264714038275  0.3602074181606907  0.3750824751567000
  0.7812264714038274  0.3602074181606907  0.3750824751567000
  0.8062264714038274  0.3602074181606907  0.3750824751567000
  0.8312264714038273  0.3602074181606907  0.3750824751567000
  0.8562264714038275  0.3602074181606907  0.3750824751567000
  0.8812264714038276  0.3602074181606907  0.3750824751567000
  0.9062264714038275  0.3602074181606907  0.3750824751567000
  0.9312264714038274  0.3602074181606907  0.3750824751567000
  0.9562264714038273  0.3602074181606907  0.3750824751567000
  0.9812264714038272  0.3602074181606907  0.3750824751567000
  0.0062264714038272  0.3852074181606908  0.3750824751567000
  0.0312264714038272  0.3852074181606908  0.3750824751567000
  0.0562264714038273  0.3852074181606908  0.3750824751567000
  0.0812264714038273  0.3852074181606908  0.3750824751567000
  0.1062264714038273  0.3852074181606908  0.3750824751567000
  0.1312264714038272  0.3852074181606908  0.3750824751567000
  0.1562264714038273  0.3852074181606908  0.3750824751567000
  0.1812264714038273  0.3852074181606908  0.3750824751567000
  0.2062264714038272  0.3852074181606908  0.3750824751567000
  0.2312264714038272  0.3852074181606908  0.3750824751567000
  0.2562264714038273  0.3852074181606908  0.3750824751567000
  0.2812264714038272  0.3852074181606908  0.3750824751567000
  0.3062264714038273  0.3852074181606908  0.3750824751567000
  0.3312264714038273  0.3852074181606908  0.3750824751567000
  0.3562264714038272  0.3852074181606908  0.3750824751567000
  0.3812264714038273  0.3852074181606908  0.3750824751567000
  0.4062264714038273  0.3852074181606908  0.3750824751567000
  0.4312264714038273  0.3852074181606908  0.3750824751567000
  0.4562264714038273  0.3852074181606908  0.3750824751567000
  0.4812264714038272  0.3852074181606908  0.3750824751567000
  0.5062264714038273  0.3852074181606908  0.3750824751567000
  0.5312264714038273  0.3852074181606908  0.3750824751567000
  0.5562264714038273  0.3852074181606908  0.3750824751567000
  0.5812264714038273  0.3852074181606908  0.3750824751567000
  0.6062264714038273  0.3852074181606908  0.3750824751567000
  0.6312264714038273  0.3852074181606908  0.3750824751567000
  0.6562264714038273  0.3852074181606908  0.3750824751567000
  0.6812264714038273  0.3852074181606908  0.3750824751567000
  0.7062264714038273  0.3852074181606908  0.3750824751567000
  0.7312264714038272  0.3852074181606908  0.3750824751567000
  0.7562264714038275  0.3852074181606908  0.3750824751567000
  0.7812264714038274  0.3852074181606908  0.3750824751567000
  0.8062264714038273  0.3852074181606908  0.3750824751567000
  0.8312264714038273  0.3852074181606908  0.3750824751567000
  0.8562264714038275  0.3852074181606908  0.3750824751567000
  0.8812264714038274  0.3852074181606908  0.3750824751567000
  0.9062264714038273  0.3852074181606908  0.3750824751567000
  0.9312264714038274  0.3852074181606908  0.3750824751567000
  0.9562264714038275  0.3852074181606908  0.3750824751567000
  0.9812264714038272  0.3852074181606908  0.3750824751567000
  0.0062264714038273  0.4102074181606907  0.3750824751567000
  0.0312264714038272  0.4102074181606907  0.3750824751567000
  0.0562264714038273  0.4102074181606907  0.3750824751567000
  0.0812264714038273  0.4102074181606907  0.3750824751567000
  0.1062264714038273  0.4102074181606907  0.3750824751567000
  0.1312264714038273  0.4102074181606907  0.3750824751567000
  0.1562264714038273  0.4102074181606907  0.3750824751567000
  0.1812264714038273  0.4102074181606907  0.3750824751567000
  0.2062264714038272  0.4102074181606907  0.3750824751567000
  0.2312264714038273  0.4102074181606907  0.3750824751567000
  0.2562264714038273  0.4102074181606907  0.3750824751567000
  0.2812264714038272  0.4102074181606907  0.3750824751567000
  0.3062264714038272  0.4102074181606907  0.3750824751567000
  0.3312264714038273  0.4102074181606907  0.3750824751567000
  0.3562264714038273  0.4102074181606907  0.3750824751567000
  0.3812264714038272  0.4102074181606907  0.3750824751567000
  0.4062264714038272  0.4102074181606907  0.3750824751567000
  0.4312264714038274  0.4102074181606907  0.3750824751567000
  0.4562264714038274  0.4102074181606907  0.3750824751567000
  0.4812264714038272  0.4102074181606907  0.3750824751567000
  0.5062264714038273  0.4102074181606907  0.3750824751567000
  0.5312264714038273  0.4102074181606907  0.3750824751567000
  0.5562264714038274  0.4102074181606907  0.3750824751567000
  0.5812264714038273  0.4102074181606907  0.3750824751567000
  0.6062264714038273  0.4102074181606907  0.3750824751567000
  0.6312264714038274  0.4102074181606907  0.3750824751567000
  0.6562264714038274  0.4102074181606907  0.3750824751567000
  0.6812264714038273  0.4102074181606907  0.3750824751567000
  0.7062264714038273  0.4102074181606907  0.3750824751567000
  0.7312264714038273  0.4102074181606907  0.3750824751567000
  0.7562264714038274  0.4102074181606907  0.3750824751567000
  0.7812264714038273  0.4102074181606907  0.3750824751567000
  0.8062264714038273  0.4102074181606907  0.3750824751567000
  0.8312264714038272  0.4102074181606907  0.3750824751567000
  0.8562264714038273  0.4102074181606907  0.3750824751567000
  0.8812264714038275  0.4102074181606907  0.3750824751567000
  0.9062264714038274  0.4102074181606907  0.3750824751567000
  0.9312264714038273  0.4102074181606907  0.3750824751567000
  0.9562264714038274  0.4102074181606907  0.3750824751567000
  0.9812264714038273  0.4102074181606907  0.3750824751567000
  0.0062264714038273  0.4352074181606908  0.3750824751567000
  0.0312264714038273  0.4352074181606908  0.3750824751567000
  0.0562264714038273  0.4352074181606908  0.3750824751567000
  0.0812264714038273  0.4352074181606908  0.3750824751567000
  0.1062264714038273  0.4352074181606908  0.3750824751567000
  0.1312264714038273  0.4352074181606908  0.3750824751567000
  0.1562264714038273  0.4352074181606908  0.3750824751567000
  0.1812264714038273  0.4352074181606908  0.3750824751567000
  0.2062264714038272  0.4352074181606908  0.3750824751567000
  0.2312264714038273  0.4352074181606908  0.3750824751567000
  0.2562264714038273  0.4352074181606908  0.3750824751567000
  0.2812264714038272  0.4352074181606908  0.3750824751567000
  0.3062264714038273  0.4352074181606908  0.3750824751567000
  0.3312264714038272  0.4352074181606908  0.3750824751567000
  0.3562264714038272  0.4352074181606908  0.3750824751567000
  0.3812264714038273  0.4352074181606908  0.3750824751567000
  0.4062264714038273  0.4352074181606908  0.3750824751567000
  0.4312264714038273  0.4352074181606908  0.3750824751567000
  0.4562264714038273  0.4352074181606908  0.3750824751567000
  0.4812264714038272  0.4352074181606908  0.3750824751567000
  0.5062264714038273  0.4352074181606908  0.3750824751567000
  0.5312264714038272  0.4352074181606908  0.3750824751567000
  0.5562264714038273  0.4352074181606908  0.3750824751567000
  0.5812264714038273  0.4352074181606908  0.3750824751567000
  0.6062264714038272  0.4352074181606908  0.3750824751567000
  0.6312264714038273  0.4352074181606908  0.3750824751567000
  0.6562264714038273  0.4352074181606908  0.3750824751567000
  0.6812264714038273  0.4352074181606908  0.3750824751567000
  0.7062264714038272  0.4352074181606908  0.3750824751567000
  0.7312264714038273  0.4352074181606908  0.3750824751567000
  0.7562264714038275  0.4352074181606908  0.3750824751567000
  0.7812264714038274  0.4352074181606908  0.3750824751567000
  0.8062264714038273  0.4352074181606908  0.3750824751567000
  0.8312264714038274  0.4352074181606908  0.3750824751567000
  0.8562264714038273  0.4352074181606908  0.3750824751567000
  0.8812264714038273  0.4352074181606908  0.3750824751567000
  0.9062264714038272  0.4352074181606908  0.3750824751567000
  0.9312264714038273  0.4352074181606908  0.3750824751567000
  0.9562264714038274  0.4352074181606908  0.3750824751567000
  0.9812264714038273  0.4352074181606908  0.3750824751567000
  0.0062264714038273  0.4602074181606908  0.3750824751567000
  0.0312264714038272  0.4602074181606908  0.3750824751567000
  0.0562264714038272  0.4602074181606908  0.3750824751567000
  0.0812264714038272  0.4602074181606908  0.3750824751567000
  0.1062264714038273  0.4602074181606908  0.3750824751567000
  0.1312264714038273  0.4602074181606908  0.3750824751567000
  0.1562264714038273  0.4602074181606908  0.3750824751567000
  0.1812264714038272  0.4602074181606908  0.3750824751567000
  0.2062264714038273  0.4602074181606908  0.3750824751567000
  0.2312264714038272  0.4602074181606908  0.3750824751567000
  0.2562264714038273  0.4602074181606908  0.3750824751567000
  0.2812264714038272  0.4602074181606908  0.3750824751567000
  0.3062264714038272  0.4602074181606908  0.3750824751567000
  0.3312264714038274  0.4602074181606908  0.3750824751567000
  0.3562264714038272  0.4602074181606908  0.3750824751567000
  0.3812264714038272  0.4602074181606908  0.3750824751567000
  0.4062264714038273  0.4602074181606908  0.3750824751567000
  0.4312264714038274  0.4602074181606908  0.3750824751567000
  0.4562264714038273  0.4602074181606908  0.3750824751567000
  0.4812264714038273  0.4602074181606908  0.3750824751567000
  0.5062264714038273  0.4602074181606908  0.3750824751567000
  0.5312264714038273  0.4602074181606908  0.3750824751567000
  0.5562264714038273  0.4602074181606908  0.3750824751567000
  0.5812264714038273  0.4602074181606908  0.3750824751567000
  0.6062264714038273  0.4602074181606908  0.3750824751567000
  0.6312264714038274  0.4602074181606908  0.3750824751567000
  0.6562264714038273  0.4602074181606908  0.3750824751567000
  0.6812264714038273  0.4602074181606908  0.3750824751567000
  0.7062264714038273  0.4602074181606908  0.3750824751567000
  0.7312264714038272  0.4602074181606908  0.3750824751567000
  0.7562264714038273  0.4602074181606908  0.3750824751567000
  0.7812264714038272  0.4602074181606908  0.3750824751567000
  0.8062264714038273  0.4602074181606908  0.3750824751567000
  0.8312264714038272  0.4602074181606908  0.3750824751567000
  0.8562264714038273  0.4602074181606908  0.3750824751567000
  0.8812264714038273  0.4602074181606908  0.3750824751567000
  0.9062264714038272  0.4602074181606908  0.3750824751567000
  0.9312264714038271  0.4602074181606908  0.3750824751567000
  0.9562264714038272  0.4602074181606908  0.3750824751567000
  0.9812264714038271  0.4602074181606908  0.3750824751567000
  0.0062264714038273  0.4852074181606908  0.3750824751567000
  0.0312264714038273  0.4852074181606908  0.3750824751567000
  0.0562264714038273  0.4852074181606908  0.3750824751567000
  0.0812264714038273  0.4852074181606908  0.3750824751567000
  0.1062264714038273  0.4852074181606908  0.3750824751567000
  0.1312264714038272  0.4852074181606908  0.3750824751567000
  0.1562264714038273  0.4852074181606908  0.3750824751567000
  0.1812264714038273  0.4852074181606908  0.3750824751567000
  0.2062264714038272  0.4852074181606908  0.3750824751567000
  0.2312264714038273  0.4852074181606908  0.3750824751567000
  0.2562264714038273  0.4852074181606908  0.3750824751567000
  0.2812264714038272  0.4852074181606908  0.3750824751567000
  0.3062264714038272  0.4852074181606908  0.3750824751567000
  0.3312264714038273  0.4852074181606908  0.3750824751567000
  0.3562264714038273  0.4852074181606908  0.3750824751567000
  0.3812264714038273  0.4852074181606908  0.3750824751567000
  0.4062264714038272  0.4852074181606908  0.3750824751567000
  0.4312264714038274  0.4852074181606908  0.3750824751567000
  0.4562264714038274  0.4852074181606908  0.3750824751567000
  0.4812264714038273  0.4852074181606908  0.3750824751567000
  0.5062264714038271  0.4852074181606908  0.3750824751567000
  0.5312264714038272  0.4852074181606908  0.3750824751567000
  0.5562264714038273  0.4852074181606908  0.3750824751567000
  0.5812264714038272  0.4852074181606908  0.3750824751567000
  0.6062264714038272  0.4852074181606908  0.3750824751567000
  0.6312264714038273  0.4852074181606908  0.3750824751567000
  0.6562264714038273  0.4852074181606908  0.3750824751567000
  0.6812264714038272  0.4852074181606908  0.3750824751567000
  0.7062264714038272  0.4852074181606908  0.3750824751567000
  0.7312264714038273  0.4852074181606908  0.3750824751567000
  0.7562264714038275  0.4852074181606908  0.3750824751567000
  0.7812264714038273  0.4852074181606908  0.3750824751567000
  0.8062264714038272  0.4852074181606908  0.3750824751567000
  0.8312264714038273  0.4852074181606908  0.3750824751567000
  0.8562264714038275  0.4852074181606908  0.3750824751567000
  0.8812264714038274  0.4852074181606908  0.3750824751567000
  0.9062264714038273  0.4852074181606908  0.3750824751567000
  0.9312264714038272  0.4852074181606908  0.3750824751567000
  0.9562264714038273  0.4852074181606908  0.3750824751567000
  0.9812264714038272  0.4852074181606908  0.3750824751567000
  0.0062264714038273  0.5102074181606907  0.3750824751567000
  0.0312264714038273  0.5102074181606907  0.3750824751567000
  0.0562264714038273  0.5102074181606907  0.3750824751567000
  0.0812264714038273  0.5102074181606907  0.3750824751567000
  0.1062264714038273  0.5102074181606907  0.3750824751567000
  0.1312264714038273  0.5102074181606907  0.3750824751567000
  0.1562264714038273  0.5102074181606907  0.3750824751567000
  0.1812264714038273  0.5102074181606907  0.3750824751567000
  0.2062264714038273  0.5102074181606907  0.3750824751567000
  0.2312264714038273  0.5102074181606907  0.3750824751567000
  0.2562264714038273  0.5102074181606907  0.3750824751567000
  0.2812264714038272  0.5102074181606907  0.3750824751567000
  0.3062264714038273  0.5102074181606907  0.3750824751567000
  0.3312264714038272  0.5102074181606907  0.3750824751567000
  0.3562264714038272  0.5102074181606907  0.3750824751567000
  0.3812264714038273  0.5102074181606907  0.3750824751567000
  0.4062264714038273  0.5102074181606907  0.3750824751567000
  0.4312264714038273  0.5102074181606907  0.3750824751567000
  0.4562264714038273  0.5102074181606907  0.3750824751567000
  0.4812264714038272  0.5102074181606907  0.3750824751567000
  0.5062264714038273  0.5102074181606907  0.3750824751567000
  0.5312264714038272  0.5102074181606907  0.3750824751567000
  0.5562264714038273  0.5102074181606907  0.3750824751567000
  0.5812264714038273  0.5102074181606907  0.3750824751567000
  0.6062264714038273  0.5102074181606907  0.3750824751567000
  0.6312264714038273  0.5102074181606907  0.3750824751567000
  0.6562264714038273  0.5102074181606907  0.3750824751567000
  0.6812264714038273  0.5102074181606907  0.3750824751567000
  0.7062264714038274  0.5102074181606907  0.3750824751567000
  0.7312264714038272  0.5102074181606907  0.3750824751567000
  0.7562264714038275  0.5102074181606907  0.3750824751567000
  0.7812264714038272  0.5102074181606907  0.3750824751567000
  0.8062264714038273  0.5102074181606907  0.3750824751567000
  0.8312264714038272  0.5102074181606907  0.3750824751567000
  0.8562264714038273  0.5102074181606907  0.3750824751567000
  0.8812264714038275  0.5102074181606907  0.3750824751567000
  0.9062264714038274  0.5102074181606907  0.3750824751567000
  0.9312264714038273  0.5102074181606907  0.3750824751567000
  0.9562264714038274  0.5102074181606907  0.3750824751567000
  0.9812264714038271  0.5102074181606907  0.3750824751567000
  0.0062264714038273  0.5352074181606908  0.3750824751567000
  0.0312264714038273  0.5352074181606908  0.3750824751567000
  0.0562264714038272  0.5352074181606908  0.3750824751567000
  0.0812264714038273  0.5352074181606908  0.3750824751567000
  0.1062264714038273  0.5352074181606908  0.3750824751567000
  0.1312264714038273  0.5352074181606908  0.3750824751567000
  0.1562264714038273  0.5352074181606908  0.3750824751567000
  0.1812264714038273  0.5352074181606908  0.3750824751567000
  0.2062264714038273  0.5352074181606908  0.3750824751567000
  0.2312264714038273  0.5352074181606908  0.3750824751567000
  0.2562264714038273  0.5352074181606908  0.3750824751567000
  0.2812264714038272  0.5352074181606908  0.3750824751567000
  0.3062264714038272  0.5352074181606908  0.3750824751567000
  0.3312264714038274  0.5352074181606908  0.3750824751567000
  0.3562264714038273  0.5352074181606908  0.3750824751567000
  0.3812264714038272  0.5352074181606908  0.3750824751567000
  0.4062264714038273  0.5352074181606908  0.3750824751567000
  0.4312264714038274  0.5352074181606908  0.3750824751567000
  0.4562264714038274  0.5352074181606908  0.3750824751567000
  0.4812264714038273  0.5352074181606908  0.3750824751567000
  0.5062264714038273  0.5352074181606908  0.3750824751567000
  0.5312264714038273  0.5352074181606908  0.3750824751567000
  0.5562264714038273  0.5352074181606908  0.3750824751567000
  0.5812264714038273  0.5352074181606908  0.3750824751567000
  0.6062264714038273  0.5352074181606908  0.3750824751567000
  0.6312264714038274  0.5352074181606908  0.3750824751567000
  0.6562264714038273  0.5352074181606908  0.3750824751567000
  0.6812264714038273  0.5352074181606908  0.3750824751567000
  0.7062264714038272  0.5352074181606908  0.3750824751567000
  0.7312264714038273  0.5352074181606908  0.3750824751567000
  0.7562264714038275  0.5352074181606908  0.3750824751567000
  0.7812264714038274  0.5352074181606908  0.3750824751567000
  0.8062264714038271  0.5352074181606908  0.3750824751567000
  0.8312264714038272  0.5352074181606908  0.3750824751567000
  0.8562264714038273  0.5352074181606908  0.3750824751567000
  0.8812264714038273  0.5352074181606908  0.3750824751567000
  0.9062264714038272  0.5352074181606908  0.3750824751567000
  0.9312264714038273  0.5352074181606908  0.3750824751567000
  0.9562264714038274  0.5352074181606908  0.3750824751567000
  0.9812264714038273  0.5352074181606908  0.3750824751567000
  0.0062264714038273  0.5602074181606908  0.3750824751567000
  0.0312264714038273  0.5602074181606908  0.3750824751567000
  0.0562264714038272  0.5602074181606908  0.3750824751567000
  0.0812264714038273  0.5602074181606908  0.3750824751567000
  0.1062264714038273  0.5602074181606908  0.3750824751567000
  0.1312264714038273  0.5602074181606908  0.3750824751567000
  0.1562264714038273  0.5602074181606908  0.3750824751567000
  0.1812264714038272  0.5602074181606908  0.3750824751567000
  0.2062264714038273  0.5602074181606908  0.3750824751567000
  0.2312264714038272  0.5602074181606908  0.3750824751567000
  0.2562264714038273  0.5602074181606908  0.3750824751567000
  0.2812264714038273  0.5602074181606908  0.3750824751567000
  0.3062264714038272  0.5602074181606908  0.3750824751567000
  0.3312264714038273  0.5602074181606908  0.3750824751567000
  0.3562264714038272  0.5602074181606908  0.3750824751567000
  0.3812264714038273  0.5602074181606908  0.3750824751567000
  0.4062264714038273  0.5602074181606908  0.3750824751567000
  0.4312264714038273  0.5602074181606908  0.3750824751567000
  0.4562264714038273  0.5602074181606908  0.3750824751567000
  0.4812264714038273  0.5602074181606908  0.3750824751567000
  0.5062264714038273  0.5602074181606908  0.3750824751567000
  0.5312264714038273  0.5602074181606908  0.3750824751567000
  0.5562264714038274  0.5602074181606908  0.3750824751567000
  0.5812264714038274  0.5602074181606908  0.3750824751567000
  0.6062264714038273  0.5602074181606908  0.3750824751567000
  0.6312264714038274  0.5602074181606908  0.3750824751567000
  0.6562264714038274  0.5602074181606908  0.3750824751567000
  0.6812264714038273  0.5602074181606908  0.3750824751567000
  0.7062264714038273  0.5602074181606908  0.3750824751567000
  0.7312264714038272  0.5602074181606908  0.3750824751567000
  0.7562264714038274  0.5602074181606908  0.3750824751567000
  0.7812264714038273  0.5602074181606908  0.3750824751567000
  0.8062264714038274  0.5602074181606908  0.3750824751567000
  0.8312264714038273  0.5602074181606908  0.3750824751567000
  0.8562264714038272  0.5602074181606908  0.3750824751567000
  0.8812264714038274  0.5602074181606908  0.3750824751567000
  0.9062264714038273  0.5602074181606908  0.3750824751567000
  0.9312264714038272  0.5602074181606908  0.3750824751567000
  0.9562264714038273  0.5602074181606908  0.3750824751567000
  0.9812264714038272  0.5602074181606908  0.3750824751567000
  0.0062264714038273  0.5852074181606908  0.3750824751567000
  0.0312264714038273  0.5852074181606908  0.3750824751567000
  0.0562264714038273  0.5852074181606908  0.3750824751567000
  0.0812264714038273  0.5852074181606908  0.3750824751567000
  0.1062264714038273  0.5852074181606908  0.3750824751567000
  0.1312264714038273  0.5852074181606908  0.3750824751567000
  0.1562264714038273  0.5852074181606908  0.3750824751567000
  0.1812264714038272  0.5852074181606908  0.3750824751567000
  0.2062264714038273  0.5852074181606908  0.3750824751567000
  0.2312264714038273  0.5852074181606908  0.3750824751567000
  0.2562264714038272  0.5852074181606908  0.3750824751567000
  0.2812264714038272  0.5852074181606908  0.3750824751567000
  0.3062264714038272  0.5852074181606908  0.3750824751567000
  0.3312264714038274  0.5852074181606908  0.3750824751567000
  0.3562264714038272  0.5852074181606908  0.3750824751567000
  0.3812264714038272  0.5852074181606908  0.3750824751567000
  0.4062264714038273  0.5852074181606908  0.3750824751567000
  0.4312264714038274  0.5852074181606908  0.3750824751567000
  0.4562264714038273  0.5852074181606908  0.3750824751567000
  0.4812264714038273  0.5852074181606908  0.3750824751567000
  0.5062264714038274  0.5852074181606908  0.3750824751567000
  0.5312264714038274  0.5852074181606908  0.3750824751567000
  0.5562264714038274  0.5852074181606908  0.3750824751567000
  0.5812264714038274  0.5852074181606908  0.3750824751567000
  0.6062264714038275  0.5852074181606908  0.3750824751567000
  0.6312264714038274  0.5852074181606908  0.3750824751567000
  0.6562264714038273  0.5852074181606908  0.3750824751567000
  0.6812264714038274  0.5852074181606908  0.3750824751567000
  0.7062264714038273  0.5852074181606908  0.3750824751567000
  0.7312264714038273  0.5852074181606908  0.3750824751567000
  0.7562264714038275  0.5852074181606908  0.3750824751567000
  0.7812264714038274  0.5852074181606908  0.3750824751567000
  0.8062264714038273  0.5852074181606908  0.3750824751567000
  0.8312264714038274  0.5852074181606908  0.3750824751567000
  0.8562264714038276  0.5852074181606908  0.3750824751567000
  0.8812264714038273  0.5852074181606908  0.3750824751567000
  0.9062264714038272  0.5852074181606908  0.3750824751567000
  0.9312264714038273  0.5852074181606908  0.3750824751567000
  0.9562264714038274  0.5852074181606908  0.3750824751567000
  0.9812264714038273  0.5852074181606908  0.3750824751567000
  0.0062264714038273  0.6102074181606909  0.3750824751567000
  0.0312264714038273  0.6102074181606909  0.3750824751567000
  0.0562264714038273  0.6102074181606909  0.3750824751567000
  0.0812264714038272  0.6102074181606909  0.3750824751567000
  0.1062264714038273  0.6102074181606909  0.3750824751567000
  0.1312264714038272  0.6102074181606909  0.3750824751567000
  0.1562264714038273  0.6102074181606909  0.3750824751567000
  0.1812264714038272  0.6102074181606909  0.3750824751567000
  0.2062264714038272  0.6102074181606909  0.3750824751567000
  0.2312264714038272  0.6102074181606909  0.3750824751567000
  0.2562264714038273  0.6102074181606909  0.3750824751567000
  0.2812264714038273  0.6102074181606909  0.3750824751567000
  0.3062264714038272  0.6102074181606909  0.3750824751567000
  0.3312264714038273  0.6102074181606909  0.3750824751567000
  0.3562264714038272  0.6102074181606909  0.3750824751567000
  0.3812264714038273  0.6102074181606909  0.3750824751567000
  0.4062264714038273  0.6102074181606909  0.3750824751567000
  0.4312264714038273  0.6102074181606909  0.3750824751567000
  0.4562264714038273  0.6102074181606909  0.3750824751567000
  0.4812264714038272  0.6102074181606909  0.3750824751567000
  0.5062264714038273  0.6102074181606909  0.3750824751567000
  0.5312264714038273  0.6102074181606909  0.3750824751567000
  0.5562264714038274  0.6102074181606909  0.3750824751567000
  0.5812264714038273  0.6102074181606909  0.3750824751567000
  0.6062264714038273  0.6102074181606909  0.3750824751567000
  0.6312264714038273  0.6102074181606909  0.3750824751567000
  0.6562264714038274  0.6102074181606909  0.3750824751567000
  0.6812264714038272  0.6102074181606909  0.3750824751567000
  0.7062264714038274  0.6102074181606909  0.3750824751567000
  0.7312264714038271  0.6102074181606909  0.3750824751567000
  0.7562264714038273  0.6102074181606909  0.3750824751567000
  0.7812264714038272  0.6102074181606909  0.3750824751567000
  0.8062264714038273  0.6102074181606909  0.3750824751567000
  0.8312264714038272  0.6102074181606909  0.3750824751567000
  0.8562264714038273  0.6102074181606909  0.3750824751567000
  0.8812264714038275  0.6102074181606909  0.3750824751567000
  0.9062264714038274  0.6102074181606909  0.3750824751567000
  0.9312264714038271  0.6102074181606909  0.3750824751567000
  0.9562264714038272  0.6102074181606909  0.3750824751567000
  0.9812264714038271  0.6102074181606909  0.3750824751567000
  0.0062264714038272  0.6352074181606909  0.3750824751567000
  0.0312264714038273  0.6352074181606909  0.3750824751567000
  0.0562264714038272  0.6352074181606909  0.3750824751567000
  0.0812264714038273  0.6352074181606909  0.3750824751567000
  0.1062264714038273  0.6352074181606909  0.3750824751567000
  0.1312264714038273  0.6352074181606909  0.3750824751567000
  0.1562264714038273  0.6352074181606909  0.3750824751567000
  0.1812264714038273  0.6352074181606909  0.3750824751567000
  0.2062264714038272  0.6352074181606909  0.3750824751567000
  0.2312264714038272  0.6352074181606909  0.3750824751567000
  0.2562264714038273  0.6352074181606909  0.3750824751567000
  0.2812264714038272  0.6352074181606909  0.3750824751567000
  0.3062264714038274  0.6352074181606909  0.3750824751567000
  0.3312264714038273  0.6352074181606909  0.3750824751567000
  0.3562264714038273  0.6352074181606909  0.3750824751567000
  0.3812264714038273  0.6352074181606909  0.3750824751567000
  0.4062264714038273  0.6352074181606909  0.3750824751567000
  0.4312264714038274  0.6352074181606909  0.3750824751567000
  0.4562264714038274  0.6352074181606909  0.3750824751567000
  0.4812264714038273  0.6352074181606909  0.3750824751567000
  0.5062264714038273  0.6352074181606909  0.3750824751567000
  0.5312264714038272  0.6352074181606909  0.3750824751567000
  0.5562264714038273  0.6352074181606909  0.3750824751567000
  0.5812264714038273  0.6352074181606909  0.3750824751567000
  0.6062264714038272  0.6352074181606909  0.3750824751567000
  0.6312264714038273  0.6352074181606909  0.3750824751567000
  0.6562264714038274  0.6352074181606909  0.3750824751567000
  0.6812264714038273  0.6352074181606909  0.3750824751567000
  0.7062264714038274  0.6352074181606909  0.3750824751567000
  0.7312264714038273  0.6352074181606909  0.3750824751567000
  0.7562264714038273  0.6352074181606909  0.3750824751567000
  0.7812264714038272  0.6352074181606909  0.3750824751567000
  0.8062264714038273  0.6352074181606909  0.3750824751567000
  0.8312264714038272  0.6352074181606909  0.3750824751567000
  0.8562264714038273  0.6352074181606909  0.3750824751567000
  0.8812264714038275  0.6352074181606909  0.3750824751567000
  0.9062264714038274  0.6352074181606909  0.3750824751567000
  0.9312264714038273  0.6352074181606909  0.3750824751567000
  0.9562264714038272  0.6352074181606909  0.3750824751567000
  0.9812264714038271  0.6352074181606909  0.3750824751567000
  0.0062264714038273  0.6602074181606907  0.3750824751567000
  0.0312264714038273  0.6602074181606907  0.3750824751567000
  0.0562264714038273  0.6602074181606907  0.3750824751567000
  0.0812264714038273  0.6602074181606907  0.3750824751567000
  0.1062264714038273  0.6602074181606907  0.3750824751567000
  0.1312264714038273  0.6602074181606907  0.3750824751567000
  0.1562264714038273  0.6602074181606907  0.3750824751567000
  0.1812264714038272  0.6602074181606907  0.3750824751567000
  0.2062264714038273  0.6602074181606907  0.3750824751567000
  0.2312264714038273  0.6602074181606907  0.3750824751567000
  0.2562264714038273  0.6602074181606907  0.3750824751567000
  0.2812264714038272  0.6602074181606907  0.3750824751567000
  0.3062264714038272  0.6602074181606907  0.3750824751567000
  0.3312264714038274  0.6602074181606907  0.3750824751567000
  0.3562264714038273  0.6602074181606907  0.3750824751567000
  0.3812264714038272  0.6602074181606907  0.3750824751567000
  0.4062264714038273  0.6602074181606907  0.3750824751567000
  0.4312264714038274  0.6602074181606907  0.3750824751567000
  0.4562264714038273  0.6602074181606907  0.3750824751567000
  0.4812264714038273  0.6602074181606907  0.3750824751567000
  0.5062264714038273  0.6602074181606907  0.3750824751567000
  0.5312264714038273  0.6602074181606907  0.3750824751567000
  0.5562264714038273  0.6602074181606907  0.3750824751567000
  0.5812264714038273  0.6602074181606907  0.3750824751567000
  0.6062264714038273  0.6602074181606907  0.3750824751567000
  0.6312264714038273  0.6602074181606907  0.3750824751567000
  0.6562264714038273  0.6602074181606907  0.3750824751567000
  0.6812264714038272  0.6602074181606907  0.3750824751567000
  0.7062264714038273  0.6602074181606907  0.3750824751567000
  0.7312264714038272  0.6602074181606907  0.3750824751567000
  0.7562264714038274  0.6602074181606907  0.3750824751567000
  0.7812264714038273  0.6602074181606907  0.3750824751567000
  0.8062264714038272  0.6602074181606907  0.3750824751567000
  0.8312264714038271  0.6602074181606907  0.3750824751567000
  0.8562264714038272  0.6602074181606907  0.3750824751567000
  0.8812264714038274  0.6602074181606907  0.3750824751567000
  0.9062264714038273  0.6602074181606907  0.3750824751567000
  0.9312264714038272  0.6602074181606907  0.3750824751567000
  0.9562264714038273  0.6602074181606907  0.3750824751567000
  0.9812264714038272  0.6602074181606907  0.3750824751567000
  0.0062264714038273  0.6852074181606908  0.3750824751567000
  0.0312264714038273  0.6852074181606908  0.3750824751567000
  0.0562264714038273  0.6852074181606908  0.3750824751567000
  0.0812264714038273  0.6852074181606908  0.3750824751567000
  0.1062264714038273  0.6852074181606908  0.3750824751567000
  0.1312264714038273  0.6852074181606908  0.3750824751567000
  0.1562264714038273  0.6852074181606908  0.3750824751567000
  0.1812264714038273  0.6852074181606908  0.3750824751567000
  0.2062264714038272  0.6852074181606908  0.3750824751567000
  0.2312264714038272  0.6852074181606908  0.3750824751567000
  0.2562264714038273  0.6852074181606908  0.3750824751567000
  0.2812264714038273  0.6852074181606908  0.3750824751567000
  0.3062264714038272  0.6852074181606908  0.3750824751567000
  0.3312264714038273  0.6852074181606908  0.3750824751567000
  0.3562264714038272  0.6852074181606908  0.3750824751567000
  0.3812264714038273  0.6852074181606908  0.3750824751567000
  0.4062264714038273  0.6852074181606908  0.3750824751567000
  0.4312264714038273  0.6852074181606908  0.3750824751567000
  0.4562264714038273  0.6852074181606908  0.3750824751567000
  0.4812264714038273  0.6852074181606908  0.3750824751567000
  0.5062264714038273  0.6852074181606908  0.3750824751567000
  0.5312264714038273  0.6852074181606908  0.3750824751567000
  0.5562264714038274  0.6852074181606908  0.3750824751567000
  0.5812264714038274  0.6852074181606908  0.3750824751567000
  0.6062264714038272  0.6852074181606908  0.3750824751567000
  0.6312264714038274  0.6852074181606908  0.3750824751567000
  0.6562264714038273  0.6852074181606908  0.3750824751567000
  0.6812264714038273  0.6852074181606908  0.3750824751567000
  0.7062264714038272  0.6852074181606908  0.3750824751567000
  0.7312264714038273  0.6852074181606908  0.3750824751567000
  0.7562264714038275  0.6852074181606908  0.3750824751567000
  0.7812264714038274  0.6852074181606908  0.3750824751567000
  0.8062264714038273  0.6852074181606908  0.3750824751567000
  0.8312264714038274  0.6852074181606908  0.3750824751567000
  0.8562264714038273  0.6852074181606908  0.3750824751567000
  0.8812264714038273  0.6852074181606908  0.3750824751567000
  0.9062264714038272  0.6852074181606908  0.3750824751567000
  0.9312264714038273  0.6852074181606908  0.3750824751567000
  0.9562264714038274  0.6852074181606908  0.3750824751567000
  0.9812264714038273  0.6852074181606908  0.3750824751567000
  0.0062264714038273  0.7102074181606908  0.3750824751567000
  0.0312264714038273  0.7102074181606908  0.3750824751567000
  0.0562264714038273  0.7102074181606908  0.3750824751567000
  0.0812264714038273  0.7102074181606908  0.3750824751567000
  0.1062264714038273  0.7102074181606908  0.3750824751567000
  0.1312264714038273  0.7102074181606908  0.3750824751567000
  0.1562264714038273  0.7102074181606908  0.3750824751567000
  0.1812264714038274  0.7102074181606908  0.3750824751567000
  0.2062264714038273  0.7102074181606908  0.3750824751567000
  0.2312264714038273  0.7102074181606908  0.3750824751567000
  0.2562264714038273  0.7102074181606908  0.3750824751567000
  0.2812264714038272  0.7102074181606908  0.3750824751567000
  0.3062264714038274  0.7102074181606908  0.3750824751567000
  0.3312264714038274  0.7102074181606908  0.3750824751567000
  0.3562264714038273  0.7102074181606908  0.3750824751567000
  0.3812264714038273  0.7102074181606908  0.3750824751567000
  0.4062264714038273  0.7102074181606908  0.3750824751567000
  0.4312264714038274  0.7102074181606908  0.3750824751567000
  0.4562264714038274  0.7102074181606908  0.3750824751567000
  0.4812264714038273  0.7102074181606908  0.3750824751567000
  0.5062264714038274  0.7102074181606908  0.3750824751567000
  0.5312264714038273  0.7102074181606908  0.3750824751567000
  0.5562264714038274  0.7102074181606908  0.3750824751567000
  0.5812264714038275  0.7102074181606908  0.3750824751567000
  0.6062264714038275  0.7102074181606908  0.3750824751567000
  0.6312264714038275  0.7102074181606908  0.3750824751567000
  0.6562264714038275  0.7102074181606908  0.3750824751567000
  0.6812264714038274  0.7102074181606908  0.3750824751567000
  0.7062264714038273  0.7102074181606908  0.3750824751567000
  0.7312264714038275  0.7102074181606908  0.3750824751567000
  0.7562264714038276  0.7102074181606908  0.3750824751567000
  0.7812264714038275  0.7102074181606908  0.3750824751567000
  0.8062264714038274  0.7102074181606908  0.3750824751567000
  0.8312264714038275  0.7102074181606908  0.3750824751567000
  0.8562264714038275  0.7102074181606908  0.3750824751567000
  0.8812264714038274  0.7102074181606908  0.3750824751567000
  0.9062264714038273  0.7102074181606908  0.3750824751567000
  0.9312264714038274  0.7102074181606908  0.3750824751567000
  0.9562264714038275  0.7102074181606908  0.3750824751567000
  0.9812264714038275  0.7102074181606908  0.3750824751567000
  0.0062264714038273  0.7352074181606908  0.3750824751567000
  0.0312264714038273  0.7352074181606908  0.3750824751567000
  0.0562264714038273  0.7352074181606908  0.3750824751567000
  0.0812264714038273  0.7352074181606908  0.3750824751567000
  0.1062264714038273  0.7352074181606908  0.3750824751567000
  0.1312264714038273  0.7352074181606908  0.3750824751567000
  0.1562264714038274  0.7352074181606908  0.3750824751567000
  0.1812264714038273  0.7352074181606908  0.3750824751567000
  0.2062264714038272  0.7352074181606908  0.3750824751567000
  0.2312264714038272  0.7352074181606908  0.3750824751567000
  0.2562264714038274  0.7352074181606908  0.3750824751567000
  0.2812264714038272  0.7352074181606908  0.3750824751567000
  0.3062264714038273  0.7352074181606908  0.3750824751567000
  0.3312264714038273  0.7352074181606908  0.3750824751567000
  0.3562264714038273  0.7352074181606908  0.3750824751567000
  0.3812264714038273  0.7352074181606908  0.3750824751567000
  0.4062264714038273  0.7352074181606908  0.3750824751567000
  0.4312264714038274  0.7352074181606908  0.3750824751567000
  0.4562264714038274  0.7352074181606908  0.3750824751567000
  0.4812264714038272  0.7352074181606908  0.3750824751567000
  0.5062264714038273  0.7352074181606908  0.3750824751567000
  0.5312264714038273  0.7352074181606908  0.3750824751567000
  0.5562264714038274  0.7352074181606908  0.3750824751567000
  0.5812264714038273  0.7352074181606908  0.3750824751567000
  0.6062264714038275  0.7352074181606908  0.3750824751567000
  0.6312264714038274  0.7352074181606908  0.3750824751567000
  0.6562264714038275  0.7352074181606908  0.3750824751567000
  0.6812264714038274  0.7352074181606908  0.3750824751567000
  0.7062264714038273  0.7352074181606908  0.3750824751567000
  0.7312264714038272  0.7352074181606908  0.3750824751567000
  0.7562264714038274  0.7352074181606908  0.3750824751567000
  0.7812264714038273  0.7352074181606908  0.3750824751567000
  0.8062264714038274  0.7352074181606908  0.3750824751567000
  0.8312264714038273  0.7352074181606908  0.3750824751567000
  0.8562264714038275  0.7352074181606908  0.3750824751567000
  0.8812264714038276  0.7352074181606908  0.3750824751567000
  0.9062264714038273  0.7352074181606908  0.3750824751567000
  0.9312264714038272  0.7352074181606908  0.3750824751567000
  0.9562264714038273  0.7352074181606908  0.3750824751567000
  0.9812264714038272  0.7352074181606908  0.3750824751567000
  0.0062264714038273  0.7602074181606908  0.3750824751567000
  0.0312264714038274  0.7602074181606908  0.3750824751567000
  0.0562264714038273  0.7602074181606908  0.3750824751567000
  0.0812264714038273  0.7602074181606908  0.3750824751567000
  0.1062264714038274  0.7602074181606908  0.3750824751567000
  0.1312264714038273  0.7602074181606908  0.3750824751567000
  0.1562264714038273  0.7602074181606908  0.3750824751567000
  0.1812264714038274  0.7602074181606908  0.3750824751567000
  0.2062264714038274  0.7602074181606908  0.3750824751567000
  0.2312264714038273  0.7602074181606908  0.3750824751567000
  0.2562264714038273  0.7602074181606908  0.3750824751567000
  0.2812264714038272  0.7602074181606908  0.3750824751567000
  0.3062264714038274  0.7602074181606908  0.3750824751567000
  0.3312264714038273  0.7602074181606908  0.3750824751567000
  0.3562264714038273  0.7602074181606908  0.3750824751567000
  0.3812264714038273  0.7602074181606908  0.3750824751567000
  0.4062264714038273  0.7602074181606908  0.3750824751567000
  0.4312264714038274  0.7602074181606908  0.3750824751567000
  0.4562264714038274  0.7602074181606908  0.3750824751567000
  0.4812264714038273  0.7602074181606908  0.3750824751567000
  0.5062264714038274  0.7602074181606908  0.3750824751567000
  0.5312264714038273  0.7602074181606908  0.3750824751567000
  0.5562264714038274  0.7602074181606908  0.3750824751567000
  0.5812264714038275  0.7602074181606908  0.3750824751567000
  0.6062264714038273  0.7602074181606908  0.3750824751567000
  0.6312264714038275  0.7602074181606908  0.3750824751567000
  0.6562264714038274  0.7602074181606908  0.3750824751567000
  0.6812264714038275  0.7602074181606908  0.3750824751567000
  0.7062264714038274  0.7602074181606908  0.3750824751567000
  0.7312264714038276  0.7602074181606908  0.3750824751567000
  0.7562264714038275  0.7602074181606908  0.3750824751567000
  0.7812264714038274  0.7602074181606908  0.3750824751567000
  0.8062264714038273  0.7602074181606908  0.3750824751567000
  0.8312264714038274  0.7602074181606908  0.3750824751567000
  0.8562264714038276  0.7602074181606908  0.3750824751567000
  0.8812264714038275  0.7602074181606908  0.3750824751567000
  0.9062264714038274  0.7602074181606908  0.3750824751567000
  0.9312264714038275  0.7602074181606908  0.3750824751567000
  0.9562264714038274  0.7602074181606908  0.3750824751567000
  0.9812264714038273  0.7602074181606908  0.3750824751567000
  0.0062264714038273  0.7852074181606908  0.3750824751567000
  0.0312264714038273  0.7852074181606908  0.3750824751567000
  0.0562264714038273  0.7852074181606908  0.3750824751567000
  0.0812264714038273  0.7852074181606908  0.3750824751567000
  0.1062264714038273  0.7852074181606908  0.3750824751567000
  0.1312264714038273  0.7852074181606908  0.3750824751567000
  0.1562264714038273  0.7852074181606908  0.3750824751567000
  0.1812264714038273  0.7852074181606908  0.3750824751567000
  0.2062264714038272  0.7852074181606908  0.3750824751567000
  0.2312264714038273  0.7852074181606908  0.3750824751567000
  0.2562264714038273  0.7852074181606908  0.3750824751567000
  0.2812264714038272  0.7852074181606908  0.3750824751567000
  0.3062264714038273  0.7852074181606908  0.3750824751567000
  0.3312264714038273  0.7852074181606908  0.3750824751567000
  0.3562264714038272  0.7852074181606908  0.3750824751567000
  0.3812264714038273  0.7852074181606908  0.3750824751567000
  0.4062264714038273  0.7852074181606908  0.3750824751567000
  0.4312264714038274  0.7852074181606908  0.3750824751567000
  0.4562264714038273  0.7852074181606908  0.3750824751567000
  0.4812264714038272  0.7852074181606908  0.3750824751567000
  0.5062264714038273  0.7852074181606908  0.3750824751567000
  0.5312264714038273  0.7852074181606908  0.3750824751567000
  0.5562264714038274  0.7852074181606908  0.3750824751567000
  0.5812264714038273  0.7852074181606908  0.3750824751567000
  0.6062264714038275  0.7852074181606908  0.3750824751567000
  0.6312264714038273  0.7852074181606908  0.3750824751567000
  0.6562264714038274  0.7852074181606908  0.3750824751567000
  0.6812264714038273  0.7852074181606908  0.3750824751567000
  0.7062264714038274  0.7852074181606908  0.3750824751567000
  0.7312264714038273  0.7852074181606908  0.3750824751567000
  0.7562264714038275  0.7852074181606908  0.3750824751567000
  0.7812264714038274  0.7852074181606908  0.3750824751567000
  0.8062264714038273  0.7852074181606908  0.3750824751567000
  0.8312264714038272  0.7852074181606908  0.3750824751567000
  0.8562264714038273  0.7852074181606908  0.3750824751567000
  0.8812264714038275  0.7852074181606908  0.3750824751567000
  0.9062264714038274  0.7852074181606908  0.3750824751567000
  0.9312264714038273  0.7852074181606908  0.3750824751567000
  0.9562264714038274  0.7852074181606908  0.3750824751567000
  0.9812264714038273  0.7852074181606908  0.3750824751567000
  0.0062264714038273  0.8102074181606909  0.3750824751567000
  0.0312264714038273  0.8102074181606909  0.3750824751567000
  0.0562264714038273  0.8102074181606909  0.3750824751567000
  0.0812264714038272  0.8102074181606909  0.3750824751567000
  0.1062264714038272  0.8102074181606909  0.3750824751567000
  0.1312264714038272  0.8102074181606909  0.3750824751567000
  0.1562264714038274  0.8102074181606909  0.3750824751567000
  0.1812264714038274  0.8102074181606909  0.3750824751567000
  0.2062264714038272  0.8102074181606909  0.3750824751567000
  0.2312264714038272  0.8102074181606909  0.3750824751567000
  0.2562264714038273  0.8102074181606909  0.3750824751567000
  0.2812264714038272  0.8102074181606909  0.3750824751567000
  0.3062264714038272  0.8102074181606909  0.3750824751567000
  0.3312264714038273  0.8102074181606909  0.3750824751567000
  0.3562264714038273  0.8102074181606909  0.3750824751567000
  0.3812264714038273  0.8102074181606909  0.3750824751567000
  0.4062264714038272  0.8102074181606909  0.3750824751567000
  0.4312264714038274  0.8102074181606909  0.3750824751567000
  0.4562264714038274  0.8102074181606909  0.3750824751567000
  0.4812264714038273  0.8102074181606909  0.3750824751567000
  0.5062264714038273  0.8102074181606909  0.3750824751567000
  0.5312264714038273  0.8102074181606909  0.3750824751567000
  0.5562264714038274  0.8102074181606909  0.3750824751567000
  0.5812264714038274  0.8102074181606909  0.3750824751567000
  0.6062264714038275  0.8102074181606909  0.3750824751567000
  0.6312264714038274  0.8102074181606909  0.3750824751567000
  0.6562264714038273  0.8102074181606909  0.3750824751567000
  0.6812264714038274  0.8102074181606909  0.3750824751567000
  0.7062264714038273  0.8102074181606909  0.3750824751567000
  0.7312264714038275  0.8102074181606909  0.3750824751567000
  0.7562264714038276  0.8102074181606909  0.3750824751567000
  0.7812264714038275  0.8102074181606909  0.3750824751567000
  0.8062264714038274  0.8102074181606909  0.3750824751567000
  0.8312264714038273  0.8102074181606909  0.3750824751567000
  0.8562264714038275  0.8102074181606909  0.3750824751567000
  0.8812264714038274  0.8102074181606909  0.3750824751567000
  0.9062264714038273  0.8102074181606909  0.3750824751567000
  0.9312264714038274  0.8102074181606909  0.3750824751567000
  0.9562264714038275  0.8102074181606909  0.3750824751567000
  0.9812264714038275  0.8102074181606909  0.3750824751567000
  0.0062264714038273  0.8352074181606908  0.3750824751567000
  0.0312264714038273  0.8352074181606908  0.3750824751567000
  0.0562264714038273  0.8352074181606908  0.3750824751567000
  0.0812264714038272  0.8352074181606908  0.3750824751567000
  0.1062264714038274  0.8352074181606908  0.3750824751567000
  0.1312264714038273  0.8352074181606908  0.3750824751567000
  0.1562264714038273  0.8352074181606908  0.3750824751567000
  0.1812264714038273  0.8352074181606908  0.3750824751567000
  0.2062264714038274  0.8352074181606908  0.3750824751567000
  0.2312264714038273  0.8352074181606908  0.3750824751567000
  0.2562264714038273  0.8352074181606908  0.3750824751567000
  0.2812264714038272  0.8352074181606908  0.3750824751567000
  0.3062264714038274  0.8352074181606908  0.3750824751567000
  0.3312264714038273  0.8352074181606908  0.3750824751567000
  0.3562264714038273  0.8352074181606908  0.3750824751567000
  0.3812264714038273  0.8352074181606908  0.3750824751567000
  0.4062264714038273  0.8352074181606908  0.3750824751567000
  0.4312264714038274  0.8352074181606908  0.3750824751567000
  0.4562264714038274  0.8352074181606908  0.3750824751567000
  0.4812264714038273  0.8352074181606908  0.3750824751567000
  0.5062264714038273  0.8352074181606908  0.3750824751567000
  0.5312264714038273  0.8352074181606908  0.3750824751567000
  0.5562264714038274  0.8352074181606908  0.3750824751567000
  0.5812264714038273  0.8352074181606908  0.3750824751567000
  0.6062264714038275  0.8352074181606908  0.3750824751567000
  0.6312264714038274  0.8352074181606908  0.3750824751567000
  0.6562264714038275  0.8352074181606908  0.3750824751567000
  0.6812264714038272  0.8352074181606908  0.3750824751567000
  0.7062264714038273  0.8352074181606908  0.3750824751567000
  0.7312264714038272  0.8352074181606908  0.3750824751567000
  0.7562264714038274  0.8352074181606908  0.3750824751567000
  0.7812264714038273  0.8352074181606908  0.3750824751567000
  0.8062264714038274  0.8352074181606908  0.3750824751567000
  0.8312264714038273  0.8352074181606908  0.3750824751567000
  0.8562264714038275  0.8352074181606908  0.3750824751567000
  0.8812264714038274  0.8352074181606908  0.3750824751567000
  0.9062264714038273  0.8352074181606908  0.3750824751567000
  0.9312264714038272  0.8352074181606908  0.3750824751567000
  0.9562264714038273  0.8352074181606908  0.3750824751567000
  0.9812264714038272  0.8352074181606908  0.3750824751567000
  0.0062264714038273  0.8602074181606908  0.3750824751567000
  0.0312264714038273  0.8602074181606908  0.3750824751567000
  0.0562264714038272  0.8602074181606908  0.3750824751567000
  0.0812264714038273  0.8602074181606908  0.3750824751567000
  0.1062264714038273  0.8602074181606908  0.3750824751567000
  0.1312264714038273  0.8602074181606908  0.3750824751567000
  0.1562264714038274  0.8602074181606908  0.3750824751567000
  0.1812264714038273  0.8602074181606908  0.3750824751567000
  0.2062264714038273  0.8602074181606908  0.3750824751567000
  0.2312264714038273  0.8602074181606908  0.3750824751567000
  0.2562264714038274  0.8602074181606908  0.3750824751567000
  0.2812264714038272  0.8602074181606908  0.3750824751567000
  0.3062264714038273  0.8602074181606908  0.3750824751567000
  0.3312264714038273  0.8602074181606908  0.3750824751567000
  0.3562264714038273  0.8602074181606908  0.3750824751567000
  0.3812264714038273  0.8602074181606908  0.3750824751567000
  0.4062264714038273  0.8602074181606908  0.3750824751567000
  0.4312264714038274  0.8602074181606908  0.3750824751567000
  0.4562264714038274  0.8602074181606908  0.3750824751567000
  0.4812264714038272  0.8602074181606908  0.3750824751567000
  0.5062264714038274  0.8602074181606908  0.3750824751567000
  0.5312264714038273  0.8602074181606908  0.3750824751567000
  0.5562264714038273  0.8602074181606908  0.3750824751567000
  0.5812264714038274  0.8602074181606908  0.3750824751567000
  0.6062264714038273  0.8602074181606908  0.3750824751567000
  0.6312264714038275  0.8602074181606908  0.3750824751567000
  0.6562264714038274  0.8602074181606908  0.3750824751567000
  0.6812264714038275  0.8602074181606908  0.3750824751567000
  0.7062264714038272  0.8602074181606908  0.3750824751567000
  0.7312264714038273  0.8602074181606908  0.3750824751567000
  0.7562264714038275  0.8602074181606908  0.3750824751567000
  0.7812264714038274  0.8602074181606908  0.3750824751567000
  0.8062264714038273  0.8602074181606908  0.3750824751567000
  0.8312264714038274  0.8602074181606908  0.3750824751567000
  0.8562264714038276  0.8602074181606908  0.3750824751567000
  0.8812264714038275  0.8602074181606908  0.3750824751567000
  0.9062264714038272  0.8602074181606908  0.3750824751567000
  0.9312264714038273  0.8602074181606908  0.3750824751567000
  0.9562264714038274  0.8602074181606908  0.3750824751567000
  0.9812264714038273  0.8602074181606908  0.3750824751567000
  0.0062264714038273  0.8852074181606908  0.3750824751567000
  0.0312264714038273  0.8852074181606908  0.3750824751567000
  0.0562264714038273  0.8852074181606908  0.3750824751567000
  0.0812264714038274  0.8852074181606908  0.3750824751567000
  0.1062264714038273  0.8852074181606908  0.3750824751567000
  0.1312264714038273  0.8852074181606908  0.3750824751567000
  0.1562264714038273  0.8852074181606908  0.3750824751567000
  0.1812264714038273  0.8852074181606908  0.3750824751567000
  0.2062264714038272  0.8852074181606908  0.3750824751567000
  0.2312264714038273  0.8852074181606908  0.3750824751567000
  0.2562264714038273  0.8852074181606908  0.3750824751567000
  0.2812264714038273  0.8852074181606908  0.3750824751567000
  0.3062264714038272  0.8852074181606908  0.3750824751567000
  0.3312264714038274  0.8852074181606908  0.3750824751567000
  0.3562264714038273  0.8852074181606908  0.3750824751567000
  0.3812264714038273  0.8852074181606908  0.3750824751567000
  0.4062264714038273  0.8852074181606908  0.3750824751567000
  0.4312264714038274  0.8852074181606908  0.3750824751567000
  0.4562264714038274  0.8852074181606908  0.3750824751567000
  0.4812264714038274  0.8852074181606908  0.3750824751567000
  0.5062264714038271  0.8852074181606908  0.3750824751567000
  0.5312264714038273  0.8852074181606908  0.3750824751567000
  0.5562264714038274  0.8852074181606908  0.3750824751567000
  0.5812264714038272  0.8852074181606908  0.3750824751567000
  0.6062264714038273  0.8852074181606908  0.3750824751567000
  0.6312264714038273  0.8852074181606908  0.3750824751567000
  0.6562264714038274  0.8852074181606908  0.3750824751567000
  0.6812264714038273  0.8852074181606908  0.3750824751567000
  0.7062264714038274  0.8852074181606908  0.3750824751567000
  0.7312264714038273  0.8852074181606908  0.3750824751567000
  0.7562264714038273  0.8852074181606908  0.3750824751567000
  0.7812264714038272  0.8852074181606908  0.3750824751567000
  0.8062264714038273  0.8852074181606908  0.3750824751567000
  0.8312264714038272  0.8852074181606908  0.3750824751567000
  0.8562264714038273  0.8852074181606908  0.3750824751567000
  0.8812264714038275  0.8852074181606908  0.3750824751567000
  0.9062264714038274  0.8852074181606908  0.3750824751567000
  0.9312264714038273  0.8852074181606908  0.3750824751567000
  0.9562264714038272  0.8852074181606908  0.3750824751567000
  0.9812264714038271  0.8852074181606908  0.3750824751567000
  0.0062264714038272  0.9102074181606908  0.3750824751567000
  0.0312264714038272  0.9102074181606908  0.3750824751567000
  0.0562264714038272  0.9102074181606908  0.3750824751567000
  0.0812264714038272  0.9102074181606908  0.3750824751567000
  0.1062264714038273  0.9102074181606908  0.3750824751567000
  0.1312264714038274  0.9102074181606908  0.3750824751567000
  0.1562264714038273  0.9102074181606908  0.3750824751567000
  0.1812264714038273  0.9102074181606908  0.3750824751567000
  0.2062264714038273  0.9102074181606908  0.3750824751567000
  0.2312264714038273  0.9102074181606908  0.3750824751567000
  0.2562264714038273  0.9102074181606908  0.3750824751567000
  0.2812264714038272  0.9102074181606908  0.3750824751567000
  0.3062264714038273  0.9102074181606908  0.3750824751567000
  0.3312264714038273  0.9102074181606908  0.3750824751567000
  0.3562264714038272  0.9102074181606908  0.3750824751567000
  0.3812264714038273  0.9102074181606908  0.3750824751567000
  0.4062264714038273  0.9102074181606908  0.3750824751567000
  0.4312264714038274  0.9102074181606908  0.3750824751567000
  0.4562264714038273  0.9102074181606908  0.3750824751567000
  0.4812264714038272  0.9102074181606908  0.3750824751567000
  0.5062264714038274  0.9102074181606908  0.3750824751567000
  0.5312264714038273  0.9102074181606908  0.3750824751567000
  0.5562264714038274  0.9102074181606908  0.3750824751567000
  0.5812264714038273  0.9102074181606908  0.3750824751567000
  0.6062264714038272  0.9102074181606908  0.3750824751567000
  0.6312264714038274  0.9102074181606908  0.3750824751567000
  0.6562264714038273  0.9102074181606908  0.3750824751567000
  0.6812264714038274  0.9102074181606908  0.3750824751567000
  0.7062264714038273  0.9102074181606908  0.3750824751567000
  0.7312264714038275  0.9102074181606908  0.3750824751567000
  0.7562264714038276  0.9102074181606908  0.3750824751567000
  0.7812264714038273  0.9102074181606908  0.3750824751567000
  0.8062264714038272  0.9102074181606908  0.3750824751567000
  0.8312264714038273  0.9102074181606908  0.3750824751567000
  0.8562264714038275  0.9102074181606908  0.3750824751567000
  0.8812264714038274  0.9102074181606908  0.3750824751567000
  0.9062264714038273  0.9102074181606908  0.3750824751567000
  0.9312264714038274  0.9102074181606908  0.3750824751567000
  0.9562264714038275  0.9102074181606908  0.3750824751567000
  0.9812264714038272  0.9102074181606908  0.3750824751567000
  0.0062264714038273  0.9352074181606909  0.3750824751567000
  0.0312264714038272  0.9352074181606909  0.3750824751567000
  0.0562264714038272  0.9352074181606909  0.3750824751567000
  0.0812264714038274  0.9352074181606909  0.3750824751567000
  0.1062264714038273  0.9352074181606909  0.3750824751567000
  0.1312264714038273  0.9352074181606909  0.3750824751567000
  0.1562264714038273  0.9352074181606909  0.3750824751567000
  0.1812264714038274  0.9352074181606909  0.3750824751567000
  0.2062264714038273  0.9352074181606909  0.3750824751567000
  0.2312264714038273  0.9352074181606909  0.3750824751567000
  0.2562264714038273  0.9352074181606909  0.3750824751567000
  0.2812264714038272  0.9352074181606909  0.3750824751567000
  0.3062264714038272  0.9352074181606909  0.3750824751567000
  0.3312264714038273  0.9352074181606909  0.3750824751567000
  0.3562264714038273  0.9352074181606909  0.3750824751567000
  0.3812264714038272  0.9352074181606909  0.3750824751567000
  0.4062264714038272  0.9352074181606909  0.3750824751567000
  0.4312264714038274  0.9352074181606909  0.3750824751567000
  0.4562264714038274  0.9352074181606909  0.3750824751567000
  0.4812264714038273  0.9352074181606909  0.3750824751567000
  0.5062264714038271  0.9352074181606909  0.3750824751567000
  0.5312264714038273  0.9352074181606909  0.3750824751567000
  0.5562264714038274  0.9352074181606909  0.3750824751567000
  0.5812264714038273  0.9352074181606909  0.3750824751567000
  0.6062264714038275  0.9352074181606909  0.3750824751567000
  0.6312264714038271  0.9352074181606909  0.3750824751567000
  0.6562264714038273  0.9352074181606909  0.3750824751567000
  0.6812264714038272  0.9352074181606909  0.3750824751567000
  0.7062264714038273  0.9352074181606909  0.3750824751567000
  0.7312264714038272  0.9352074181606909  0.3750824751567000
  0.7562264714038274  0.9352074181606909  0.3750824751567000
  0.7812264714038273  0.9352074181606909  0.3750824751567000
  0.8062264714038274  0.9352074181606909  0.3750824751567000
  0.8312264714038271  0.9352074181606909  0.3750824751567000
  0.8562264714038272  0.9352074181606909  0.3750824751567000
  0.8812264714038274  0.9352074181606909  0.3750824751567000
  0.9062264714038273  0.9352074181606909  0.3750824751567000
  0.9312264714038272  0.9352074181606909  0.3750824751567000
  0.9562264714038273  0.9352074181606909  0.3750824751567000
  0.9812264714038272  0.9352074181606909  0.3750824751567000
  0.0062264714038272  0.9602074181606909  0.3750824751567000
  0.0312264714038273  0.9602074181606909  0.3750824751567000
  0.0562264714038273  0.9602074181606909  0.3750824751567000
  0.0812264714038273  0.9602074181606909  0.3750824751567000
  0.1062264714038273  0.9602074181606909  0.3750824751567000
  0.1312264714038273  0.9602074181606909  0.3750824751567000
  0.1562264714038273  0.9602074181606909  0.3750824751567000
  0.1812264714038273  0.9602074181606909  0.3750824751567000
  0.2062264714038273  0.9602074181606909  0.3750824751567000
  0.2312264714038272  0.9602074181606909  0.3750824751567000
  0.2562264714038273  0.9602074181606909  0.3750824751567000
  0.2812264714038273  0.9602074181606909  0.3750824751567000
  0.3062264714038273  0.9602074181606909  0.3750824751567000
  0.3312264714038273  0.9602074181606909  0.3750824751567000
  0.3562264714038272  0.9602074181606909  0.3750824751567000
  0.3812264714038273  0.9602074181606909  0.3750824751567000
  0.4062264714038274  0.9602074181606909  0.3750824751567000
  0.4312264714038273  0.9602074181606909  0.3750824751567000
  0.4562264714038273  0.9602074181606909  0.3750824751567000
  0.4812264714038272  0.9602074181606909  0.3750824751567000
  0.5062264714038274  0.9602074181606909  0.3750824751567000
  0.5312264714038272  0.9602074181606909  0.3750824751567000
  0.5562264714038273  0.9602074181606909  0.3750824751567000
  0.5812264714038274  0.9602074181606909  0.3750824751567000
  0.6062264714038273  0.9602074181606909  0.3750824751567000
  0.6312264714038275  0.9602074181606909  0.3750824751567000
  0.6562264714038274  0.9602074181606909  0.3750824751567000
  0.6812264714038273  0.9602074181606909  0.3750824751567000
  0.7062264714038272  0.9602074181606909  0.3750824751567000
  0.7312264714038273  0.9602074181606909  0.3750824751567000
  0.7562264714038275  0.9602074181606909  0.3750824751567000
  0.7812264714038274  0.9602074181606909  0.3750824751567000
  0.8062264714038273  0.9602074181606909  0.3750824751567000
  0.8312264714038274  0.9602074181606909  0.3750824751567000
  0.8562264714038273  0.9602074181606909  0.3750824751567000
  0.8812264714038273  0.9602074181606909  0.3750824751567000
  0.9062264714038272  0.9602074181606909  0.3750824751567000
  0.9312264714038273  0.9602074181606909  0.3750824751567000
  0.9562264714038274  0.9602074181606909  0.3750824751567000
  0.9812264714038273  0.9602074181606909  0.3750824751567000
  0.0062264714038273  0.9852074181606909  0.3750824751567000
  0.0312264714038273  0.9852074181606909  0.3750824751567000
  0.0562264714038274  0.9852074181606909  0.3750824751567000
  0.0812264714038273  0.9852074181606909  0.3750824751567000
  0.1062264714038273  0.9852074181606909  0.3750824751567000
  0.1312264714038273  0.9852074181606909  0.3750824751567000
  0.1562264714038273  0.9852074181606909  0.3750824751567000
  0.1812264714038272  0.9852074181606909  0.3750824751567000
  0.2062264714038273  0.9852074181606909  0.3750824751567000
  0.2312264714038273  0.9852074181606909  0.3750824751567000
  0.2562264714038273  0.9852074181606909  0.3750824751567000
  0.2812264714038272  0.9852074181606909  0.3750824751567000
  0.3062264714038272  0.9852074181606909  0.3750824751567000
  0.3312264714038274  0.9852074181606909  0.3750824751567000
  0.3562264714038273  0.9852074181606909  0.3750824751567000
  0.3812264714038272  0.9852074181606909  0.3750824751567000
  0.4062264714038273  0.9852074181606909  0.3750824751567000
  0.4312264714038274  0.9852074181606909  0.3750824751567000
  0.4562264714038274  0.9852074181606909  0.3750824751567000
  0.4812264714038273  0.9852074181606909  0.3750824751567000
  0.5062264714038273  0.9852074181606909  0.3750824751567000
  0.5312264714038273  0.9852074181606909  0.3750824751567000
  0.5562264714038274  0.9852074181606909  0.3750824751567000
  0.5812264714038273  0.9852074181606909  0.3750824751567000
  0.6062264714038275  0.9852074181606909  0.3750824751567000
  0.6312264714038274  0.9852074181606909  0.3750824751567000
  0.6562264714038275  0.9852074181606909  0.3750824751567000
  0.6812264714038274  0.9852074181606909  0.3750824751567000
  0.7062264714038273  0.9852074181606909  0.3750824751567000
  0.7312264714038272  0.9852074181606909  0.3750824751567000
  0.7562264714038274  0.9852074181606909  0.3750824751567000
  0.7812264714038273  0.9852074181606909  0.3750824751567000
  0.8062264714038274  0.9852074181606909  0.3750824751567000
  0.8312264714038273  0.9852074181606909  0.3750824751567000
  0.8562264714038275  0.9852074181606909  0.3750824751567000
  0.8812264714038276  0.9852074181606909  0.3750824751567000
  0.9062264714038273  0.9852074181606909  0.3750824751567000
  0.9312264714038272  0.9852074181606909  0.3750824751567000
  0.9562264714038273  0.9852074181606909  0.3750824751567000
  0.9812264714038272  0.9852074181606909  0.3750824751567000
  0.0136110150351273  0.0199817680197088  0.6249391735401600
  0.0386110150351273  0.0199817680197088  0.6249391735401600
  0.0636110150351273  0.0199817680197088  0.6249391735401600
  0.0886110150351272  0.0199817680197088  0.6249391735401600
  0.1136110150351273  0.0199817680197088  0.6249391735401600
  0.1386110150351273  0.0199817680197088  0.6249391735401600
  0.1636110150351273  0.0199817680197088  0.6249391735401600
  0.1886110150351272  0.0199817680197088  0.6249391735401600
  0.2136110150351272  0.0199817680197088  0.6249391735401600
  0.2386110150351272  0.0199817680197088  0.6249391735401600
  0.2636110150351272  0.0199817680197088  0.6249391735401600
  0.2886110150351273  0.0199817680197088  0.6249391735401600
  0.3136110150351272  0.0199817680197088  0.6249391735401600
  0.3386110150351272  0.0199817680197088  0.6249391735401600
  0.3636110150351273  0.0199817680197088  0.6249391735401600
  0.3886110150351272  0.0199817680197088  0.6249391735401600
  0.4136110150351273  0.0199817680197088  0.6249391735401600
  0.4386110150351272  0.0199817680197088  0.6249391735401600
  0.4636110150351272  0.0199817680197088  0.6249391735401600
  0.4886110150351272  0.0199817680197088  0.6249391735401600
  0.5136110150351273  0.0199817680197088  0.6249391735401600
  0.5386110150351272  0.0199817680197088  0.6249391735401600
  0.5636110150351272  0.0199817680197088  0.6249391735401600
  0.5886110150351272  0.0199817680197088  0.6249391735401600
  0.6136110150351273  0.0199817680197088  0.6249391735401600
  0.6386110150351273  0.0199817680197088  0.6249391735401600
  0.6636110150351273  0.0199817680197088  0.6249391735401600
  0.6886110150351272  0.0199817680197088  0.6249391735401600
  0.7136110150351272  0.0199817680197088  0.6249391735401600
  0.7386110150351273  0.0199817680197088  0.6249391735401600
  0.7636110150351273  0.0199817680197088  0.6249391735401600
  0.7886110150351273  0.0199817680197088  0.6249391735401600
  0.8136110150351273  0.0199817680197088  0.6249391735401600
  0.8386110150351274  0.0199817680197088  0.6249391735401600
  0.8636110150351274  0.0199817680197088  0.6249391735401600
  0.8886110150351274  0.0199817680197088  0.6249391735401600
  0.9136110150351273  0.0199817680197088  0.6249391735401600
  0.9386110150351272  0.0199817680197088  0.6249391735401600
  0.9636110150351274  0.0199817680197088  0.6249391735401600
  0.9886110150351274  0.0199817680197088  0.6249391735401600
  0.0136110150351272  0.0449817680197088  0.6249391735401600
  0.0386110150351272  0.0449817680197088  0.6249391735401600
  0.0636110150351273  0.0449817680197088  0.6249391735401600
  0.0886110150351272  0.0449817680197088  0.6249391735401600
  0.1136110150351273  0.0449817680197088  0.6249391735401600
  0.1386110150351273  0.0449817680197088  0.6249391735401600
  0.1636110150351273  0.0449817680197088  0.6249391735401600
  0.1886110150351273  0.0449817680197088  0.6249391735401600
  0.2136110150351272  0.0449817680197088  0.6249391735401600
  0.2386110150351272  0.0449817680197088  0.6249391735401600
  0.2636110150351272  0.0449817680197088  0.6249391735401600
  0.2886110150351273  0.0449817680197088  0.6249391735401600
  0.3136110150351272  0.0449817680197088  0.6249391735401600
  0.3386110150351272  0.0449817680197088  0.6249391735401600
  0.3636110150351273  0.0449817680197088  0.6249391735401600
  0.3886110150351272  0.0449817680197088  0.6249391735401600
  0.4136110150351273  0.0449817680197088  0.6249391735401600
  0.4386110150351272  0.0449817680197088  0.6249391735401600
  0.4636110150351272  0.0449817680197088  0.6249391735401600
  0.4886110150351272  0.0449817680197088  0.6249391735401600
  0.5136110150351273  0.0449817680197088  0.6249391735401600
  0.5386110150351272  0.0449817680197088  0.6249391735401600
  0.5636110150351271  0.0449817680197088  0.6249391735401600
  0.5886110150351271  0.0449817680197088  0.6249391735401600
  0.6136110150351273  0.0449817680197088  0.6249391735401600
  0.6386110150351272  0.0449817680197088  0.6249391735401600
  0.6636110150351272  0.0449817680197088  0.6249391735401600
  0.6886110150351271  0.0449817680197088  0.6249391735401600
  0.7136110150351272  0.0449817680197088  0.6249391735401600
  0.7386110150351272  0.0449817680197088  0.6249391735401600
  0.7636110150351272  0.0449817680197088  0.6249391735401600
  0.7886110150351272  0.0449817680197088  0.6249391735401600
  0.8136110150351273  0.0449817680197088  0.6249391735401600
  0.8386110150351272  0.0449817680197088  0.6249391735401600
  0.8636110150351273  0.0449817680197088  0.6249391735401600
  0.8886110150351273  0.0449817680197088  0.6249391735401600
  0.9136110150351274  0.0449817680197088  0.6249391735401600
  0.9386110150351272  0.0449817680197088  0.6249391735401600
  0.9636110150351274  0.0449817680197088  0.6249391735401600
  0.9886110150351275  0.0449817680197088  0.6249391735401600
  0.0136110150351273  0.0699817680197087  0.6249391735401600
  0.0386110150351272  0.0699817680197087  0.6249391735401600
  0.0636110150351273  0.0699817680197087  0.6249391735401600
  0.0886110150351272  0.0699817680197087  0.6249391735401600
  0.1136110150351272  0.0699817680197087  0.6249391735401600
  0.1386110150351273  0.0699817680197087  0.6249391735401600
  0.1636110150351273  0.0699817680197087  0.6249391735401600
  0.1886110150351272  0.0699817680197087  0.6249391735401600
  0.2136110150351272  0.0699817680197087  0.6249391735401600
  0.2386110150351272  0.0699817680197087  0.6249391735401600
  0.2636110150351272  0.0699817680197087  0.6249391735401600
  0.2886110150351273  0.0699817680197087  0.6249391735401600
  0.3136110150351272  0.0699817680197087  0.6249391735401600
  0.3386110150351272  0.0699817680197087  0.6249391735401600
  0.3636110150351272  0.0699817680197087  0.6249391735401600
  0.3886110150351272  0.0699817680197087  0.6249391735401600
  0.4136110150351272  0.0699817680197087  0.6249391735401600
  0.4386110150351272  0.0699817680197087  0.6249391735401600
  0.4636110150351272  0.0699817680197087  0.6249391735401600
  0.4886110150351272  0.0699817680197087  0.6249391735401600
  0.5136110150351273  0.0699817680197087  0.6249391735401600
  0.5386110150351272  0.0699817680197087  0.6249391735401600
  0.5636110150351272  0.0699817680197087  0.6249391735401600
  0.5886110150351271  0.0699817680197087  0.6249391735401600
  0.6136110150351273  0.0699817680197087  0.6249391735401600
  0.6386110150351273  0.0699817680197087  0.6249391735401600
  0.6636110150351273  0.0699817680197087  0.6249391735401600
  0.6886110150351271  0.0699817680197087  0.6249391735401600
  0.7136110150351272  0.0699817680197087  0.6249391735401600
  0.7386110150351273  0.0699817680197087  0.6249391735401600
  0.7636110150351273  0.0699817680197087  0.6249391735401600
  0.7886110150351272  0.0699817680197087  0.6249391735401600
  0.8136110150351273  0.0699817680197087  0.6249391735401600
  0.8386110150351274  0.0699817680197087  0.6249391735401600
  0.8636110150351274  0.0699817680197087  0.6249391735401600
  0.8886110150351273  0.0699817680197087  0.6249391735401600
  0.9136110150351273  0.0699817680197087  0.6249391735401600
  0.9386110150351272  0.0699817680197087  0.6249391735401600
  0.9636110150351274  0.0699817680197087  0.6249391735401600
  0.9886110150351274  0.0699817680197087  0.6249391735401600
  0.0136110150351273  0.0949817680197088  0.6249391735401600
  0.0386110150351272  0.0949817680197088  0.6249391735401600
  0.0636110150351273  0.0949817680197088  0.6249391735401600
  0.0886110150351272  0.0949817680197088  0.6249391735401600
  0.1136110150351273  0.0949817680197088  0.6249391735401600
  0.1386110150351273  0.0949817680197088  0.6249391735401600
  0.1636110150351273  0.0949817680197088  0.6249391735401600
  0.1886110150351272  0.0949817680197088  0.6249391735401600
  0.2136110150351272  0.0949817680197088  0.6249391735401600
  0.2386110150351272  0.0949817680197088  0.6249391735401600
  0.2636110150351272  0.0949817680197088  0.6249391735401600
  0.2886110150351273  0.0949817680197088  0.6249391735401600
  0.3136110150351272  0.0949817680197088  0.6249391735401600
  0.3386110150351272  0.0949817680197088  0.6249391735401600
  0.3636110150351272  0.0949817680197088  0.6249391735401600
  0.3886110150351272  0.0949817680197088  0.6249391735401600
  0.4136110150351272  0.0949817680197088  0.6249391735401600
  0.4386110150351272  0.0949817680197088  0.6249391735401600
  0.4636110150351272  0.0949817680197088  0.6249391735401600
  0.4886110150351272  0.0949817680197088  0.6249391735401600
  0.5136110150351274  0.0949817680197088  0.6249391735401600
  0.5386110150351272  0.0949817680197088  0.6249391735401600
  0.5636110150351272  0.0949817680197088  0.6249391735401600
  0.5886110150351272  0.0949817680197088  0.6249391735401600
  0.6136110150351274  0.0949817680197088  0.6249391735401600
  0.6386110150351273  0.0949817680197088  0.6249391735401600
  0.6636110150351273  0.0949817680197088  0.6249391735401600
  0.6886110150351272  0.0949817680197088  0.6249391735401600
  0.7136110150351274  0.0949817680197088  0.6249391735401600
  0.7386110150351273  0.0949817680197088  0.6249391735401600
  0.7636110150351273  0.0949817680197088  0.6249391735401600
  0.7886110150351273  0.0949817680197088  0.6249391735401600
  0.8136110150351273  0.0949817680197088  0.6249391735401600
  0.8386110150351274  0.0949817680197088  0.6249391735401600
  0.8636110150351274  0.0949817680197088  0.6249391735401600
  0.8886110150351274  0.0949817680197088  0.6249391735401600
  0.9136110150351274  0.0949817680197088  0.6249391735401600
  0.9386110150351273  0.0949817680197088  0.6249391735401600
  0.9636110150351274  0.0949817680197088  0.6249391735401600
  0.9886110150351275  0.0949817680197088  0.6249391735401600
  0.0136110150351273  0.1199817680197088  0.6249391735401600
  0.0386110150351272  0.1199817680197088  0.6249391735401600
  0.0636110150351272  0.1199817680197088  0.6249391735401600
  0.0886110150351272  0.1199817680197088  0.6249391735401600
  0.1136110150351273  0.1199817680197088  0.6249391735401600
  0.1386110150351273  0.1199817680197088  0.6249391735401600
  0.1636110150351273  0.1199817680197088  0.6249391735401600
  0.1886110150351272  0.1199817680197088  0.6249391735401600
  0.2136110150351272  0.1199817680197088  0.6249391735401600
  0.2386110150351272  0.1199817680197088  0.6249391735401600
  0.2636110150351272  0.1199817680197088  0.6249391735401600
  0.2886110150351273  0.1199817680197088  0.6249391735401600
  0.3136110150351272  0.1199817680197088  0.6249391735401600
  0.3386110150351272  0.1199817680197088  0.6249391735401600
  0.3636110150351272  0.1199817680197088  0.6249391735401600
  0.3886110150351272  0.1199817680197088  0.6249391735401600
  0.4136110150351272  0.1199817680197088  0.6249391735401600
  0.4386110150351272  0.1199817680197088  0.6249391735401600
  0.4636110150351271  0.1199817680197088  0.6249391735401600
  0.4886110150351272  0.1199817680197088  0.6249391735401600
  0.5136110150351273  0.1199817680197088  0.6249391735401600
  0.5386110150351272  0.1199817680197088  0.6249391735401600
  0.5636110150351271  0.1199817680197088  0.6249391735401600
  0.5886110150351271  0.1199817680197088  0.6249391735401600
  0.6136110150351273  0.1199817680197088  0.6249391735401600
  0.6386110150351273  0.1199817680197088  0.6249391735401600
  0.6636110150351272  0.1199817680197088  0.6249391735401600
  0.6886110150351271  0.1199817680197088  0.6249391735401600
  0.7136110150351272  0.1199817680197088  0.6249391735401600
  0.7386110150351273  0.1199817680197088  0.6249391735401600
  0.7636110150351272  0.1199817680197088  0.6249391735401600
  0.7886110150351272  0.1199817680197088  0.6249391735401600
  0.8136110150351273  0.1199817680197088  0.6249391735401600
  0.8386110150351274  0.1199817680197088  0.6249391735401600
  0.8636110150351273  0.1199817680197088  0.6249391735401600
  0.8886110150351274  0.1199817680197088  0.6249391735401600
  0.9136110150351273  0.1199817680197088  0.6249391735401600
  0.9386110150351272  0.1199817680197088  0.6249391735401600
  0.9636110150351274  0.1199817680197088  0.6249391735401600
  0.9886110150351273  0.1199817680197088  0.6249391735401600
  0.0136110150351273  0.1449817680197087  0.6249391735401600
  0.0386110150351273  0.1449817680197087  0.6249391735401600
  0.0636110150351273  0.1449817680197087  0.6249391735401600
  0.0886110150351273  0.1449817680197087  0.6249391735401600
  0.1136110150351273  0.1449817680197087  0.6249391735401600
  0.1386110150351273  0.1449817680197087  0.6249391735401600
  0.1636110150351273  0.1449817680197087  0.6249391735401600
  0.1886110150351273  0.1449817680197087  0.6249391735401600
  0.2136110150351273  0.1449817680197087  0.6249391735401600
  0.2386110150351272  0.1449817680197087  0.6249391735401600
  0.2636110150351273  0.1449817680197087  0.6249391735401600
  0.2886110150351273  0.1449817680197087  0.6249391735401600
  0.3136110150351273  0.1449817680197087  0.6249391735401600
  0.3386110150351273  0.1449817680197087  0.6249391735401600
  0.3636110150351273  0.1449817680197087  0.6249391735401600
  0.3886110150351273  0.1449817680197087  0.6249391735401600
  0.4136110150351273  0.1449817680197087  0.6249391735401600
  0.4386110150351272  0.1449817680197087  0.6249391735401600
  0.4636110150351272  0.1449817680197087  0.6249391735401600
  0.4886110150351273  0.1449817680197087  0.6249391735401600
  0.5136110150351273  0.1449817680197087  0.6249391735401600
  0.5386110150351272  0.1449817680197087  0.6249391735401600
  0.5636110150351272  0.1449817680197087  0.6249391735401600
  0.5886110150351272  0.1449817680197087  0.6249391735401600
  0.6136110150351273  0.1449817680197087  0.6249391735401600
  0.6386110150351273  0.1449817680197087  0.6249391735401600
  0.6636110150351273  0.1449817680197087  0.6249391735401600
  0.6886110150351272  0.1449817680197087  0.6249391735401600
  0.7136110150351272  0.1449817680197087  0.6249391735401600
  0.7386110150351273  0.1449817680197087  0.6249391735401600
  0.7636110150351273  0.1449817680197087  0.6249391735401600
  0.7886110150351273  0.1449817680197087  0.6249391735401600
  0.8136110150351273  0.1449817680197087  0.6249391735401600
  0.8386110150351274  0.1449817680197087  0.6249391735401600
  0.8636110150351275  0.1449817680197087  0.6249391735401600
  0.8886110150351273  0.1449817680197087  0.6249391735401600
  0.9136110150351274  0.1449817680197087  0.6249391735401600
  0.9386110150351273  0.1449817680197087  0.6249391735401600
  0.9636110150351275  0.1449817680197087  0.6249391735401600
  0.9886110150351276  0.1449817680197087  0.6249391735401600
  0.0136110150351273  0.1699817680197088  0.6249391735401600
  0.0386110150351273  0.1699817680197088  0.6249391735401600
  0.0636110150351272  0.1699817680197088  0.6249391735401600
  0.0886110150351272  0.1699817680197088  0.6249391735401600
  0.1136110150351273  0.1699817680197088  0.6249391735401600
  0.1386110150351273  0.1699817680197088  0.6249391735401600
  0.1636110150351273  0.1699817680197088  0.6249391735401600
  0.1886110150351273  0.1699817680197088  0.6249391735401600
  0.2136110150351273  0.1699817680197088  0.6249391735401600
  0.2386110150351272  0.1699817680197088  0.6249391735401600
  0.2636110150351272  0.1699817680197088  0.6249391735401600
  0.2886110150351273  0.1699817680197088  0.6249391735401600
  0.3136110150351272  0.1699817680197088  0.6249391735401600
  0.3386110150351272  0.1699817680197088  0.6249391735401600
  0.3636110150351272  0.1699817680197088  0.6249391735401600
  0.3886110150351272  0.1699817680197088  0.6249391735401600
  0.4136110150351272  0.1699817680197088  0.6249391735401600
  0.4386110150351272  0.1699817680197088  0.6249391735401600
  0.4636110150351271  0.1699817680197088  0.6249391735401600
  0.4886110150351272  0.1699817680197088  0.6249391735401600
  0.5136110150351273  0.1699817680197088  0.6249391735401600
  0.5386110150351272  0.1699817680197088  0.6249391735401600
  0.5636110150351271  0.1699817680197088  0.6249391735401600
  0.5886110150351271  0.1699817680197088  0.6249391735401600
  0.6136110150351273  0.1699817680197088  0.6249391735401600
  0.6386110150351272  0.1699817680197088  0.6249391735401600
  0.6636110150351272  0.1699817680197088  0.6249391735401600
  0.6886110150351271  0.1699817680197088  0.6249391735401600
  0.7136110150351272  0.1699817680197088  0.6249391735401600
  0.7386110150351272  0.1699817680197088  0.6249391735401600
  0.7636110150351272  0.1699817680197088  0.6249391735401600
  0.7886110150351272  0.1699817680197088  0.6249391735401600
  0.8136110150351273  0.1699817680197088  0.6249391735401600
  0.8386110150351272  0.1699817680197088  0.6249391735401600
  0.8636110150351273  0.1699817680197088  0.6249391735401600
  0.8886110150351274  0.1699817680197088  0.6249391735401600
  0.9136110150351273  0.1699817680197088  0.6249391735401600
  0.9386110150351271  0.1699817680197088  0.6249391735401600
  0.9636110150351272  0.1699817680197088  0.6249391735401600
  0.9886110150351274  0.1699817680197088  0.6249391735401600
  0.0136110150351273  0.1949817680197088  0.6249391735401600
  0.0386110150351273  0.1949817680197088  0.6249391735401600
  0.0636110150351273  0.1949817680197088  0.6249391735401600
  0.0886110150351273  0.1949817680197088  0.6249391735401600
  0.1136110150351273  0.1949817680197088  0.6249391735401600
  0.1386110150351273  0.1949817680197088  0.6249391735401600
  0.1636110150351272  0.1949817680197088  0.6249391735401600
  0.1886110150351273  0.1949817680197088  0.6249391735401600
  0.2136110150351272  0.1949817680197088  0.6249391735401600
  0.2386110150351272  0.1949817680197088  0.6249391735401600
  0.2636110150351272  0.1949817680197088  0.6249391735401600
  0.2886110150351273  0.1949817680197088  0.6249391735401600
  0.3136110150351272  0.1949817680197088  0.6249391735401600
  0.3386110150351273  0.1949817680197088  0.6249391735401600
  0.3636110150351273  0.1949817680197088  0.6249391735401600
  0.3886110150351272  0.1949817680197088  0.6249391735401600
  0.4136110150351272  0.1949817680197088  0.6249391735401600
  0.4386110150351272  0.1949817680197088  0.6249391735401600
  0.4636110150351272  0.1949817680197088  0.6249391735401600
  0.4886110150351272  0.1949817680197088  0.6249391735401600
  0.5136110150351273  0.1949817680197088  0.6249391735401600
  0.5386110150351272  0.1949817680197088  0.6249391735401600
  0.5636110150351272  0.1949817680197088  0.6249391735401600
  0.5886110150351271  0.1949817680197088  0.6249391735401600
  0.6136110150351273  0.1949817680197088  0.6249391735401600
  0.6386110150351273  0.1949817680197088  0.6249391735401600
  0.6636110150351273  0.1949817680197088  0.6249391735401600
  0.6886110150351271  0.1949817680197088  0.6249391735401600
  0.7136110150351272  0.1949817680197088  0.6249391735401600
  0.7386110150351273  0.1949817680197088  0.6249391735401600
  0.7636110150351273  0.1949817680197088  0.6249391735401600
  0.7886110150351272  0.1949817680197088  0.6249391735401600
  0.8136110150351273  0.1949817680197088  0.6249391735401600
  0.8386110150351274  0.1949817680197088  0.6249391735401600
  0.8636110150351274  0.1949817680197088  0.6249391735401600
  0.8886110150351273  0.1949817680197088  0.6249391735401600
  0.9136110150351273  0.1949817680197088  0.6249391735401600
  0.9386110150351272  0.1949817680197088  0.6249391735401600
  0.9636110150351274  0.1949817680197088  0.6249391735401600
  0.9886110150351275  0.1949817680197088  0.6249391735401600
  0.0136110150351273  0.2199817680197088  0.6249391735401600
  0.0386110150351272  0.2199817680197088  0.6249391735401600
  0.0636110150351272  0.2199817680197088  0.6249391735401600
  0.0886110150351272  0.2199817680197088  0.6249391735401600
  0.1136110150351273  0.2199817680197088  0.6249391735401600
  0.1386110150351273  0.2199817680197088  0.6249391735401600
  0.1636110150351273  0.2199817680197088  0.6249391735401600
  0.1886110150351273  0.2199817680197088  0.6249391735401600
  0.2136110150351272  0.2199817680197088  0.6249391735401600
  0.2386110150351273  0.2199817680197088  0.6249391735401600
  0.2636110150351272  0.2199817680197088  0.6249391735401600
  0.2886110150351273  0.2199817680197088  0.6249391735401600
  0.3136110150351272  0.2199817680197088  0.6249391735401600
  0.3386110150351273  0.2199817680197088  0.6249391735401600
  0.3636110150351272  0.2199817680197088  0.6249391735401600
  0.3886110150351272  0.2199817680197088  0.6249391735401600
  0.4136110150351273  0.2199817680197088  0.6249391735401600
  0.4386110150351272  0.2199817680197088  0.6249391735401600
  0.4636110150351272  0.2199817680197088  0.6249391735401600
  0.4886110150351272  0.2199817680197088  0.6249391735401600
  0.5136110150351272  0.2199817680197088  0.6249391735401600
  0.5386110150351271  0.2199817680197088  0.6249391735401600
  0.5636110150351271  0.2199817680197088  0.6249391735401600
  0.5886110150351271  0.2199817680197088  0.6249391735401600
  0.6136110150351272  0.2199817680197088  0.6249391735401600
  0.6386110150351272  0.2199817680197088  0.6249391735401600
  0.6636110150351272  0.2199817680197088  0.6249391735401600
  0.6886110150351271  0.2199817680197088  0.6249391735401600
  0.7136110150351271  0.2199817680197088  0.6249391735401600
  0.7386110150351272  0.2199817680197088  0.6249391735401600
  0.7636110150351272  0.2199817680197088  0.6249391735401600
  0.7886110150351272  0.2199817680197088  0.6249391735401600
  0.8136110150351272  0.2199817680197088  0.6249391735401600
  0.8386110150351274  0.2199817680197088  0.6249391735401600
  0.8636110150351273  0.2199817680197088  0.6249391735401600
  0.8886110150351274  0.2199817680197088  0.6249391735401600
  0.9136110150351273  0.2199817680197088  0.6249391735401600
  0.9386110150351272  0.2199817680197088  0.6249391735401600
  0.9636110150351271  0.2199817680197088  0.6249391735401600
  0.9886110150351273  0.2199817680197088  0.6249391735401600
  0.0136110150351273  0.2449817680197088  0.6249391735401600
  0.0386110150351273  0.2449817680197088  0.6249391735401600
  0.0636110150351273  0.2449817680197088  0.6249391735401600
  0.0886110150351273  0.2449817680197088  0.6249391735401600
  0.1136110150351273  0.2449817680197088  0.6249391735401600
  0.1386110150351272  0.2449817680197088  0.6249391735401600
  0.1636110150351273  0.2449817680197088  0.6249391735401600
  0.1886110150351272  0.2449817680197088  0.6249391735401600
  0.2136110150351272  0.2449817680197088  0.6249391735401600
  0.2386110150351272  0.2449817680197088  0.6249391735401600
  0.2636110150351272  0.2449817680197088  0.6249391735401600
  0.2886110150351273  0.2449817680197088  0.6249391735401600
  0.3136110150351272  0.2449817680197088  0.6249391735401600
  0.3386110150351272  0.2449817680197088  0.6249391735401600
  0.3636110150351272  0.2449817680197088  0.6249391735401600
  0.3886110150351272  0.2449817680197088  0.6249391735401600
  0.4136110150351272  0.2449817680197088  0.6249391735401600
  0.4386110150351272  0.2449817680197088  0.6249391735401600
  0.4636110150351271  0.2449817680197088  0.6249391735401600
  0.4886110150351272  0.2449817680197088  0.6249391735401600
  0.5136110150351273  0.2449817680197088  0.6249391735401600
  0.5386110150351272  0.2449817680197088  0.6249391735401600
  0.5636110150351271  0.2449817680197088  0.6249391735401600
  0.5886110150351271  0.2449817680197088  0.6249391735401600
  0.6136110150351273  0.2449817680197088  0.6249391735401600
  0.6386110150351273  0.2449817680197088  0.6249391735401600
  0.6636110150351272  0.2449817680197088  0.6249391735401600
  0.6886110150351271  0.2449817680197088  0.6249391735401600
  0.7136110150351272  0.2449817680197088  0.6249391735401600
  0.7386110150351273  0.2449817680197088  0.6249391735401600
  0.7636110150351272  0.2449817680197088  0.6249391735401600
  0.7886110150351272  0.2449817680197088  0.6249391735401600
  0.8136110150351274  0.2449817680197088  0.6249391735401600
  0.8386110150351274  0.2449817680197088  0.6249391735401600
  0.8636110150351274  0.2449817680197088  0.6249391735401600
  0.8886110150351273  0.2449817680197088  0.6249391735401600
  0.9136110150351274  0.2449817680197088  0.6249391735401600
  0.9386110150351273  0.2449817680197088  0.6249391735401600
  0.9636110150351275  0.2449817680197088  0.6249391735401600
  0.9886110150351274  0.2449817680197088  0.6249391735401600
  0.0136110150351273  0.2699817680197087  0.6249391735401600
  0.0386110150351272  0.2699817680197087  0.6249391735401600
  0.0636110150351273  0.2699817680197087  0.6249391735401600
  0.0886110150351273  0.2699817680197087  0.6249391735401600
  0.1136110150351273  0.2699817680197087  0.6249391735401600
  0.1386110150351273  0.2699817680197087  0.6249391735401600
  0.1636110150351273  0.2699817680197087  0.6249391735401600
  0.1886110150351273  0.2699817680197087  0.6249391735401600
  0.2136110150351273  0.2699817680197087  0.6249391735401600
  0.2386110150351272  0.2699817680197087  0.6249391735401600
  0.2636110150351272  0.2699817680197087  0.6249391735401600
  0.2886110150351273  0.2699817680197087  0.6249391735401600
  0.3136110150351272  0.2699817680197087  0.6249391735401600
  0.3386110150351273  0.2699817680197087  0.6249391735401600
  0.3636110150351273  0.2699817680197087  0.6249391735401600
  0.3886110150351273  0.2699817680197087  0.6249391735401600
  0.4136110150351273  0.2699817680197087  0.6249391735401600
  0.4386110150351273  0.2699817680197087  0.6249391735401600
  0.4636110150351273  0.2699817680197087  0.6249391735401600
  0.4886110150351273  0.2699817680197087  0.6249391735401600
  0.5136110150351274  0.2699817680197087  0.6249391735401600
  0.5386110150351273  0.2699817680197087  0.6249391735401600
  0.5636110150351273  0.2699817680197087  0.6249391735401600
  0.5886110150351272  0.2699817680197087  0.6249391735401600
  0.6136110150351274  0.2699817680197087  0.6249391735401600
  0.6386110150351274  0.2699817680197087  0.6249391735401600
  0.6636110150351274  0.2699817680197087  0.6249391735401600
  0.6886110150351272  0.2699817680197087  0.6249391735401600
  0.7136110150351274  0.2699817680197087  0.6249391735401600
  0.7386110150351274  0.2699817680197087  0.6249391735401600
  0.7636110150351274  0.2699817680197087  0.6249391735401600
  0.7886110150351273  0.2699817680197087  0.6249391735401600
  0.8136110150351273  0.2699817680197087  0.6249391735401600
  0.8386110150351275  0.2699817680197087  0.6249391735401600
  0.8636110150351274  0.2699817680197087  0.6249391735401600
  0.8886110150351274  0.2699817680197087  0.6249391735401600
  0.9136110150351273  0.2699817680197087  0.6249391735401600
  0.9386110150351272  0.2699817680197087  0.6249391735401600
  0.9636110150351274  0.2699817680197087  0.6249391735401600
  0.9886110150351275  0.2699817680197087  0.6249391735401600
  0.0136110150351273  0.2949817680197088  0.6249391735401600
  0.0386110150351273  0.2949817680197088  0.6249391735401600
  0.0636110150351273  0.2949817680197088  0.6249391735401600
  0.0886110150351272  0.2949817680197088  0.6249391735401600
  0.1136110150351272  0.2949817680197088  0.6249391735401600
  0.1386110150351273  0.2949817680197088  0.6249391735401600
  0.1636110150351273  0.2949817680197088  0.6249391735401600
  0.1886110150351272  0.2949817680197088  0.6249391735401600
  0.2136110150351272  0.2949817680197088  0.6249391735401600
  0.2386110150351272  0.2949817680197088  0.6249391735401600
  0.2636110150351272  0.2949817680197088  0.6249391735401600
  0.2886110150351273  0.2949817680197088  0.6249391735401600
  0.3136110150351272  0.2949817680197088  0.6249391735401600
  0.3386110150351273  0.2949817680197088  0.6249391735401600
  0.3636110150351273  0.2949817680197088  0.6249391735401600
  0.3886110150351273  0.2949817680197088  0.6249391735401600
  0.4136110150351273  0.2949817680197088  0.6249391735401600
  0.4386110150351272  0.2949817680197088  0.6249391735401600
  0.4636110150351272  0.2949817680197088  0.6249391735401600
  0.4886110150351273  0.2949817680197088  0.6249391735401600
  0.5136110150351274  0.2949817680197088  0.6249391735401600
  0.5386110150351272  0.2949817680197088  0.6249391735401600
  0.5636110150351272  0.2949817680197088  0.6249391735401600
  0.5886110150351272  0.2949817680197088  0.6249391735401600
  0.6136110150351274  0.2949817680197088  0.6249391735401600
  0.6386110150351273  0.2949817680197088  0.6249391735401600
  0.6636110150351273  0.2949817680197088  0.6249391735401600
  0.6886110150351272  0.2949817680197088  0.6249391735401600
  0.7136110150351274  0.2949817680197088  0.6249391735401600
  0.7386110150351273  0.2949817680197088  0.6249391735401600
  0.7636110150351273  0.2949817680197088  0.6249391735401600
  0.7886110150351273  0.2949817680197088  0.6249391735401600
  0.8136110150351273  0.2949817680197088  0.6249391735401600
  0.8386110150351272  0.2949817680197088  0.6249391735401600
  0.8636110150351273  0.2949817680197088  0.6249391735401600
  0.8886110150351272  0.2949817680197088  0.6249391735401600
  0.9136110150351273  0.2949817680197088  0.6249391735401600
  0.9386110150351272  0.2949817680197088  0.6249391735401600
  0.9636110150351274  0.2949817680197088  0.6249391735401600
  0.9886110150351275  0.2949817680197088  0.6249391735401600
  0.0136110150351273  0.3199817680197088  0.6249391735401600
  0.0386110150351273  0.3199817680197088  0.6249391735401600
  0.0636110150351272  0.3199817680197088  0.6249391735401600
  0.0886110150351272  0.3199817680197088  0.6249391735401600
  0.1136110150351273  0.3199817680197088  0.6249391735401600
  0.1386110150351273  0.3199817680197088  0.6249391735401600
  0.1636110150351273  0.3199817680197088  0.6249391735401600
  0.1886110150351273  0.3199817680197088  0.6249391735401600
  0.2136110150351272  0.3199817680197088  0.6249391735401600
  0.2386110150351273  0.3199817680197088  0.6249391735401600
  0.2636110150351272  0.3199817680197088  0.6249391735401600
  0.2886110150351273  0.3199817680197088  0.6249391735401600
  0.3136110150351272  0.3199817680197088  0.6249391735401600
  0.3386110150351273  0.3199817680197088  0.6249391735401600
  0.3636110150351273  0.3199817680197088  0.6249391735401600
  0.3886110150351272  0.3199817680197088  0.6249391735401600
  0.4136110150351273  0.3199817680197088  0.6249391735401600
  0.4386110150351273  0.3199817680197088  0.6249391735401600
  0.4636110150351273  0.3199817680197088  0.6249391735401600
  0.4886110150351272  0.3199817680197088  0.6249391735401600
  0.5136110150351273  0.3199817680197088  0.6249391735401600
  0.5386110150351272  0.3199817680197088  0.6249391735401600
  0.5636110150351272  0.3199817680197088  0.6249391735401600
  0.5886110150351271  0.3199817680197088  0.6249391735401600
  0.6136110150351273  0.3199817680197088  0.6249391735401600
  0.6386110150351273  0.3199817680197088  0.6249391735401600
  0.6636110150351272  0.3199817680197088  0.6249391735401600
  0.6886110150351271  0.3199817680197088  0.6249391735401600
  0.7136110150351272  0.3199817680197088  0.6249391735401600
  0.7386110150351273  0.3199817680197088  0.6249391735401600
  0.7636110150351272  0.3199817680197088  0.6249391735401600
  0.7886110150351271  0.3199817680197088  0.6249391735401600
  0.8136110150351272  0.3199817680197088  0.6249391735401600
  0.8386110150351274  0.3199817680197088  0.6249391735401600
  0.8636110150351273  0.3199817680197088  0.6249391735401600
  0.8886110150351274  0.3199817680197088  0.6249391735401600
  0.9136110150351271  0.3199817680197088  0.6249391735401600
  0.9386110150351270  0.3199817680197088  0.6249391735401600
  0.9636110150351271  0.3199817680197088  0.6249391735401600
  0.9886110150351273  0.3199817680197088  0.6249391735401600
  0.0136110150351273  0.3449817680197088  0.6249391735401600
  0.0386110150351273  0.3449817680197088  0.6249391735401600
  0.0636110150351273  0.3449817680197088  0.6249391735401600
  0.0886110150351273  0.3449817680197088  0.6249391735401600
  0.1136110150351272  0.3449817680197088  0.6249391735401600
  0.1386110150351273  0.3449817680197088  0.6249391735401600
  0.1636110150351273  0.3449817680197088  0.6249391735401600
  0.1886110150351273  0.3449817680197088  0.6249391735401600
  0.2136110150351272  0.3449817680197088  0.6249391735401600
  0.2386110150351272  0.3449817680197088  0.6249391735401600
  0.2636110150351272  0.3449817680197088  0.6249391735401600
  0.2886110150351273  0.3449817680197088  0.6249391735401600
  0.3136110150351272  0.3449817680197088  0.6249391735401600
  0.3386110150351273  0.3449817680197088  0.6249391735401600
  0.3636110150351273  0.3449817680197088  0.6249391735401600
  0.3886110150351273  0.3449817680197088  0.6249391735401600
  0.4136110150351273  0.3449817680197088  0.6249391735401600
  0.4386110150351273  0.3449817680197088  0.6249391735401600
  0.4636110150351273  0.3449817680197088  0.6249391735401600
  0.4886110150351273  0.3449817680197088  0.6249391735401600
  0.5136110150351273  0.3449817680197088  0.6249391735401600
  0.5386110150351272  0.3449817680197088  0.6249391735401600
  0.5636110150351272  0.3449817680197088  0.6249391735401600
  0.5886110150351272  0.3449817680197088  0.6249391735401600
  0.6136110150351273  0.3449817680197088  0.6249391735401600
  0.6386110150351273  0.3449817680197088  0.6249391735401600
  0.6636110150351273  0.3449817680197088  0.6249391735401600
  0.6886110150351272  0.3449817680197088  0.6249391735401600
  0.7136110150351272  0.3449817680197088  0.6249391735401600
  0.7386110150351273  0.3449817680197088  0.6249391735401600
  0.7636110150351272  0.3449817680197088  0.6249391735401600
  0.7886110150351273  0.3449817680197088  0.6249391735401600
  0.8136110150351273  0.3449817680197088  0.6249391735401600
  0.8386110150351272  0.3449817680197088  0.6249391735401600
  0.8636110150351274  0.3449817680197088  0.6249391735401600
  0.8886110150351273  0.3449817680197088  0.6249391735401600
  0.9136110150351274  0.3449817680197088  0.6249391735401600
  0.9386110150351273  0.3449817680197088  0.6249391735401600
  0.9636110150351272  0.3449817680197088  0.6249391735401600
  0.9886110150351274  0.3449817680197088  0.6249391735401600
  0.0136110150351273  0.3699817680197088  0.6249391735401600
  0.0386110150351273  0.3699817680197088  0.6249391735401600
  0.0636110150351273  0.3699817680197088  0.6249391735401600
  0.0886110150351272  0.3699817680197088  0.6249391735401600
  0.1136110150351273  0.3699817680197088  0.6249391735401600
  0.1386110150351273  0.3699817680197088  0.6249391735401600
  0.1636110150351273  0.3699817680197088  0.6249391735401600
  0.1886110150351273  0.3699817680197088  0.6249391735401600
  0.2136110150351273  0.3699817680197088  0.6249391735401600
  0.2386110150351272  0.3699817680197088  0.6249391735401600
  0.2636110150351273  0.3699817680197088  0.6249391735401600
  0.2886110150351273  0.3699817680197088  0.6249391735401600
  0.3136110150351272  0.3699817680197088  0.6249391735401600
  0.3386110150351274  0.3699817680197088  0.6249391735401600
  0.3636110150351273  0.3699817680197088  0.6249391735401600
  0.3886110150351273  0.3699817680197088  0.6249391735401600
  0.4136110150351273  0.3699817680197088  0.6249391735401600
  0.4386110150351273  0.3699817680197088  0.6249391735401600
  0.4636110150351272  0.3699817680197088  0.6249391735401600
  0.4886110150351273  0.3699817680197088  0.6249391735401600
  0.5136110150351274  0.3699817680197088  0.6249391735401600
  0.5386110150351273  0.3699817680197088  0.6249391735401600
  0.5636110150351272  0.3699817680197088  0.6249391735401600
  0.5886110150351272  0.3699817680197088  0.6249391735401600
  0.6136110150351274  0.3699817680197088  0.6249391735401600
  0.6386110150351273  0.3699817680197088  0.6249391735401600
  0.6636110150351273  0.3699817680197088  0.6249391735401600
  0.6886110150351272  0.3699817680197088  0.6249391735401600
  0.7136110150351274  0.3699817680197088  0.6249391735401600
  0.7386110150351273  0.3699817680197088  0.6249391735401600
  0.7636110150351273  0.3699817680197088  0.6249391735401600
  0.7886110150351272  0.3699817680197088  0.6249391735401600
  0.8136110150351273  0.3699817680197088  0.6249391735401600
  0.8386110150351274  0.3699817680197088  0.6249391735401600
  0.8636110150351273  0.3699817680197088  0.6249391735401600
  0.8886110150351274  0.3699817680197088  0.6249391735401600
  0.9136110150351273  0.3699817680197088  0.6249391735401600
  0.9386110150351272  0.3699817680197088  0.6249391735401600
  0.9636110150351274  0.3699817680197088  0.6249391735401600
  0.9886110150351273  0.3699817680197088  0.6249391735401600
  0.0136110150351273  0.3949817680197088  0.6249391735401600
  0.0386110150351272  0.3949817680197088  0.6249391735401600
  0.0636110150351273  0.3949817680197088  0.6249391735401600
  0.0886110150351272  0.3949817680197088  0.6249391735401600
  0.1136110150351273  0.3949817680197088  0.6249391735401600
  0.1386110150351273  0.3949817680197088  0.6249391735401600
  0.1636110150351273  0.3949817680197088  0.6249391735401600
  0.1886110150351273  0.3949817680197088  0.6249391735401600
  0.2136110150351273  0.3949817680197088  0.6249391735401600
  0.2386110150351272  0.3949817680197088  0.6249391735401600
  0.2636110150351272  0.3949817680197088  0.6249391735401600
  0.2886110150351273  0.3949817680197088  0.6249391735401600
  0.3136110150351272  0.3949817680197088  0.6249391735401600
  0.3386110150351273  0.3949817680197088  0.6249391735401600
  0.3636110150351273  0.3949817680197088  0.6249391735401600
  0.3886110150351272  0.3949817680197088  0.6249391735401600
  0.4136110150351273  0.3949817680197088  0.6249391735401600
  0.4386110150351273  0.3949817680197088  0.6249391735401600
  0.4636110150351273  0.3949817680197088  0.6249391735401600
  0.4886110150351272  0.3949817680197088  0.6249391735401600
  0.5136110150351273  0.3949817680197088  0.6249391735401600
  0.5386110150351272  0.3949817680197088  0.6249391735401600
  0.5636110150351272  0.3949817680197088  0.6249391735401600
  0.5886110150351271  0.3949817680197088  0.6249391735401600
  0.6136110150351273  0.3949817680197088  0.6249391735401600
  0.6386110150351273  0.3949817680197088  0.6249391735401600
  0.6636110150351273  0.3949817680197088  0.6249391735401600
  0.6886110150351271  0.3949817680197088  0.6249391735401600
  0.7136110150351272  0.3949817680197088  0.6249391735401600
  0.7386110150351273  0.3949817680197088  0.6249391735401600
  0.7636110150351272  0.3949817680197088  0.6249391735401600
  0.7886110150351272  0.3949817680197088  0.6249391735401600
  0.8136110150351274  0.3949817680197088  0.6249391735401600
  0.8386110150351271  0.3949817680197088  0.6249391735401600
  0.8636110150351273  0.3949817680197088  0.6249391735401600
  0.8886110150351272  0.3949817680197088  0.6249391735401600
  0.9136110150351273  0.3949817680197088  0.6249391735401600
  0.9386110150351272  0.3949817680197088  0.6249391735401600
  0.9636110150351274  0.3949817680197088  0.6249391735401600
  0.9886110150351275  0.3949817680197088  0.6249391735401600
  0.0136110150351273  0.4199817680197088  0.6249391735401600
  0.0386110150351272  0.4199817680197088  0.6249391735401600
  0.0636110150351273  0.4199817680197088  0.6249391735401600
  0.0886110150351273  0.4199817680197088  0.6249391735401600
  0.1136110150351273  0.4199817680197088  0.6249391735401600
  0.1386110150351273  0.4199817680197088  0.6249391735401600
  0.1636110150351273  0.4199817680197088  0.6249391735401600
  0.1886110150351273  0.4199817680197088  0.6249391735401600
  0.2136110150351272  0.4199817680197088  0.6249391735401600
  0.2386110150351273  0.4199817680197088  0.6249391735401600
  0.2636110150351272  0.4199817680197088  0.6249391735401600
  0.2886110150351273  0.4199817680197088  0.6249391735401600
  0.3136110150351272  0.4199817680197088  0.6249391735401600
  0.3386110150351272  0.4199817680197088  0.6249391735401600
  0.3636110150351273  0.4199817680197088  0.6249391735401600
  0.3886110150351273  0.4199817680197088  0.6249391735401600
  0.4136110150351273  0.4199817680197088  0.6249391735401600
  0.4386110150351272  0.4199817680197088  0.6249391735401600
  0.4636110150351272  0.4199817680197088  0.6249391735401600
  0.4886110150351273  0.4199817680197088  0.6249391735401600
  0.5136110150351274  0.4199817680197088  0.6249391735401600
  0.5386110150351272  0.4199817680197088  0.6249391735401600
  0.5636110150351272  0.4199817680197088  0.6249391735401600
  0.5886110150351272  0.4199817680197088  0.6249391735401600
  0.6136110150351274  0.4199817680197088  0.6249391735401600
  0.6386110150351273  0.4199817680197088  0.6249391735401600
  0.6636110150351273  0.4199817680197088  0.6249391735401600
  0.6886110150351272  0.4199817680197088  0.6249391735401600
  0.7136110150351272  0.4199817680197088  0.6249391735401600
  0.7386110150351272  0.4199817680197088  0.6249391735401600
  0.7636110150351273  0.4199817680197088  0.6249391735401600
  0.7886110150351272  0.4199817680197088  0.6249391735401600
  0.8136110150351273  0.4199817680197088  0.6249391735401600
  0.8386110150351275  0.4199817680197088  0.6249391735401600
  0.8636110150351272  0.4199817680197088  0.6249391735401600
  0.8886110150351273  0.4199817680197088  0.6249391735401600
  0.9136110150351272  0.4199817680197088  0.6249391735401600
  0.9386110150351271  0.4199817680197088  0.6249391735401600
  0.9636110150351272  0.4199817680197088  0.6249391735401600
  0.9886110150351274  0.4199817680197088  0.6249391735401600
  0.0136110150351273  0.4449817680197088  0.6249391735401600
  0.0386110150351273  0.4449817680197088  0.6249391735401600
  0.0636110150351273  0.4449817680197088  0.6249391735401600
  0.0886110150351273  0.4449817680197088  0.6249391735401600
  0.1136110150351273  0.4449817680197088  0.6249391735401600
  0.1386110150351273  0.4449817680197088  0.6249391735401600
  0.1636110150351273  0.4449817680197088  0.6249391735401600
  0.1886110150351273  0.4449817680197088  0.6249391735401600
  0.2136110150351272  0.4449817680197088  0.6249391735401600
  0.2386110150351273  0.4449817680197088  0.6249391735401600
  0.2636110150351273  0.4449817680197088  0.6249391735401600
  0.2886110150351273  0.4449817680197088  0.6249391735401600
  0.3136110150351273  0.4449817680197088  0.6249391735401600
  0.3386110150351273  0.4449817680197088  0.6249391735401600
  0.3636110150351272  0.4449817680197088  0.6249391735401600
  0.3886110150351272  0.4449817680197088  0.6249391735401600
  0.4136110150351273  0.4449817680197088  0.6249391735401600
  0.4386110150351273  0.4449817680197088  0.6249391735401600
  0.4636110150351272  0.4449817680197088  0.6249391735401600
  0.4886110150351272  0.4449817680197088  0.6249391735401600
  0.5136110150351273  0.4449817680197088  0.6249391735401600
  0.5386110150351272  0.4449817680197088  0.6249391735401600
  0.5636110150351271  0.4449817680197088  0.6249391735401600
  0.5886110150351271  0.4449817680197088  0.6249391735401600
  0.6136110150351273  0.4449817680197088  0.6249391735401600
  0.6386110150351273  0.4449817680197088  0.6249391735401600
  0.6636110150351272  0.4449817680197088  0.6249391735401600
  0.6886110150351271  0.4449817680197088  0.6249391735401600
  0.7136110150351274  0.4449817680197088  0.6249391735401600
  0.7386110150351273  0.4449817680197088  0.6249391735401600
  0.7636110150351273  0.4449817680197088  0.6249391735401600
  0.7886110150351272  0.4449817680197088  0.6249391735401600
  0.8136110150351273  0.4449817680197088  0.6249391735401600
  0.8386110150351275  0.4449817680197088  0.6249391735401600
  0.8636110150351274  0.4449817680197088  0.6249391735401600
  0.8886110150351273  0.4449817680197088  0.6249391735401600
  0.9136110150351272  0.4449817680197088  0.6249391735401600
  0.9386110150351271  0.4449817680197088  0.6249391735401600
  0.9636110150351272  0.4449817680197088  0.6249391735401600
  0.9886110150351274  0.4449817680197088  0.6249391735401600
  0.0136110150351273  0.4699817680197088  0.6249391735401600
  0.0386110150351273  0.4699817680197088  0.6249391735401600
  0.0636110150351273  0.4699817680197088  0.6249391735401600
  0.0886110150351273  0.4699817680197088  0.6249391735401600
  0.1136110150351273  0.4699817680197088  0.6249391735401600
  0.1386110150351273  0.4699817680197088  0.6249391735401600
  0.1636110150351273  0.4699817680197088  0.6249391735401600
  0.1886110150351273  0.4699817680197088  0.6249391735401600
  0.2136110150351273  0.4699817680197088  0.6249391735401600
  0.2386110150351272  0.4699817680197088  0.6249391735401600
  0.2636110150351272  0.4699817680197088  0.6249391735401600
  0.2886110150351274  0.4699817680197088  0.6249391735401600
  0.3136110150351272  0.4699817680197088  0.6249391735401600
  0.3386110150351273  0.4699817680197088  0.6249391735401600
  0.3636110150351273  0.4699817680197088  0.6249391735401600
  0.3886110150351273  0.4699817680197088  0.6249391735401600
  0.4136110150351273  0.4699817680197088  0.6249391735401600
  0.4386110150351273  0.4699817680197088  0.6249391735401600
  0.4636110150351273  0.4699817680197088  0.6249391735401600
  0.4886110150351273  0.4699817680197088  0.6249391735401600
  0.5136110150351273  0.4699817680197088  0.6249391735401600
  0.5386110150351272  0.4699817680197088  0.6249391735401600
  0.5636110150351272  0.4699817680197088  0.6249391735401600
  0.5886110150351272  0.4699817680197088  0.6249391735401600
  0.6136110150351273  0.4699817680197088  0.6249391735401600
  0.6386110150351273  0.4699817680197088  0.6249391735401600
  0.6636110150351273  0.4699817680197088  0.6249391735401600
  0.6886110150351272  0.4699817680197088  0.6249391735401600
  0.7136110150351272  0.4699817680197088  0.6249391735401600
  0.7386110150351272  0.4699817680197088  0.6249391735401600
  0.7636110150351273  0.4699817680197088  0.6249391735401600
  0.7886110150351271  0.4699817680197088  0.6249391735401600
  0.8136110150351272  0.4699817680197088  0.6249391735401600
  0.8386110150351274  0.4699817680197088  0.6249391735401600
  0.8636110150351273  0.4699817680197088  0.6249391735401600
  0.8886110150351274  0.4699817680197088  0.6249391735401600
  0.9136110150351273  0.4699817680197088  0.6249391735401600
  0.9386110150351272  0.4699817680197088  0.6249391735401600
  0.9636110150351271  0.4699817680197088  0.6249391735401600
  0.9886110150351273  0.4699817680197088  0.6249391735401600
  0.0136110150351273  0.4949817680197088  0.6249391735401600
  0.0386110150351273  0.4949817680197088  0.6249391735401600
  0.0636110150351273  0.4949817680197088  0.6249391735401600
  0.0886110150351272  0.4949817680197088  0.6249391735401600
  0.1136110150351273  0.4949817680197088  0.6249391735401600
  0.1386110150351273  0.4949817680197088  0.6249391735401600
  0.1636110150351273  0.4949817680197088  0.6249391735401600
  0.1886110150351272  0.4949817680197088  0.6249391735401600
  0.2136110150351272  0.4949817680197088  0.6249391735401600
  0.2386110150351273  0.4949817680197088  0.6249391735401600
  0.2636110150351272  0.4949817680197088  0.6249391735401600
  0.2886110150351273  0.4949817680197088  0.6249391735401600
  0.3136110150351273  0.4949817680197088  0.6249391735401600
  0.3386110150351273  0.4949817680197088  0.6249391735401600
  0.3636110150351272  0.4949817680197088  0.6249391735401600
  0.3886110150351272  0.4949817680197088  0.6249391735401600
  0.4136110150351273  0.4949817680197088  0.6249391735401600
  0.4386110150351273  0.4949817680197088  0.6249391735401600
  0.4636110150351272  0.4949817680197088  0.6249391735401600
  0.4886110150351272  0.4949817680197088  0.6249391735401600
  0.5136110150351274  0.4949817680197088  0.6249391735401600
  0.5386110150351272  0.4949817680197088  0.6249391735401600
  0.5636110150351272  0.4949817680197088  0.6249391735401600
  0.5886110150351272  0.4949817680197088  0.6249391735401600
  0.6136110150351274  0.4949817680197088  0.6249391735401600
  0.6386110150351273  0.4949817680197088  0.6249391735401600
  0.6636110150351273  0.4949817680197088  0.6249391735401600
  0.6886110150351273  0.4949817680197088  0.6249391735401600
  0.7136110150351275  0.4949817680197088  0.6249391735401600
  0.7386110150351273  0.4949817680197088  0.6249391735401600
  0.7636110150351275  0.4949817680197088  0.6249391735401600
  0.7886110150351272  0.4949817680197088  0.6249391735401600
  0.8136110150351273  0.4949817680197088  0.6249391735401600
  0.8386110150351275  0.4949817680197088  0.6249391735401600
  0.8636110150351274  0.4949817680197088  0.6249391735401600
  0.8886110150351275  0.4949817680197088  0.6249391735401600
  0.9136110150351274  0.4949817680197088  0.6249391735401600
  0.9386110150351273  0.4949817680197088  0.6249391735401600
  0.9636110150351275  0.4949817680197088  0.6249391735401600
  0.9886110150351274  0.4949817680197088  0.6249391735401600
  0.0136110150351272  0.5199817680197087  0.6249391735401600
  0.0386110150351273  0.5199817680197087  0.6249391735401600
  0.0636110150351273  0.5199817680197087  0.6249391735401600
  0.0886110150351273  0.5199817680197087  0.6249391735401600
  0.1136110150351273  0.5199817680197087  0.6249391735401600
  0.1386110150351273  0.5199817680197087  0.6249391735401600
  0.1636110150351273  0.5199817680197087  0.6249391735401600
  0.1886110150351273  0.5199817680197087  0.6249391735401600
  0.2136110150351273  0.5199817680197087  0.6249391735401600
  0.2386110150351273  0.5199817680197087  0.6249391735401600
  0.2636110150351273  0.5199817680197087  0.6249391735401600
  0.2886110150351273  0.5199817680197087  0.6249391735401600
  0.3136110150351273  0.5199817680197087  0.6249391735401600
  0.3386110150351273  0.5199817680197087  0.6249391735401600
  0.3636110150351273  0.5199817680197087  0.6249391735401600
  0.3886110150351272  0.5199817680197087  0.6249391735401600
  0.4136110150351273  0.5199817680197087  0.6249391735401600
  0.4386110150351273  0.5199817680197087  0.6249391735401600
  0.4636110150351273  0.5199817680197087  0.6249391735401600
  0.4886110150351272  0.5199817680197087  0.6249391735401600
  0.5136110150351273  0.5199817680197087  0.6249391735401600
  0.5386110150351272  0.5199817680197087  0.6249391735401600
  0.5636110150351272  0.5199817680197087  0.6249391735401600
  0.5886110150351271  0.5199817680197087  0.6249391735401600
  0.6136110150351273  0.5199817680197087  0.6249391735401600
  0.6386110150351273  0.5199817680197087  0.6249391735401600
  0.6636110150351273  0.5199817680197087  0.6249391735401600
  0.6886110150351271  0.5199817680197087  0.6249391735401600
  0.7136110150351272  0.5199817680197087  0.6249391735401600
  0.7386110150351274  0.5199817680197087  0.6249391735401600
  0.7636110150351273  0.5199817680197087  0.6249391735401600
  0.7886110150351274  0.5199817680197087  0.6249391735401600
  0.8136110150351273  0.5199817680197087  0.6249391735401600
  0.8386110150351272  0.5199817680197087  0.6249391735401600
  0.8636110150351274  0.5199817680197087  0.6249391735401600
  0.8886110150351273  0.5199817680197087  0.6249391735401600
  0.9136110150351274  0.5199817680197087  0.6249391735401600
  0.9386110150351273  0.5199817680197087  0.6249391735401600
  0.9636110150351275  0.5199817680197087  0.6249391735401600
  0.9886110150351276  0.5199817680197087  0.6249391735401600
  0.0136110150351273  0.5449817680197088  0.6249391735401600
  0.0386110150351273  0.5449817680197088  0.6249391735401600
  0.0636110150351273  0.5449817680197088  0.6249391735401600
  0.0886110150351273  0.5449817680197088  0.6249391735401600
  0.1136110150351273  0.5449817680197088  0.6249391735401600
  0.1386110150351273  0.5449817680197088  0.6249391735401600
  0.1636110150351273  0.5449817680197088  0.6249391735401600
  0.1886110150351273  0.5449817680197088  0.6249391735401600
  0.2136110150351273  0.5449817680197088  0.6249391735401600
  0.2386110150351273  0.5449817680197088  0.6249391735401600
  0.2636110150351273  0.5449817680197088  0.6249391735401600
  0.2886110150351273  0.5449817680197088  0.6249391735401600
  0.3136110150351273  0.5449817680197088  0.6249391735401600
  0.3386110150351272  0.5449817680197088  0.6249391735401600
  0.3636110150351273  0.5449817680197088  0.6249391735401600
  0.3886110150351273  0.5449817680197088  0.6249391735401600
  0.4136110150351273  0.5449817680197088  0.6249391735401600
  0.4386110150351272  0.5449817680197088  0.6249391735401600
  0.4636110150351272  0.5449817680197088  0.6249391735401600
  0.4886110150351273  0.5449817680197088  0.6249391735401600
  0.5136110150351273  0.5449817680197088  0.6249391735401600
  0.5386110150351272  0.5449817680197088  0.6249391735401600
  0.5636110150351272  0.5449817680197088  0.6249391735401600
  0.5886110150351272  0.5449817680197088  0.6249391735401600
  0.6136110150351273  0.5449817680197088  0.6249391735401600
  0.6386110150351273  0.5449817680197088  0.6249391735401600
  0.6636110150351274  0.5449817680197088  0.6249391735401600
  0.6886110150351273  0.5449817680197088  0.6249391735401600
  0.7136110150351274  0.5449817680197088  0.6249391735401600
  0.7386110150351273  0.5449817680197088  0.6249391735401600
  0.7636110150351274  0.5449817680197088  0.6249391735401600
  0.7886110150351273  0.5449817680197088  0.6249391735401600
  0.8136110150351274  0.5449817680197088  0.6249391735401600
  0.8386110150351276  0.5449817680197088  0.6249391735401600
  0.8636110150351273  0.5449817680197088  0.6249391735401600
  0.8886110150351274  0.5449817680197088  0.6249391735401600
  0.9136110150351273  0.5449817680197088  0.6249391735401600
  0.9386110150351272  0.5449817680197088  0.6249391735401600
  0.9636110150351274  0.5449817680197088  0.6249391735401600
  0.9886110150351275  0.5449817680197088  0.6249391735401600
  0.0136110150351273  0.5699817680197089  0.6249391735401600
  0.0386110150351272  0.5699817680197089  0.6249391735401600
  0.0636110150351272  0.5699817680197089  0.6249391735401600
  0.0886110150351272  0.5699817680197089  0.6249391735401600
  0.1136110150351273  0.5699817680197089  0.6249391735401600
  0.1386110150351273  0.5699817680197089  0.6249391735401600
  0.1636110150351273  0.5699817680197089  0.6249391735401600
  0.1886110150351273  0.5699817680197089  0.6249391735401600
  0.2136110150351273  0.5699817680197089  0.6249391735401600
  0.2386110150351273  0.5699817680197089  0.6249391735401600
  0.2636110150351272  0.5699817680197089  0.6249391735401600
  0.2886110150351272  0.5699817680197089  0.6249391735401600
  0.3136110150351272  0.5699817680197089  0.6249391735401600
  0.3386110150351272  0.5699817680197089  0.6249391735401600
  0.3636110150351272  0.5699817680197089  0.6249391735401600
  0.3886110150351272  0.5699817680197089  0.6249391735401600
  0.4136110150351272  0.5699817680197089  0.6249391735401600
  0.4386110150351272  0.5699817680197089  0.6249391735401600
  0.4636110150351271  0.5699817680197089  0.6249391735401600
  0.4886110150351272  0.5699817680197089  0.6249391735401600
  0.5136110150351273  0.5699817680197089  0.6249391735401600
  0.5386110150351272  0.5699817680197089  0.6249391735401600
  0.5636110150351271  0.5699817680197089  0.6249391735401600
  0.5886110150351271  0.5699817680197089  0.6249391735401600
  0.6136110150351273  0.5699817680197089  0.6249391735401600
  0.6386110150351273  0.5699817680197089  0.6249391735401600
  0.6636110150351272  0.5699817680197089  0.6249391735401600
  0.6886110150351271  0.5699817680197089  0.6249391735401600
  0.7136110150351272  0.5699817680197089  0.6249391735401600
  0.7386110150351273  0.5699817680197089  0.6249391735401600
  0.7636110150351272  0.5699817680197089  0.6249391735401600
  0.7886110150351273  0.5699817680197089  0.6249391735401600
  0.8136110150351274  0.5699817680197089  0.6249391735401600
  0.8386110150351274  0.5699817680197089  0.6249391735401600
  0.8636110150351275  0.5699817680197089  0.6249391735401600
  0.8886110150351272  0.5699817680197089  0.6249391735401600
  0.9136110150351273  0.5699817680197089  0.6249391735401600
  0.9386110150351272  0.5699817680197089  0.6249391735401600
  0.9636110150351274  0.5699817680197089  0.6249391735401600
  0.9886110150351275  0.5699817680197089  0.6249391735401600
  0.0136110150351273  0.5949817680197088  0.6249391735401600
  0.0386110150351273  0.5949817680197088  0.6249391735401600
  0.0636110150351273  0.5949817680197088  0.6249391735401600
  0.0886110150351273  0.5949817680197088  0.6249391735401600
  0.1136110150351273  0.5949817680197088  0.6249391735401600
  0.1386110150351273  0.5949817680197088  0.6249391735401600
  0.1636110150351273  0.5949817680197088  0.6249391735401600
  0.1886110150351273  0.5949817680197088  0.6249391735401600
  0.2136110150351272  0.5949817680197088  0.6249391735401600
  0.2386110150351272  0.5949817680197088  0.6249391735401600
  0.2636110150351272  0.5949817680197088  0.6249391735401600
  0.2886110150351273  0.5949817680197088  0.6249391735401600
  0.3136110150351272  0.5949817680197088  0.6249391735401600
  0.3386110150351272  0.5949817680197088  0.6249391735401600
  0.3636110150351272  0.5949817680197088  0.6249391735401600
  0.3886110150351272  0.5949817680197088  0.6249391735401600
  0.4136110150351271  0.5949817680197088  0.6249391735401600
  0.4386110150351272  0.5949817680197088  0.6249391735401600
  0.4636110150351272  0.5949817680197088  0.6249391735401600
  0.4886110150351272  0.5949817680197088  0.6249391735401600
  0.5136110150351273  0.5949817680197088  0.6249391735401600
  0.5386110150351272  0.5949817680197088  0.6249391735401600
  0.5636110150351272  0.5949817680197088  0.6249391735401600
  0.5886110150351272  0.5949817680197088  0.6249391735401600
  0.6136110150351273  0.5949817680197088  0.6249391735401600
  0.6386110150351273  0.5949817680197088  0.6249391735401600
  0.6636110150351274  0.5949817680197088  0.6249391735401600
  0.6886110150351272  0.5949817680197088  0.6249391735401600
  0.7136110150351275  0.5949817680197088  0.6249391735401600
  0.7386110150351272  0.5949817680197088  0.6249391735401600
  0.7636110150351273  0.5949817680197088  0.6249391735401600
  0.7886110150351272  0.5949817680197088  0.6249391735401600
  0.8136110150351273  0.5949817680197088  0.6249391735401600
  0.8386110150351275  0.5949817680197088  0.6249391735401600
  0.8636110150351274  0.5949817680197088  0.6249391735401600
  0.8886110150351275  0.5949817680197088  0.6249391735401600
  0.9136110150351274  0.5949817680197088  0.6249391735401600
  0.9386110150351271  0.5949817680197088  0.6249391735401600
  0.9636110150351272  0.5949817680197088  0.6249391735401600
  0.9886110150351274  0.5949817680197088  0.6249391735401600
  0.0136110150351273  0.6199817680197088  0.6249391735401600
  0.0386110150351273  0.6199817680197088  0.6249391735401600
  0.0636110150351273  0.6199817680197088  0.6249391735401600
  0.0886110150351273  0.6199817680197088  0.6249391735401600
  0.1136110150351272  0.6199817680197088  0.6249391735401600
  0.1386110150351273  0.6199817680197088  0.6249391735401600
  0.1636110150351272  0.6199817680197088  0.6249391735401600
  0.1886110150351273  0.6199817680197088  0.6249391735401600
  0.2136110150351273  0.6199817680197088  0.6249391735401600
  0.2386110150351272  0.6199817680197088  0.6249391735401600
  0.2636110150351272  0.6199817680197088  0.6249391735401600
  0.2886110150351274  0.6199817680197088  0.6249391735401600
  0.3136110150351273  0.6199817680197088  0.6249391735401600
  0.3386110150351273  0.6199817680197088  0.6249391735401600
  0.3636110150351273  0.6199817680197088  0.6249391735401600
  0.3886110150351273  0.6199817680197088  0.6249391735401600
  0.4136110150351274  0.6199817680197088  0.6249391735401600
  0.4386110150351273  0.6199817680197088  0.6249391735401600
  0.4636110150351273  0.6199817680197088  0.6249391735401600
  0.4886110150351273  0.6199817680197088  0.6249391735401600
  0.5136110150351274  0.6199817680197088  0.6249391735401600
  0.5386110150351272  0.6199817680197088  0.6249391735401600
  0.5636110150351272  0.6199817680197088  0.6249391735401600
  0.5886110150351272  0.6199817680197088  0.6249391735401600
  0.6136110150351274  0.6199817680197088  0.6249391735401600
  0.6386110150351273  0.6199817680197088  0.6249391735401600
  0.6636110150351272  0.6199817680197088  0.6249391735401600
  0.6886110150351271  0.6199817680197088  0.6249391735401600
  0.7136110150351272  0.6199817680197088  0.6249391735401600
  0.7386110150351274  0.6199817680197088  0.6249391735401600
  0.7636110150351273  0.6199817680197088  0.6249391735401600
  0.7886110150351272  0.6199817680197088  0.6249391735401600
  0.8136110150351273  0.6199817680197088  0.6249391735401600
  0.8386110150351272  0.6199817680197088  0.6249391735401600
  0.8636110150351274  0.6199817680197088  0.6249391735401600
  0.8886110150351273  0.6199817680197088  0.6249391735401600
  0.9136110150351274  0.6199817680197088  0.6249391735401600
  0.9386110150351273  0.6199817680197088  0.6249391735401600
  0.9636110150351272  0.6199817680197088  0.6249391735401600
  0.9886110150351274  0.6199817680197088  0.6249391735401600
  0.0136110150351273  0.6449817680197087  0.6249391735401600
  0.0386110150351273  0.6449817680197087  0.6249391735401600
  0.0636110150351273  0.6449817680197087  0.6249391735401600
  0.0886110150351273  0.6449817680197087  0.6249391735401600
  0.1136110150351273  0.6449817680197087  0.6249391735401600
  0.1386110150351273  0.6449817680197087  0.6249391735401600
  0.1636110150351273  0.6449817680197087  0.6249391735401600
  0.1886110150351273  0.6449817680197087  0.6249391735401600
  0.2136110150351273  0.6449817680197087  0.6249391735401600
  0.2386110150351273  0.6449817680197087  0.6249391735401600
  0.2636110150351273  0.6449817680197087  0.6249391735401600
  0.2886110150351273  0.6449817680197087  0.6249391735401600
  0.3136110150351273  0.6449817680197087  0.6249391735401600
  0.3386110150351273  0.6449817680197087  0.6249391735401600
  0.3636110150351273  0.6449817680197087  0.6249391735401600
  0.3886110150351272  0.6449817680197087  0.6249391735401600
  0.4136110150351273  0.6449817680197087  0.6249391735401600
  0.4386110150351273  0.6449817680197087  0.6249391735401600
  0.4636110150351273  0.6449817680197087  0.6249391735401600
  0.4886110150351272  0.6449817680197087  0.6249391735401600
  0.5136110150351273  0.6449817680197087  0.6249391735401600
  0.5386110150351272  0.6449817680197087  0.6249391735401600
  0.5636110150351272  0.6449817680197087  0.6249391735401600
  0.5886110150351271  0.6449817680197087  0.6249391735401600
  0.6136110150351274  0.6449817680197087  0.6249391735401600
  0.6386110150351273  0.6449817680197087  0.6249391735401600
  0.6636110150351273  0.6449817680197087  0.6249391735401600
  0.6886110150351272  0.6449817680197087  0.6249391735401600
  0.7136110150351274  0.6449817680197087  0.6249391735401600
  0.7386110150351273  0.6449817680197087  0.6249391735401600
  0.7636110150351274  0.6449817680197087  0.6249391735401600
  0.7886110150351273  0.6449817680197087  0.6249391735401600
  0.8136110150351272  0.6449817680197087  0.6249391735401600
  0.8386110150351274  0.6449817680197087  0.6249391735401600
  0.8636110150351273  0.6449817680197087  0.6249391735401600
  0.8886110150351274  0.6449817680197087  0.6249391735401600
  0.9136110150351273  0.6449817680197087  0.6249391735401600
  0.9386110150351272  0.6449817680197087  0.6249391735401600
  0.9636110150351274  0.6449817680197087  0.6249391735401600
  0.9886110150351275  0.6449817680197087  0.6249391735401600
  0.0136110150351273  0.6699817680197088  0.6249391735401600
  0.0386110150351273  0.6699817680197088  0.6249391735401600
  0.0636110150351273  0.6699817680197088  0.6249391735401600
  0.0886110150351274  0.6699817680197088  0.6249391735401600
  0.1136110150351273  0.6699817680197088  0.6249391735401600
  0.1386110150351273  0.6699817680197088  0.6249391735401600
  0.1636110150351273  0.6699817680197088  0.6249391735401600
  0.1886110150351273  0.6699817680197088  0.6249391735401600
  0.2136110150351272  0.6699817680197088  0.6249391735401600
  0.2386110150351273  0.6699817680197088  0.6249391735401600
  0.2636110150351273  0.6699817680197088  0.6249391735401600
  0.2886110150351273  0.6699817680197088  0.6249391735401600
  0.3136110150351272  0.6699817680197088  0.6249391735401600
  0.3386110150351272  0.6699817680197088  0.6249391735401600
  0.3636110150351273  0.6699817680197088  0.6249391735401600
  0.3886110150351273  0.6699817680197088  0.6249391735401600
  0.4136110150351272  0.6699817680197088  0.6249391735401600
  0.4386110150351272  0.6699817680197088  0.6249391735401600
  0.4636110150351272  0.6699817680197088  0.6249391735401600
  0.4886110150351273  0.6699817680197088  0.6249391735401600
  0.5136110150351273  0.6699817680197088  0.6249391735401600
  0.5386110150351272  0.6699817680197088  0.6249391735401600
  0.5636110150351272  0.6699817680197088  0.6249391735401600
  0.5886110150351272  0.6699817680197088  0.6249391735401600
  0.6136110150351273  0.6699817680197088  0.6249391735401600
  0.6386110150351274  0.6699817680197088  0.6249391735401600
  0.6636110150351273  0.6699817680197088  0.6249391735401600
  0.6886110150351271  0.6699817680197088  0.6249391735401600
  0.7136110150351272  0.6699817680197088  0.6249391735401600
  0.7386110150351274  0.6699817680197088  0.6249391735401600
  0.7636110150351273  0.6699817680197088  0.6249391735401600
  0.7886110150351274  0.6699817680197088  0.6249391735401600
  0.8136110150351276  0.6699817680197088  0.6249391735401600
  0.8386110150351275  0.6699817680197088  0.6249391735401600
  0.8636110150351274  0.6699817680197088  0.6249391735401600
  0.8886110150351273  0.6699817680197088  0.6249391735401600
  0.9136110150351274  0.6699817680197088  0.6249391735401600
  0.9386110150351273  0.6699817680197088  0.6249391735401600
  0.9636110150351275  0.6699817680197088  0.6249391735401600
  0.9886110150351276  0.6699817680197088  0.6249391735401600
  0.0136110150351273  0.6949817680197089  0.6249391735401600
  0.0386110150351273  0.6949817680197089  0.6249391735401600
  0.0636110150351273  0.6949817680197089  0.6249391735401600
  0.0886110150351272  0.6949817680197089  0.6249391735401600
  0.1136110150351273  0.6949817680197089  0.6249391735401600
  0.1386110150351272  0.6949817680197089  0.6249391735401600
  0.1636110150351272  0.6949817680197089  0.6249391735401600
  0.1886110150351272  0.6949817680197089  0.6249391735401600
  0.2136110150351272  0.6949817680197089  0.6249391735401600
  0.2386110150351273  0.6949817680197089  0.6249391735401600
  0.2636110150351272  0.6949817680197089  0.6249391735401600
  0.2886110150351273  0.6949817680197089  0.6249391735401600
  0.3136110150351272  0.6949817680197089  0.6249391735401600
  0.3386110150351274  0.6949817680197089  0.6249391735401600
  0.3636110150351273  0.6949817680197089  0.6249391735401600
  0.3886110150351273  0.6949817680197089  0.6249391735401600
  0.4136110150351273  0.6949817680197089  0.6249391735401600
  0.4386110150351273  0.6949817680197089  0.6249391735401600
  0.4636110150351272  0.6949817680197089  0.6249391735401600
  0.4886110150351273  0.6949817680197089  0.6249391735401600
  0.5136110150351274  0.6949817680197089  0.6249391735401600
  0.5386110150351273  0.6949817680197089  0.6249391735401600
  0.5636110150351272  0.6949817680197089  0.6249391735401600
  0.5886110150351272  0.6949817680197089  0.6249391735401600
  0.6136110150351274  0.6949817680197089  0.6249391735401600
  0.6386110150351273  0.6949817680197089  0.6249391735401600
  0.6636110150351274  0.6949817680197089  0.6249391735401600
  0.6886110150351273  0.6949817680197089  0.6249391735401600
  0.7136110150351272  0.6949817680197089  0.6249391735401600
  0.7386110150351272  0.6949817680197089  0.6249391735401600
  0.7636110150351273  0.6949817680197089  0.6249391735401600
  0.7886110150351272  0.6949817680197089  0.6249391735401600
  0.8136110150351273  0.6949817680197089  0.6249391735401600
  0.8386110150351275  0.6949817680197089  0.6249391735401600
  0.8636110150351274  0.6949817680197089  0.6249391735401600
  0.8886110150351273  0.6949817680197089  0.6249391735401600
  0.9136110150351272  0.6949817680197089  0.6249391735401600
  0.9386110150351271  0.6949817680197089  0.6249391735401600
  0.9636110150351272  0.6949817680197089  0.6249391735401600
  0.9886110150351274  0.6949817680197089  0.6249391735401600
  0.0136110150351273  0.7199817680197089  0.6249391735401600
  0.0386110150351273  0.7199817680197089  0.6249391735401600
  0.0636110150351273  0.7199817680197089  0.6249391735401600
  0.0886110150351272  0.7199817680197089  0.6249391735401600
  0.1136110150351273  0.7199817680197089  0.6249391735401600
  0.1386110150351272  0.7199817680197089  0.6249391735401600
  0.1636110150351273  0.7199817680197089  0.6249391735401600
  0.1886110150351273  0.7199817680197089  0.6249391735401600
  0.2136110150351272  0.7199817680197089  0.6249391735401600
  0.2386110150351272  0.7199817680197089  0.6249391735401600
  0.2636110150351272  0.7199817680197089  0.6249391735401600
  0.2886110150351273  0.7199817680197089  0.6249391735401600
  0.3136110150351272  0.7199817680197089  0.6249391735401600
  0.3386110150351273  0.7199817680197089  0.6249391735401600
  0.3636110150351273  0.7199817680197089  0.6249391735401600
  0.3886110150351272  0.7199817680197089  0.6249391735401600
  0.4136110150351273  0.7199817680197089  0.6249391735401600
  0.4386110150351273  0.7199817680197089  0.6249391735401600
  0.4636110150351273  0.7199817680197089  0.6249391735401600
  0.4886110150351272  0.7199817680197089  0.6249391735401600
  0.5136110150351273  0.7199817680197089  0.6249391735401600
  0.5386110150351272  0.7199817680197089  0.6249391735401600
  0.5636110150351272  0.7199817680197089  0.6249391735401600
  0.5886110150351270  0.7199817680197089  0.6249391735401600
  0.6136110150351272  0.7199817680197089  0.6249391735401600
  0.6386110150351273  0.7199817680197089  0.6249391735401600
  0.6636110150351272  0.7199817680197089  0.6249391735401600
  0.6886110150351271  0.7199817680197089  0.6249391735401600
  0.7136110150351272  0.7199817680197089  0.6249391735401600
  0.7386110150351272  0.7199817680197089  0.6249391735401600
  0.7636110150351271  0.7199817680197089  0.6249391735401600
  0.7886110150351272  0.7199817680197089  0.6249391735401600
  0.8136110150351273  0.7199817680197089  0.6249391735401600
  0.8386110150351272  0.7199817680197089  0.6249391735401600
  0.8636110150351274  0.7199817680197089  0.6249391735401600
  0.8886110150351273  0.7199817680197089  0.6249391735401600
  0.9136110150351274  0.7199817680197089  0.6249391735401600
  0.9386110150351271  0.7199817680197089  0.6249391735401600
  0.9636110150351272  0.7199817680197089  0.6249391735401600
  0.9886110150351274  0.7199817680197089  0.6249391735401600
  0.0136110150351272  0.7449817680197089  0.6249391735401600
  0.0386110150351273  0.7449817680197089  0.6249391735401600
  0.0636110150351273  0.7449817680197089  0.6249391735401600
  0.0886110150351273  0.7449817680197089  0.6249391735401600
  0.1136110150351272  0.7449817680197089  0.6249391735401600
  0.1386110150351273  0.7449817680197089  0.6249391735401600
  0.1636110150351273  0.7449817680197089  0.6249391735401600
  0.1886110150351272  0.7449817680197089  0.6249391735401600
  0.2136110150351272  0.7449817680197089  0.6249391735401600
  0.2386110150351272  0.7449817680197089  0.6249391735401600
  0.2636110150351272  0.7449817680197089  0.6249391735401600
  0.2886110150351273  0.7449817680197089  0.6249391735401600
  0.3136110150351272  0.7449817680197089  0.6249391735401600
  0.3386110150351272  0.7449817680197089  0.6249391735401600
  0.3636110150351273  0.7449817680197089  0.6249391735401600
  0.3886110150351273  0.7449817680197089  0.6249391735401600
  0.4136110150351273  0.7449817680197089  0.6249391735401600
  0.4386110150351272  0.7449817680197089  0.6249391735401600
  0.4636110150351272  0.7449817680197089  0.6249391735401600
  0.4886110150351273  0.7449817680197089  0.6249391735401600
  0.5136110150351273  0.7449817680197089  0.6249391735401600
  0.5386110150351272  0.7449817680197089  0.6249391735401600
  0.5636110150351271  0.7449817680197089  0.6249391735401600
  0.5886110150351272  0.7449817680197089  0.6249391735401600
  0.6136110150351273  0.7449817680197089  0.6249391735401600
  0.6386110150351272  0.7449817680197089  0.6249391735401600
  0.6636110150351273  0.7449817680197089  0.6249391735401600
  0.6886110150351272  0.7449817680197089  0.6249391735401600
  0.7136110150351274  0.7449817680197089  0.6249391735401600
  0.7386110150351273  0.7449817680197089  0.6249391735401600
  0.7636110150351272  0.7449817680197089  0.6249391735401600
  0.7886110150351271  0.7449817680197089  0.6249391735401600
  0.8136110150351272  0.7449817680197089  0.6249391735401600
  0.8386110150351274  0.7449817680197089  0.6249391735401600
  0.8636110150351273  0.7449817680197089  0.6249391735401600
  0.8886110150351274  0.7449817680197089  0.6249391735401600
  0.9136110150351273  0.7449817680197089  0.6249391735401600
  0.9386110150351272  0.7449817680197089  0.6249391735401600
  0.9636110150351271  0.7449817680197089  0.6249391735401600
  0.9886110150351273  0.7449817680197089  0.6249391735401600
  0.0136110150351273  0.7699817680197087  0.6249391735401600
  0.0386110150351273  0.7699817680197087  0.6249391735401600
  0.0636110150351273  0.7699817680197087  0.6249391735401600
  0.0886110150351273  0.7699817680197087  0.6249391735401600
  0.1136110150351273  0.7699817680197087  0.6249391735401600
  0.1386110150351273  0.7699817680197087  0.6249391735401600
  0.1636110150351273  0.7699817680197087  0.6249391735401600
  0.1886110150351273  0.7699817680197087  0.6249391735401600
  0.2136110150351273  0.7699817680197087  0.6249391735401600
  0.2386110150351273  0.7699817680197087  0.6249391735401600
  0.2636110150351273  0.7699817680197087  0.6249391735401600
  0.2886110150351273  0.7699817680197087  0.6249391735401600
  0.3136110150351272  0.7699817680197087  0.6249391735401600
  0.3386110150351274  0.7699817680197087  0.6249391735401600
  0.3636110150351273  0.7699817680197087  0.6249391735401600
  0.3886110150351273  0.7699817680197087  0.6249391735401600
  0.4136110150351273  0.7699817680197087  0.6249391735401600
  0.4386110150351273  0.7699817680197087  0.6249391735401600
  0.4636110150351272  0.7699817680197087  0.6249391735401600
  0.4886110150351273  0.7699817680197087  0.6249391735401600
  0.5136110150351274  0.7699817680197087  0.6249391735401600
  0.5386110150351273  0.7699817680197087  0.6249391735401600
  0.5636110150351272  0.7699817680197087  0.6249391735401600
  0.5886110150351271  0.7699817680197087  0.6249391735401600
  0.6136110150351273  0.7699817680197087  0.6249391735401600
  0.6386110150351273  0.7699817680197087  0.6249391735401600
  0.6636110150351272  0.7699817680197087  0.6249391735401600
  0.6886110150351271  0.7699817680197087  0.6249391735401600
  0.7136110150351272  0.7699817680197087  0.6249391735401600
  0.7386110150351274  0.7699817680197087  0.6249391735401600
  0.7636110150351273  0.7699817680197087  0.6249391735401600
  0.7886110150351274  0.7699817680197087  0.6249391735401600
  0.8136110150351273  0.7699817680197087  0.6249391735401600
  0.8386110150351272  0.7699817680197087  0.6249391735401600
  0.8636110150351274  0.7699817680197087  0.6249391735401600
  0.8886110150351273  0.7699817680197087  0.6249391735401600
  0.9136110150351274  0.7699817680197087  0.6249391735401600
  0.9386110150351273  0.7699817680197087  0.6249391735401600
  0.9636110150351275  0.7699817680197087  0.6249391735401600
  0.9886110150351274  0.7699817680197087  0.6249391735401600
  0.0136110150351273  0.7949817680197088  0.6249391735401600
  0.0386110150351273  0.7949817680197088  0.6249391735401600
  0.0636110150351273  0.7949817680197088  0.6249391735401600
  0.0886110150351273  0.7949817680197088  0.6249391735401600
  0.1136110150351272  0.7949817680197088  0.6249391735401600
  0.1386110150351273  0.7949817680197088  0.6249391735401600
  0.1636110150351273  0.7949817680197088  0.6249391735401600
  0.1886110150351273  0.7949817680197088  0.6249391735401600
  0.2136110150351272  0.7949817680197088  0.6249391735401600
  0.2386110150351272  0.7949817680197088  0.6249391735401600
  0.2636110150351272  0.7949817680197088  0.6249391735401600
  0.2886110150351274  0.7949817680197088  0.6249391735401600
  0.3136110150351272  0.7949817680197088  0.6249391735401600
  0.3386110150351273  0.7949817680197088  0.6249391735401600
  0.3636110150351273  0.7949817680197088  0.6249391735401600
  0.3886110150351273  0.7949817680197088  0.6249391735401600
  0.4136110150351273  0.7949817680197088  0.6249391735401600
  0.4386110150351273  0.7949817680197088  0.6249391735401600
  0.4636110150351273  0.7949817680197088  0.6249391735401600
  0.4886110150351273  0.7949817680197088  0.6249391735401600
  0.5136110150351274  0.7949817680197088  0.6249391735401600
  0.5386110150351273  0.7949817680197088  0.6249391735401600
  0.5636110150351272  0.7949817680197088  0.6249391735401600
  0.5886110150351274  0.7949817680197088  0.6249391735401600
  0.6136110150351275  0.7949817680197088  0.6249391735401600
  0.6386110150351274  0.7949817680197088  0.6249391735401600
  0.6636110150351273  0.7949817680197088  0.6249391735401600
  0.6886110150351272  0.7949817680197088  0.6249391735401600
  0.7136110150351274  0.7949817680197088  0.6249391735401600
  0.7386110150351273  0.7949817680197088  0.6249391735401600
  0.7636110150351274  0.7949817680197088  0.6249391735401600
  0.7886110150351273  0.7949817680197088  0.6249391735401600
  0.8136110150351274  0.7949817680197088  0.6249391735401600
  0.8386110150351274  0.7949817680197088  0.6249391735401600
  0.8636110150351273  0.7949817680197088  0.6249391735401600
  0.8886110150351274  0.7949817680197088  0.6249391735401600
  0.9136110150351273  0.7949817680197088  0.6249391735401600
  0.9386110150351272  0.7949817680197088  0.6249391735401600
  0.9636110150351274  0.7949817680197088  0.6249391735401600
  0.9886110150351275  0.7949817680197088  0.6249391735401600
  0.0136110150351273  0.8199817680197088  0.6249391735401600
  0.0386110150351273  0.8199817680197088  0.6249391735401600
  0.0636110150351273  0.8199817680197088  0.6249391735401600
  0.0886110150351273  0.8199817680197088  0.6249391735401600
  0.1136110150351273  0.8199817680197088  0.6249391735401600
  0.1386110150351274  0.8199817680197088  0.6249391735401600
  0.1636110150351273  0.8199817680197088  0.6249391735401600
  0.1886110150351273  0.8199817680197088  0.6249391735401600
  0.2136110150351273  0.8199817680197088  0.6249391735401600
  0.2386110150351273  0.8199817680197088  0.6249391735401600
  0.2636110150351272  0.8199817680197088  0.6249391735401600
  0.2886110150351273  0.8199817680197088  0.6249391735401600
  0.3136110150351272  0.8199817680197088  0.6249391735401600
  0.3386110150351272  0.8199817680197088  0.6249391735401600
  0.3636110150351273  0.8199817680197088  0.6249391735401600
  0.3886110150351273  0.8199817680197088  0.6249391735401600
  0.4136110150351273  0.8199817680197088  0.6249391735401600
  0.4386110150351272  0.8199817680197088  0.6249391735401600
  0.4636110150351272  0.8199817680197088  0.6249391735401600
  0.4886110150351273  0.8199817680197088  0.6249391735401600
  0.5136110150351274  0.8199817680197088  0.6249391735401600
  0.5386110150351272  0.8199817680197088  0.6249391735401600
  0.5636110150351272  0.8199817680197088  0.6249391735401600
  0.5886110150351271  0.8199817680197088  0.6249391735401600
  0.6136110150351273  0.8199817680197088  0.6249391735401600
  0.6386110150351274  0.8199817680197088  0.6249391735401600
  0.6636110150351273  0.8199817680197088  0.6249391735401600
  0.6886110150351272  0.8199817680197088  0.6249391735401600
  0.7136110150351271  0.8199817680197088  0.6249391735401600
  0.7386110150351273  0.8199817680197088  0.6249391735401600
  0.7636110150351272  0.8199817680197088  0.6249391735401600
  0.7886110150351273  0.8199817680197088  0.6249391735401600
  0.8136110150351274  0.8199817680197088  0.6249391735401600
  0.8386110150351274  0.8199817680197088  0.6249391735401600
  0.8636110150351275  0.8199817680197088  0.6249391735401600
  0.8886110150351272  0.8199817680197088  0.6249391735401600
  0.9136110150351273  0.8199817680197088  0.6249391735401600
  0.9386110150351272  0.8199817680197088  0.6249391735401600
  0.9636110150351274  0.8199817680197088  0.6249391735401600
  0.9886110150351275  0.8199817680197088  0.6249391735401600
  0.0136110150351273  0.8449817680197088  0.6249391735401600
  0.0386110150351273  0.8449817680197088  0.6249391735401600
  0.0636110150351273  0.8449817680197088  0.6249391735401600
  0.0886110150351272  0.8449817680197088  0.6249391735401600
  0.1136110150351272  0.8449817680197088  0.6249391735401600
  0.1386110150351274  0.8449817680197088  0.6249391735401600
  0.1636110150351274  0.8449817680197088  0.6249391735401600
  0.1886110150351272  0.8449817680197088  0.6249391735401600
  0.2136110150351272  0.8449817680197088  0.6249391735401600
  0.2386110150351272  0.8449817680197088  0.6249391735401600
  0.2636110150351273  0.8449817680197088  0.6249391735401600
  0.2886110150351273  0.8449817680197088  0.6249391735401600
  0.3136110150351272  0.8449817680197088  0.6249391735401600
  0.3386110150351274  0.8449817680197088  0.6249391735401600
  0.3636110150351274  0.8449817680197088  0.6249391735401600
  0.3886110150351273  0.8449817680197088  0.6249391735401600
  0.4136110150351273  0.8449817680197088  0.6249391735401600
  0.4386110150351273  0.8449817680197088  0.6249391735401600
  0.4636110150351274  0.8449817680197088  0.6249391735401600
  0.4886110150351273  0.8449817680197088  0.6249391735401600
  0.5136110150351274  0.8449817680197088  0.6249391735401600
  0.5386110150351273  0.8449817680197088  0.6249391735401600
  0.5636110150351272  0.8449817680197088  0.6249391735401600
  0.5886110150351272  0.8449817680197088  0.6249391735401600
  0.6136110150351274  0.8449817680197088  0.6249391735401600
  0.6386110150351273  0.8449817680197088  0.6249391735401600
  0.6636110150351274  0.8449817680197088  0.6249391735401600
  0.6886110150351273  0.8449817680197088  0.6249391735401600
  0.7136110150351275  0.8449817680197088  0.6249391735401600
  0.7386110150351272  0.8449817680197088  0.6249391735401600
  0.7636110150351273  0.8449817680197088  0.6249391735401600
  0.7886110150351272  0.8449817680197088  0.6249391735401600
  0.8136110150351273  0.8449817680197088  0.6249391735401600
  0.8386110150351275  0.8449817680197088  0.6249391735401600
  0.8636110150351274  0.8449817680197088  0.6249391735401600
  0.8886110150351275  0.8449817680197088  0.6249391735401600
  0.9136110150351274  0.8449817680197088  0.6249391735401600
  0.9386110150351271  0.8449817680197088  0.6249391735401600
  0.9636110150351272  0.8449817680197088  0.6249391735401600
  0.9886110150351274  0.8449817680197088  0.6249391735401600
  0.0136110150351273  0.8699817680197089  0.6249391735401600
  0.0386110150351272  0.8699817680197089  0.6249391735401600
  0.0636110150351273  0.8699817680197089  0.6249391735401600
  0.0886110150351273  0.8699817680197089  0.6249391735401600
  0.1136110150351274  0.8699817680197089  0.6249391735401600
  0.1386110150351273  0.8699817680197089  0.6249391735401600
  0.1636110150351273  0.8699817680197089  0.6249391735401600
  0.1886110150351273  0.8699817680197089  0.6249391735401600
  0.2136110150351273  0.8699817680197089  0.6249391735401600
  0.2386110150351272  0.8699817680197089  0.6249391735401600
  0.2636110150351272  0.8699817680197089  0.6249391735401600
  0.2886110150351273  0.8699817680197089  0.6249391735401600
  0.3136110150351273  0.8699817680197089  0.6249391735401600
  0.3386110150351272  0.8699817680197089  0.6249391735401600
  0.3636110150351272  0.8699817680197089  0.6249391735401600
  0.3886110150351272  0.8699817680197089  0.6249391735401600
  0.4136110150351273  0.8699817680197089  0.6249391735401600
  0.4386110150351272  0.8699817680197089  0.6249391735401600
  0.4636110150351272  0.8699817680197089  0.6249391735401600
  0.4886110150351272  0.8699817680197089  0.6249391735401600
  0.5136110150351274  0.8699817680197089  0.6249391735401600
  0.5386110150351273  0.8699817680197089  0.6249391735401600
  0.5636110150351272  0.8699817680197089  0.6249391735401600
  0.5886110150351272  0.8699817680197089  0.6249391735401600
  0.6136110150351274  0.8699817680197089  0.6249391735401600
  0.6386110150351273  0.8699817680197089  0.6249391735401600
  0.6636110150351274  0.8699817680197089  0.6249391735401600
  0.6886110150351273  0.8699817680197089  0.6249391735401600
  0.7136110150351275  0.8699817680197089  0.6249391735401600
  0.7386110150351274  0.8699817680197089  0.6249391735401600
  0.7636110150351273  0.8699817680197089  0.6249391735401600
  0.7886110150351272  0.8699817680197089  0.6249391735401600
  0.8136110150351273  0.8699817680197089  0.6249391735401600
  0.8386110150351275  0.8699817680197089  0.6249391735401600
  0.8636110150351274  0.8699817680197089  0.6249391735401600
  0.8886110150351275  0.8699817680197089  0.6249391735401600
  0.9136110150351274  0.8699817680197089  0.6249391735401600
  0.9386110150351273  0.8699817680197089  0.6249391735401600
  0.9636110150351272  0.8699817680197089  0.6249391735401600
  0.9886110150351274  0.8699817680197089  0.6249391735401600
  0.0136110150351273  0.8949817680197089  0.6249391735401600
  0.0386110150351273  0.8949817680197089  0.6249391735401600
  0.0636110150351273  0.8949817680197089  0.6249391735401600
  0.0886110150351272  0.8949817680197089  0.6249391735401600
  0.1136110150351273  0.8949817680197089  0.6249391735401600
  0.1386110150351274  0.8949817680197089  0.6249391735401600
  0.1636110150351273  0.8949817680197089  0.6249391735401600
  0.1886110150351272  0.8949817680197089  0.6249391735401600
  0.2136110150351272  0.8949817680197089  0.6249391735401600
  0.2386110150351272  0.8949817680197089  0.6249391735401600
  0.2636110150351272  0.8949817680197089  0.6249391735401600
  0.2886110150351273  0.8949817680197089  0.6249391735401600
  0.3136110150351272  0.8949817680197089  0.6249391735401600
  0.3386110150351274  0.8949817680197089  0.6249391735401600
  0.3636110150351273  0.8949817680197089  0.6249391735401600
  0.3886110150351273  0.8949817680197089  0.6249391735401600
  0.4136110150351273  0.8949817680197089  0.6249391735401600
  0.4386110150351273  0.8949817680197089  0.6249391735401600
  0.4636110150351272  0.8949817680197089  0.6249391735401600
  0.4886110150351273  0.8949817680197089  0.6249391735401600
  0.5136110150351274  0.8949817680197089  0.6249391735401600
  0.5386110150351273  0.8949817680197089  0.6249391735401600
  0.5636110150351272  0.8949817680197089  0.6249391735401600
  0.5886110150351274  0.8949817680197089  0.6249391735401600
  0.6136110150351273  0.8949817680197089  0.6249391735401600
  0.6386110150351272  0.8949817680197089  0.6249391735401600
  0.6636110150351273  0.8949817680197089  0.6249391735401600
  0.6886110150351272  0.8949817680197089  0.6249391735401600
  0.7136110150351274  0.8949817680197089  0.6249391735401600
  0.7386110150351273  0.8949817680197089  0.6249391735401600
  0.7636110150351274  0.8949817680197089  0.6249391735401600
  0.7886110150351273  0.8949817680197089  0.6249391735401600
  0.8136110150351272  0.8949817680197089  0.6249391735401600
  0.8386110150351274  0.8949817680197089  0.6249391735401600
  0.8636110150351273  0.8949817680197089  0.6249391735401600
  0.8886110150351274  0.8949817680197089  0.6249391735401600
  0.9136110150351273  0.8949817680197089  0.6249391735401600
  0.9386110150351272  0.8949817680197089  0.6249391735401600
  0.9636110150351274  0.8949817680197089  0.6249391735401600
  0.9886110150351273  0.8949817680197089  0.6249391735401600
  0.0136110150351273  0.9199817680197089  0.6249391735401600
  0.0386110150351273  0.9199817680197089  0.6249391735401600
  0.0636110150351273  0.9199817680197089  0.6249391735401600
  0.0886110150351273  0.9199817680197089  0.6249391735401600
  0.1136110150351272  0.9199817680197089  0.6249391735401600
  0.1386110150351273  0.9199817680197089  0.6249391735401600
  0.1636110150351274  0.9199817680197089  0.6249391735401600
  0.1886110150351273  0.9199817680197089  0.6249391735401600
  0.2136110150351272  0.9199817680197089  0.6249391735401600
  0.2386110150351272  0.9199817680197089  0.6249391735401600
  0.2636110150351272  0.9199817680197089  0.6249391735401600
  0.2886110150351274  0.9199817680197089  0.6249391735401600
  0.3136110150351272  0.9199817680197089  0.6249391735401600
  0.3386110150351273  0.9199817680197089  0.6249391735401600
  0.3636110150351273  0.9199817680197089  0.6249391735401600
  0.3886110150351273  0.9199817680197089  0.6249391735401600
  0.4136110150351273  0.9199817680197089  0.6249391735401600
  0.4386110150351273  0.9199817680197089  0.6249391735401600
  0.4636110150351273  0.9199817680197089  0.6249391735401600
  0.4886110150351272  0.9199817680197089  0.6249391735401600
  0.5136110150351272  0.9199817680197089  0.6249391735401600
  0.5386110150351271  0.9199817680197089  0.6249391735401600
  0.5636110150351272  0.9199817680197089  0.6249391735401600
  0.5886110150351271  0.9199817680197089  0.6249391735401600
  0.6136110150351273  0.9199817680197089  0.6249391735401600
  0.6386110150351272  0.9199817680197089  0.6249391735401600
  0.6636110150351271  0.9199817680197089  0.6249391735401600
  0.6886110150351270  0.9199817680197089  0.6249391735401600
  0.7136110150351271  0.9199817680197089  0.6249391735401600
  0.7386110150351273  0.9199817680197089  0.6249391735401600
  0.7636110150351272  0.9199817680197089  0.6249391735401600
  0.7886110150351273  0.9199817680197089  0.6249391735401600
  0.8136110150351274  0.9199817680197089  0.6249391735401600
  0.8386110150351271  0.9199817680197089  0.6249391735401600
  0.8636110150351273  0.9199817680197089  0.6249391735401600
  0.8886110150351272  0.9199817680197089  0.6249391735401600
  0.9136110150351273  0.9199817680197089  0.6249391735401600
  0.9386110150351272  0.9199817680197089  0.6249391735401600
  0.9636110150351274  0.9199817680197089  0.6249391735401600
  0.9886110150351275  0.9199817680197089  0.6249391735401600
  0.0136110150351273  0.9449817680197088  0.6249391735401600
  0.0386110150351273  0.9449817680197088  0.6249391735401600
  0.0636110150351272  0.9449817680197088  0.6249391735401600
  0.0886110150351272  0.9449817680197088  0.6249391735401600
  0.1136110150351274  0.9449817680197088  0.6249391735401600
  0.1386110150351273  0.9449817680197088  0.6249391735401600
  0.1636110150351273  0.9449817680197088  0.6249391735401600
  0.1886110150351273  0.9449817680197088  0.6249391735401600
  0.2136110150351274  0.9449817680197088  0.6249391735401600
  0.2386110150351273  0.9449817680197088  0.6249391735401600
  0.2636110150351273  0.9449817680197088  0.6249391735401600
  0.2886110150351273  0.9449817680197088  0.6249391735401600
  0.3136110150351273  0.9449817680197088  0.6249391735401600
  0.3386110150351272  0.9449817680197088  0.6249391735401600
  0.3636110150351273  0.9449817680197088  0.6249391735401600
  0.3886110150351273  0.9449817680197088  0.6249391735401600
  0.4136110150351273  0.9449817680197088  0.6249391735401600
  0.4386110150351272  0.9449817680197088  0.6249391735401600
  0.4636110150351274  0.9449817680197088  0.6249391735401600
  0.4886110150351273  0.9449817680197088  0.6249391735401600
  0.5136110150351274  0.9449817680197088  0.6249391735401600
  0.5386110150351272  0.9449817680197088  0.6249391735401600
  0.5636110150351273  0.9449817680197088  0.6249391735401600
  0.5886110150351272  0.9449817680197088  0.6249391735401600
  0.6136110150351274  0.9449817680197088  0.6249391735401600
  0.6386110150351275  0.9449817680197088  0.6249391735401600
  0.6636110150351274  0.9449817680197088  0.6249391735401600
  0.6886110150351271  0.9449817680197088  0.6249391735401600
  0.7136110150351272  0.9449817680197088  0.6249391735401600
  0.7386110150351274  0.9449817680197088  0.6249391735401600
  0.7636110150351273  0.9449817680197088  0.6249391735401600
  0.7886110150351274  0.9449817680197088  0.6249391735401600
  0.8136110150351276  0.9449817680197088  0.6249391735401600
  0.8386110150351275  0.9449817680197088  0.6249391735401600
  0.8636110150351274  0.9449817680197088  0.6249391735401600
  0.8886110150351273  0.9449817680197088  0.6249391735401600
  0.9136110150351274  0.9449817680197088  0.6249391735401600
  0.9386110150351273  0.9449817680197088  0.6249391735401600
  0.9636110150351275  0.9449817680197088  0.6249391735401600
  0.9886110150351276  0.9449817680197088  0.6249391735401600
  0.0136110150351272  0.9699817680197088  0.6249391735401600
  0.0386110150351274  0.9699817680197088  0.6249391735401600
  0.0636110150351274  0.9699817680197088  0.6249391735401600
  0.0886110150351273  0.9699817680197088  0.6249391735401600
  0.1136110150351273  0.9699817680197088  0.6249391735401600
  0.1386110150351273  0.9699817680197088  0.6249391735401600
  0.1636110150351274  0.9699817680197088  0.6249391735401600
  0.1886110150351273  0.9699817680197088  0.6249391735401600
  0.2136110150351273  0.9699817680197088  0.6249391735401600
  0.2386110150351273  0.9699817680197088  0.6249391735401600
  0.2636110150351273  0.9699817680197088  0.6249391735401600
  0.2886110150351273  0.9699817680197088  0.6249391735401600
  0.3136110150351273  0.9699817680197088  0.6249391735401600
  0.3386110150351273  0.9699817680197088  0.6249391735401600
  0.3636110150351273  0.9699817680197088  0.6249391735401600
  0.3886110150351272  0.9699817680197088  0.6249391735401600
  0.4136110150351273  0.9699817680197088  0.6249391735401600
  0.4386110150351273  0.9699817680197088  0.6249391735401600
  0.4636110150351273  0.9699817680197088  0.6249391735401600
  0.4886110150351273  0.9699817680197088  0.6249391735401600
  0.5136110150351275  0.9699817680197088  0.6249391735401600
  0.5386110150351273  0.9699817680197088  0.6249391735401600
  0.5636110150351272  0.9699817680197088  0.6249391735401600
  0.5886110150351274  0.9699817680197088  0.6249391735401600
  0.6136110150351275  0.9699817680197088  0.6249391735401600
  0.6386110150351274  0.9699817680197088  0.6249391735401600
  0.6636110150351275  0.9699817680197088  0.6249391735401600
  0.6886110150351274  0.9699817680197088  0.6249391735401600
  0.7136110150351274  0.9699817680197088  0.6249391735401600
  0.7386110150351273  0.9699817680197088  0.6249391735401600
  0.7636110150351274  0.9699817680197088  0.6249391735401600
  0.7886110150351273  0.9699817680197088  0.6249391735401600
  0.8136110150351274  0.9699817680197088  0.6249391735401600
  0.8386110150351276  0.9699817680197088  0.6249391735401600
  0.8636110150351275  0.9699817680197088  0.6249391735401600
  0.8886110150351276  0.9699817680197088  0.6249391735401600
  0.9136110150351273  0.9699817680197088  0.6249391735401600
  0.9386110150351272  0.9699817680197088  0.6249391735401600
  0.9636110150351274  0.9699817680197088  0.6249391735401600
  0.9886110150351275  0.9699817680197088  0.6249391735401600
  0.0136110150351273  0.9949817680197088  0.6249391735401600
  0.0386110150351273  0.9949817680197088  0.6249391735401600
  0.0636110150351273  0.9949817680197088  0.6249391735401600
  0.0886110150351274  0.9949817680197088  0.6249391735401600
  0.1136110150351273  0.9949817680197088  0.6249391735401600
  0.1386110150351273  0.9949817680197088  0.6249391735401600
  0.1636110150351273  0.9949817680197088  0.6249391735401600
  0.1886110150351273  0.9949817680197088  0.6249391735401600
  0.2136110150351272  0.9949817680197088  0.6249391735401600
  0.2386110150351273  0.9949817680197088  0.6249391735401600
  0.2636110150351273  0.9949817680197088  0.6249391735401600
  0.2886110150351273  0.9949817680197088  0.6249391735401600
  0.3136110150351272  0.9949817680197088  0.6249391735401600
  0.3386110150351272  0.9949817680197088  0.6249391735401600
  0.3636110150351273  0.9949817680197088  0.6249391735401600
  0.3886110150351273  0.9949817680197088  0.6249391735401600
  0.4136110150351272  0.9949817680197088  0.6249391735401600
  0.4386110150351272  0.9949817680197088  0.6249391735401600
  0.4636110150351274  0.9949817680197088  0.6249391735401600
  0.4886110150351273  0.9949817680197088  0.6249391735401600
  0.5136110150351274  0.9949817680197088  0.6249391735401600
  0.5386110150351273  0.9949817680197088  0.6249391735401600
  0.5636110150351272  0.9949817680197088  0.6249391735401600
  0.5886110150351271  0.9949817680197088  0.6249391735401600
  0.6136110150351273  0.9949817680197088  0.6249391735401600
  0.6386110150351274  0.9949817680197088  0.6249391735401600
  0.6636110150351273  0.9949817680197088  0.6249391735401600
  0.6886110150351272  0.9949817680197088  0.6249391735401600
  0.7136110150351274  0.9949817680197088  0.6249391735401600
  0.7386110150351275  0.9949817680197088  0.6249391735401600
  0.7636110150351272  0.9949817680197088  0.6249391735401600
  0.7886110150351273  0.9949817680197088  0.6249391735401600
  0.8136110150351274  0.9949817680197088  0.6249391735401600
  0.8386110150351274  0.9949817680197088  0.6249391735401600
  0.8636110150351275  0.9949817680197088  0.6249391735401600
  0.8886110150351274  0.9949817680197088  0.6249391735401600
  0.9136110150351275  0.9949817680197088  0.6249391735401600
  0.9386110150351274  0.9949817680197088  0.6249391735401600
  0.9636110150351274  0.9949817680197088  0.6249391735401600
  0.9886110150351275  0.9949817680197088  0.6249391735401600
  0.0059052760363543  0.0103933675465965  0.5959276367889000
  0.0309052760363542  0.0103933675465965  0.5959276367889000
  0.0559052760363543  0.0103933675465965  0.5959276367889000
  0.0809052760363543  0.0103933675465965  0.5959276367889000
  0.1059052760363542  0.0103933675465965  0.5959276367889000
  0.1309052760363542  0.0103933675465965  0.5959276367889000
  0.1559052760363543  0.0103933675465965  0.5959276367889000
  0.1809052760363543  0.0103933675465965  0.5959276367889000
  0.2059052760363543  0.0103933675465965  0.5959276367889000
  0.2309052760363542  0.0103933675465965  0.5959276367889000
  0.2559052760363543  0.0103933675465965  0.5959276367889000
  0.2809052760363543  0.0103933675465965  0.5959276367889000
  0.3059052760363543  0.0103933675465965  0.5959276367889000
  0.3309052760363543  0.0103933675465965  0.5959276367889000
  0.3559052760363543  0.0103933675465965  0.5959276367889000
  0.3809052760363543  0.0103933675465965  0.5959276367889000
  0.4059052760363542  0.0103933675465965  0.5959276367889000
  0.4309052760363543  0.0103933675465965  0.5959276367889000
  0.4559052760363542  0.0103933675465965  0.5959276367889000
  0.4809052760363542  0.0103933675465965  0.5959276367889000
  0.5059052760363542  0.0103933675465965  0.5959276367889000
  0.5309052760363543  0.0103933675465965  0.5959276367889000
  0.5559052760363542  0.0103933675465965  0.5959276367889000
  0.5809052760363541  0.0103933675465965  0.5959276367889000
  0.6059052760363541  0.0103933675465965  0.5959276367889000
  0.6309052760363543  0.0103933675465965  0.5959276367889000
  0.6559052760363543  0.0103933675465965  0.5959276367889000
  0.6809052760363542  0.0103933675465965  0.5959276367889000
  0.7059052760363541  0.0103933675465965  0.5959276367889000
  0.7309052760363542  0.0103933675465965  0.5959276367889000
  0.7559052760363543  0.0103933675465965  0.5959276367889000
  0.7809052760363542  0.0103933675465965  0.5959276367889000
  0.8059052760363542  0.0103933675465965  0.5959276367889000
  0.8309052760363542  0.0103933675465965  0.5959276367889000
  0.8559052760363542  0.0103933675465965  0.5959276367889000
  0.8809052760363542  0.0103933675465965  0.5959276367889000
  0.9059052760363542  0.0103933675465965  0.5959276367889000
  0.9309052760363542  0.0103933675465965  0.5959276367889000
  0.9559052760363541  0.0103933675465965  0.5959276367889000
  0.9809052760363541  0.0103933675465965  0.5959276367889000
  0.0059052760363543  0.0353933675465965  0.5959276367889000
  0.0309052760363543  0.0353933675465965  0.5959276367889000
  0.0559052760363542  0.0353933675465965  0.5959276367889000
  0.0809052760363543  0.0353933675465965  0.5959276367889000
  0.1059052760363542  0.0353933675465965  0.5959276367889000
  0.1309052760363542  0.0353933675465965  0.5959276367889000
  0.1559052760363542  0.0353933675465965  0.5959276367889000
  0.1809052760363542  0.0353933675465965  0.5959276367889000
  0.2059052760363543  0.0353933675465965  0.5959276367889000
  0.2309052760363542  0.0353933675465965  0.5959276367889000
  0.2559052760363543  0.0353933675465965  0.5959276367889000
  0.2809052760363543  0.0353933675465965  0.5959276367889000
  0.3059052760363543  0.0353933675465965  0.5959276367889000
  0.3309052760363543  0.0353933675465965  0.5959276367889000
  0.3559052760363543  0.0353933675465965  0.5959276367889000
  0.3809052760363543  0.0353933675465965  0.5959276367889000
  0.4059052760363542  0.0353933675465965  0.5959276367889000
  0.4309052760363543  0.0353933675465965  0.5959276367889000
  0.4559052760363542  0.0353933675465965  0.5959276367889000
  0.4809052760363542  0.0353933675465965  0.5959276367889000
  0.5059052760363543  0.0353933675465965  0.5959276367889000
  0.5309052760363543  0.0353933675465965  0.5959276367889000
  0.5559052760363542  0.0353933675465965  0.5959276367889000
  0.5809052760363542  0.0353933675465965  0.5959276367889000
  0.6059052760363542  0.0353933675465965  0.5959276367889000
  0.6309052760363543  0.0353933675465965  0.5959276367889000
  0.6559052760363543  0.0353933675465965  0.5959276367889000
  0.6809052760363543  0.0353933675465965  0.5959276367889000
  0.7059052760363542  0.0353933675465965  0.5959276367889000
  0.7309052760363542  0.0353933675465965  0.5959276367889000
  0.7559052760363543  0.0353933675465965  0.5959276367889000
  0.7809052760363543  0.0353933675465965  0.5959276367889000
  0.8059052760363542  0.0353933675465965  0.5959276367889000
  0.8309052760363542  0.0353933675465965  0.5959276367889000
  0.8559052760363542  0.0353933675465965  0.5959276367889000
  0.8809052760363543  0.0353933675465965  0.5959276367889000
  0.9059052760363542  0.0353933675465965  0.5959276367889000
  0.9309052760363541  0.0353933675465965  0.5959276367889000
  0.9559052760363540  0.0353933675465965  0.5959276367889000
  0.9809052760363541  0.0353933675465965  0.5959276367889000
  0.0059052760363543  0.0603933675465965  0.5959276367889000
  0.0309052760363543  0.0603933675465965  0.5959276367889000
  0.0559052760363542  0.0603933675465965  0.5959276367889000
  0.0809052760363542  0.0603933675465965  0.5959276367889000
  0.1059052760363542  0.0603933675465965  0.5959276367889000
  0.1309052760363542  0.0603933675465965  0.5959276367889000
  0.1559052760363543  0.0603933675465965  0.5959276367889000
  0.1809052760363543  0.0603933675465965  0.5959276367889000
  0.2059052760363543  0.0603933675465965  0.5959276367889000
  0.2309052760363543  0.0603933675465965  0.5959276367889000
  0.2559052760363543  0.0603933675465965  0.5959276367889000
  0.2809052760363542  0.0603933675465965  0.5959276367889000
  0.3059052760363543  0.0603933675465965  0.5959276367889000
  0.3309052760363542  0.0603933675465965  0.5959276367889000
  0.3559052760363543  0.0603933675465965  0.5959276367889000
  0.3809052760363542  0.0603933675465965  0.5959276367889000
  0.4059052760363542  0.0603933675465965  0.5959276367889000
  0.4309052760363542  0.0603933675465965  0.5959276367889000
  0.4559052760363542  0.0603933675465965  0.5959276367889000
  0.4809052760363542  0.0603933675465965  0.5959276367889000
  0.5059052760363543  0.0603933675465965  0.5959276367889000
  0.5309052760363544  0.0603933675465965  0.5959276367889000
  0.5559052760363542  0.0603933675465965  0.5959276367889000
  0.5809052760363542  0.0603933675465965  0.5959276367889000
  0.6059052760363542  0.0603933675465965  0.5959276367889000
  0.6309052760363544  0.0603933675465965  0.5959276367889000
  0.6559052760363543  0.0603933675465965  0.5959276367889000
  0.6809052760363543  0.0603933675465965  0.5959276367889000
  0.7059052760363542  0.0603933675465965  0.5959276367889000
  0.7309052760363544  0.0603933675465965  0.5959276367889000
  0.7559052760363543  0.0603933675465965  0.5959276367889000
  0.7809052760363543  0.0603933675465965  0.5959276367889000
  0.8059052760363543  0.0603933675465965  0.5959276367889000
  0.8309052760363543  0.0603933675465965  0.5959276367889000
  0.8559052760363542  0.0603933675465965  0.5959276367889000
  0.8809052760363543  0.0603933675465965  0.5959276367889000
  0.9059052760363544  0.0603933675465965  0.5959276367889000
  0.9309052760363543  0.0603933675465965  0.5959276367889000
  0.9559052760363541  0.0603933675465965  0.5959276367889000
  0.9809052760363542  0.0603933675465965  0.5959276367889000
  0.0059052760363543  0.0853933675465965  0.5959276367889000
  0.0309052760363542  0.0853933675465965  0.5959276367889000
  0.0559052760363543  0.0853933675465965  0.5959276367889000
  0.0809052760363542  0.0853933675465965  0.5959276367889000
  0.1059052760363542  0.0853933675465965  0.5959276367889000
  0.1309052760363542  0.0853933675465965  0.5959276367889000
  0.1559052760363543  0.0853933675465965  0.5959276367889000
  0.1809052760363543  0.0853933675465965  0.5959276367889000
  0.2059052760363543  0.0853933675465965  0.5959276367889000
  0.2309052760363543  0.0853933675465965  0.5959276367889000
  0.2559052760363543  0.0853933675465965  0.5959276367889000
  0.2809052760363542  0.0853933675465965  0.5959276367889000
  0.3059052760363543  0.0853933675465965  0.5959276367889000
  0.3309052760363542  0.0853933675465965  0.5959276367889000
  0.3559052760363543  0.0853933675465965  0.5959276367889000
  0.3809052760363542  0.0853933675465965  0.5959276367889000
  0.4059052760363542  0.0853933675465965  0.5959276367889000
  0.4309052760363542  0.0853933675465965  0.5959276367889000
  0.4559052760363542  0.0853933675465965  0.5959276367889000
  0.4809052760363542  0.0853933675465965  0.5959276367889000
  0.5059052760363542  0.0853933675465965  0.5959276367889000
  0.5309052760363543  0.0853933675465965  0.5959276367889000
  0.5559052760363542  0.0853933675465965  0.5959276367889000
  0.5809052760363542  0.0853933675465965  0.5959276367889000
  0.6059052760363541  0.0853933675465965  0.5959276367889000
  0.6309052760363543  0.0853933675465965  0.5959276367889000
  0.6559052760363543  0.0853933675465965  0.5959276367889000
  0.6809052760363542  0.0853933675465965  0.5959276367889000
  0.7059052760363541  0.0853933675465965  0.5959276367889000
  0.7309052760363542  0.0853933675465965  0.5959276367889000
  0.7559052760363543  0.0853933675465965  0.5959276367889000
  0.7809052760363542  0.0853933675465965  0.5959276367889000
  0.8059052760363542  0.0853933675465965  0.5959276367889000
  0.8309052760363542  0.0853933675465965  0.5959276367889000
  0.8559052760363542  0.0853933675465965  0.5959276367889000
  0.8809052760363542  0.0853933675465965  0.5959276367889000
  0.9059052760363542  0.0853933675465965  0.5959276367889000
  0.9309052760363543  0.0853933675465965  0.5959276367889000
  0.9559052760363542  0.0853933675465965  0.5959276367889000
  0.9809052760363542  0.0853933675465965  0.5959276367889000
  0.0059052760363543  0.1103933675465965  0.5959276367889000
  0.0309052760363543  0.1103933675465965  0.5959276367889000
  0.0559052760363542  0.1103933675465965  0.5959276367889000
  0.0809052760363543  0.1103933675465965  0.5959276367889000
  0.1059052760363542  0.1103933675465965  0.5959276367889000
  0.1309052760363542  0.1103933675465965  0.5959276367889000
  0.1559052760363543  0.1103933675465965  0.5959276367889000
  0.1809052760363542  0.1103933675465965  0.5959276367889000
  0.2059052760363543  0.1103933675465965  0.5959276367889000
  0.2309052760363543  0.1103933675465965  0.5959276367889000
  0.2559052760363543  0.1103933675465965  0.5959276367889000
  0.2809052760363543  0.1103933675465965  0.5959276367889000
  0.3059052760363543  0.1103933675465965  0.5959276367889000
  0.3309052760363543  0.1103933675465965  0.5959276367889000
  0.3559052760363543  0.1103933675465965  0.5959276367889000
  0.3809052760363543  0.1103933675465965  0.5959276367889000
  0.4059052760363542  0.1103933675465965  0.5959276367889000
  0.4309052760363543  0.1103933675465965  0.5959276367889000
  0.4559052760363542  0.1103933675465965  0.5959276367889000
  0.4809052760363542  0.1103933675465965  0.5959276367889000
  0.5059052760363543  0.1103933675465965  0.5959276367889000
  0.5309052760363543  0.1103933675465965  0.5959276367889000
  0.5559052760363542  0.1103933675465965  0.5959276367889000
  0.5809052760363542  0.1103933675465965  0.5959276367889000
  0.6059052760363542  0.1103933675465965  0.5959276367889000
  0.6309052760363543  0.1103933675465965  0.5959276367889000
  0.6559052760363543  0.1103933675465965  0.5959276367889000
  0.6809052760363543  0.1103933675465965  0.5959276367889000
  0.7059052760363542  0.1103933675465965  0.5959276367889000
  0.7309052760363542  0.1103933675465965  0.5959276367889000
  0.7559052760363543  0.1103933675465965  0.5959276367889000
  0.7809052760363543  0.1103933675465965  0.5959276367889000
  0.8059052760363543  0.1103933675465965  0.5959276367889000
  0.8309052760363542  0.1103933675465965  0.5959276367889000
  0.8559052760363542  0.1103933675465965  0.5959276367889000
  0.8809052760363543  0.1103933675465965  0.5959276367889000
  0.9059052760363544  0.1103933675465965  0.5959276367889000
  0.9309052760363542  0.1103933675465965  0.5959276367889000
  0.9559052760363542  0.1103933675465965  0.5959276367889000
  0.9809052760363541  0.1103933675465965  0.5959276367889000
  0.0059052760363543  0.1353933675465965  0.5959276367889000
  0.0309052760363543  0.1353933675465965  0.5959276367889000
  0.0559052760363542  0.1353933675465965  0.5959276367889000
  0.0809052760363543  0.1353933675465965  0.5959276367889000
  0.1059052760363543  0.1353933675465965  0.5959276367889000
  0.1309052760363542  0.1353933675465965  0.5959276367889000
  0.1559052760363543  0.1353933675465965  0.5959276367889000
  0.1809052760363542  0.1353933675465965  0.5959276367889000
  0.2059052760363543  0.1353933675465965  0.5959276367889000
  0.2309052760363543  0.1353933675465965  0.5959276367889000
  0.2559052760363543  0.1353933675465965  0.5959276367889000
  0.2809052760363543  0.1353933675465965  0.5959276367889000
  0.3059052760363543  0.1353933675465965  0.5959276367889000
  0.3309052760363543  0.1353933675465965  0.5959276367889000
  0.3559052760363543  0.1353933675465965  0.5959276367889000
  0.3809052760363543  0.1353933675465965  0.5959276367889000
  0.4059052760363542  0.1353933675465965  0.5959276367889000
  0.4309052760363543  0.1353933675465965  0.5959276367889000
  0.4559052760363543  0.1353933675465965  0.5959276367889000
  0.4809052760363542  0.1353933675465965  0.5959276367889000
  0.5059052760363542  0.1353933675465965  0.5959276367889000
  0.5309052760363543  0.1353933675465965  0.5959276367889000
  0.5559052760363542  0.1353933675465965  0.5959276367889000
  0.5809052760363541  0.1353933675465965  0.5959276367889000
  0.6059052760363541  0.1353933675465965  0.5959276367889000
  0.6309052760363543  0.1353933675465965  0.5959276367889000
  0.6559052760363543  0.1353933675465965  0.5959276367889000
  0.6809052760363542  0.1353933675465965  0.5959276367889000
  0.7059052760363541  0.1353933675465965  0.5959276367889000
  0.7309052760363542  0.1353933675465965  0.5959276367889000
  0.7559052760363543  0.1353933675465965  0.5959276367889000
  0.7809052760363542  0.1353933675465965  0.5959276367889000
  0.8059052760363542  0.1353933675465965  0.5959276367889000
  0.8309052760363542  0.1353933675465965  0.5959276367889000
  0.8559052760363542  0.1353933675465965  0.5959276367889000
  0.8809052760363543  0.1353933675465965  0.5959276367889000
  0.9059052760363542  0.1353933675465965  0.5959276367889000
  0.9309052760363543  0.1353933675465965  0.5959276367889000
  0.9559052760363542  0.1353933675465965  0.5959276367889000
  0.9809052760363544  0.1353933675465965  0.5959276367889000
  0.0059052760363543  0.1603933675465965  0.5959276367889000
  0.0309052760363543  0.1603933675465965  0.5959276367889000
  0.0559052760363542  0.1603933675465965  0.5959276367889000
  0.0809052760363543  0.1603933675465965  0.5959276367889000
  0.1059052760363542  0.1603933675465965  0.5959276367889000
  0.1309052760363542  0.1603933675465965  0.5959276367889000
  0.1559052760363542  0.1603933675465965  0.5959276367889000
  0.1809052760363543  0.1603933675465965  0.5959276367889000
  0.2059052760363543  0.1603933675465965  0.5959276367889000
  0.2309052760363543  0.1603933675465965  0.5959276367889000
  0.2559052760363543  0.1603933675465965  0.5959276367889000
  0.2809052760363543  0.1603933675465965  0.5959276367889000
  0.3059052760363543  0.1603933675465965  0.5959276367889000
  0.3309052760363543  0.1603933675465965  0.5959276367889000
  0.3559052760363543  0.1603933675465965  0.5959276367889000
  0.3809052760363543  0.1603933675465965  0.5959276367889000
  0.4059052760363542  0.1603933675465965  0.5959276367889000
  0.4309052760363542  0.1603933675465965  0.5959276367889000
  0.4559052760363542  0.1603933675465965  0.5959276367889000
  0.4809052760363542  0.1603933675465965  0.5959276367889000
  0.5059052760363543  0.1603933675465965  0.5959276367889000
  0.5309052760363543  0.1603933675465965  0.5959276367889000
  0.5559052760363542  0.1603933675465965  0.5959276367889000
  0.5809052760363542  0.1603933675465965  0.5959276367889000
  0.6059052760363541  0.1603933675465965  0.5959276367889000
  0.6309052760363543  0.1603933675465965  0.5959276367889000
  0.6559052760363543  0.1603933675465965  0.5959276367889000
  0.6809052760363543  0.1603933675465965  0.5959276367889000
  0.7059052760363541  0.1603933675465965  0.5959276367889000
  0.7309052760363542  0.1603933675465965  0.5959276367889000
  0.7559052760363543  0.1603933675465965  0.5959276367889000
  0.7809052760363543  0.1603933675465965  0.5959276367889000
  0.8059052760363542  0.1603933675465965  0.5959276367889000
  0.8309052760363542  0.1603933675465965  0.5959276367889000
  0.8559052760363544  0.1603933675465965  0.5959276367889000
  0.8809052760363543  0.1603933675465965  0.5959276367889000
  0.9059052760363543  0.1603933675465965  0.5959276367889000
  0.9309052760363542  0.1603933675465965  0.5959276367889000
  0.9559052760363541  0.1603933675465965  0.5959276367889000
  0.9809052760363542  0.1603933675465965  0.5959276367889000
  0.0059052760363543  0.1853933675465965  0.5959276367889000
  0.0309052760363543  0.1853933675465965  0.5959276367889000
  0.0559052760363543  0.1853933675465965  0.5959276367889000
  0.0809052760363543  0.1853933675465965  0.5959276367889000
  0.1059052760363543  0.1853933675465965  0.5959276367889000
  0.1309052760363543  0.1853933675465965  0.5959276367889000
  0.1559052760363543  0.1853933675465965  0.5959276367889000
  0.1809052760363543  0.1853933675465965  0.5959276367889000
  0.2059052760363543  0.1853933675465965  0.5959276367889000
  0.2309052760363542  0.1853933675465965  0.5959276367889000
  0.2559052760363543  0.1853933675465965  0.5959276367889000
  0.2809052760363543  0.1853933675465965  0.5959276367889000
  0.3059052760363544  0.1853933675465965  0.5959276367889000
  0.3309052760363543  0.1853933675465965  0.5959276367889000
  0.3559052760363544  0.1853933675465965  0.5959276367889000
  0.3809052760363542  0.1853933675465965  0.5959276367889000
  0.4059052760363542  0.1853933675465965  0.5959276367889000
  0.4309052760363543  0.1853933675465965  0.5959276367889000
  0.4559052760363542  0.1853933675465965  0.5959276367889000
  0.4809052760363542  0.1853933675465965  0.5959276367889000
  0.5059052760363542  0.1853933675465965  0.5959276367889000
  0.5309052760363543  0.1853933675465965  0.5959276367889000
  0.5559052760363541  0.1853933675465965  0.5959276367889000
  0.5809052760363541  0.1853933675465965  0.5959276367889000
  0.6059052760363541  0.1853933675465965  0.5959276367889000
  0.6309052760363543  0.1853933675465965  0.5959276367889000
  0.6559052760363542  0.1853933675465965  0.5959276367889000
  0.6809052760363542  0.1853933675465965  0.5959276367889000
  0.7059052760363541  0.1853933675465965  0.5959276367889000
  0.7309052760363542  0.1853933675465965  0.5959276367889000
  0.7559052760363542  0.1853933675465965  0.5959276367889000
  0.7809052760363542  0.1853933675465965  0.5959276367889000
  0.8059052760363542  0.1853933675465965  0.5959276367889000
  0.8309052760363542  0.1853933675465965  0.5959276367889000
  0.8559052760363541  0.1853933675465965  0.5959276367889000
  0.8809052760363543  0.1853933675465965  0.5959276367889000
  0.9059052760363542  0.1853933675465965  0.5959276367889000
  0.9309052760363542  0.1853933675465965  0.5959276367889000
  0.9559052760363541  0.1853933675465965  0.5959276367889000
  0.9809052760363542  0.1853933675465965  0.5959276367889000
  0.0059052760363543  0.2103933675465965  0.5959276367889000
  0.0309052760363542  0.2103933675465965  0.5959276367889000
  0.0559052760363543  0.2103933675465965  0.5959276367889000
  0.0809052760363543  0.2103933675465965  0.5959276367889000
  0.1059052760363542  0.2103933675465965  0.5959276367889000
  0.1309052760363542  0.2103933675465965  0.5959276367889000
  0.1559052760363543  0.2103933675465965  0.5959276367889000
  0.1809052760363543  0.2103933675465965  0.5959276367889000
  0.2059052760363543  0.2103933675465965  0.5959276367889000
  0.2309052760363542  0.2103933675465965  0.5959276367889000
  0.2559052760363543  0.2103933675465965  0.5959276367889000
  0.2809052760363543  0.2103933675465965  0.5959276367889000
  0.3059052760363543  0.2103933675465965  0.5959276367889000
  0.3309052760363543  0.2103933675465965  0.5959276367889000
  0.3559052760363543  0.2103933675465965  0.5959276367889000
  0.3809052760363542  0.2103933675465965  0.5959276367889000
  0.4059052760363542  0.2103933675465965  0.5959276367889000
  0.4309052760363542  0.2103933675465965  0.5959276367889000
  0.4559052760363542  0.2103933675465965  0.5959276367889000
  0.4809052760363542  0.2103933675465965  0.5959276367889000
  0.5059052760363542  0.2103933675465965  0.5959276367889000
  0.5309052760363543  0.2103933675465965  0.5959276367889000
  0.5559052760363542  0.2103933675465965  0.5959276367889000
  0.5809052760363542  0.2103933675465965  0.5959276367889000
  0.6059052760363541  0.2103933675465965  0.5959276367889000
  0.6309052760363543  0.2103933675465965  0.5959276367889000
  0.6559052760363543  0.2103933675465965  0.5959276367889000
  0.6809052760363542  0.2103933675465965  0.5959276367889000
  0.7059052760363541  0.2103933675465965  0.5959276367889000
  0.7309052760363542  0.2103933675465965  0.5959276367889000
  0.7559052760363543  0.2103933675465965  0.5959276367889000
  0.7809052760363542  0.2103933675465965  0.5959276367889000
  0.8059052760363542  0.2103933675465965  0.5959276367889000
  0.8309052760363542  0.2103933675465965  0.5959276367889000
  0.8559052760363544  0.2103933675465965  0.5959276367889000
  0.8809052760363542  0.2103933675465965  0.5959276367889000
  0.9059052760363544  0.2103933675465965  0.5959276367889000
  0.9309052760363541  0.2103933675465965  0.5959276367889000
  0.9559052760363540  0.2103933675465965  0.5959276367889000
  0.9809052760363541  0.2103933675465965  0.5959276367889000
  0.0059052760363542  0.2353933675465965  0.5959276367889000
  0.0309052760363542  0.2353933675465965  0.5959276367889000
  0.0559052760363543  0.2353933675465965  0.5959276367889000
  0.0809052760363543  0.2353933675465965  0.5959276367889000
  0.1059052760363543  0.2353933675465965  0.5959276367889000
  0.1309052760363542  0.2353933675465965  0.5959276367889000
  0.1559052760363542  0.2353933675465965  0.5959276367889000
  0.1809052760363543  0.2353933675465965  0.5959276367889000
  0.2059052760363542  0.2353933675465965  0.5959276367889000
  0.2309052760363542  0.2353933675465965  0.5959276367889000
  0.2559052760363543  0.2353933675465965  0.5959276367889000
  0.2809052760363543  0.2353933675465965  0.5959276367889000
  0.3059052760363543  0.2353933675465965  0.5959276367889000
  0.3309052760363543  0.2353933675465965  0.5959276367889000
  0.3559052760363543  0.2353933675465965  0.5959276367889000
  0.3809052760363542  0.2353933675465965  0.5959276367889000
  0.4059052760363542  0.2353933675465965  0.5959276367889000
  0.4309052760363541  0.2353933675465965  0.5959276367889000
  0.4559052760363542  0.2353933675465965  0.5959276367889000
  0.4809052760363542  0.2353933675465965  0.5959276367889000
  0.5059052760363543  0.2353933675465965  0.5959276367889000
  0.5309052760363543  0.2353933675465965  0.5959276367889000
  0.5559052760363542  0.2353933675465965  0.5959276367889000
  0.5809052760363542  0.2353933675465965  0.5959276367889000
  0.6059052760363542  0.2353933675465965  0.5959276367889000
  0.6309052760363543  0.2353933675465965  0.5959276367889000
  0.6559052760363543  0.2353933675465965  0.5959276367889000
  0.6809052760363543  0.2353933675465965  0.5959276367889000
  0.7059052760363542  0.2353933675465965  0.5959276367889000
  0.7309052760363542  0.2353933675465965  0.5959276367889000
  0.7559052760363543  0.2353933675465965  0.5959276367889000
  0.7809052760363543  0.2353933675465965  0.5959276367889000
  0.8059052760363543  0.2353933675465965  0.5959276367889000
  0.8309052760363543  0.2353933675465965  0.5959276367889000
  0.8559052760363542  0.2353933675465965  0.5959276367889000
  0.8809052760363544  0.2353933675465965  0.5959276367889000
  0.9059052760363543  0.2353933675465965  0.5959276367889000
  0.9309052760363544  0.2353933675465965  0.5959276367889000
  0.9559052760363543  0.2353933675465965  0.5959276367889000
  0.9809052760363542  0.2353933675465965  0.5959276367889000
  0.0059052760363543  0.2603933675465965  0.5959276367889000
  0.0309052760363542  0.2603933675465965  0.5959276367889000
  0.0559052760363542  0.2603933675465965  0.5959276367889000
  0.0809052760363542  0.2603933675465965  0.5959276367889000
  0.1059052760363543  0.2603933675465965  0.5959276367889000
  0.1309052760363543  0.2603933675465965  0.5959276367889000
  0.1559052760363543  0.2603933675465965  0.5959276367889000
  0.1809052760363543  0.2603933675465965  0.5959276367889000
  0.2059052760363543  0.2603933675465965  0.5959276367889000
  0.2309052760363543  0.2603933675465965  0.5959276367889000
  0.2559052760363543  0.2603933675465965  0.5959276367889000
  0.2809052760363543  0.2603933675465965  0.5959276367889000
  0.3059052760363543  0.2603933675465965  0.5959276367889000
  0.3309052760363543  0.2603933675465965  0.5959276367889000
  0.3559052760363543  0.2603933675465965  0.5959276367889000
  0.3809052760363543  0.2603933675465965  0.5959276367889000
  0.4059052760363543  0.2603933675465965  0.5959276367889000
  0.4309052760363543  0.2603933675465965  0.5959276367889000
  0.4559052760363542  0.2603933675465965  0.5959276367889000
  0.4809052760363542  0.2603933675465965  0.5959276367889000
  0.5059052760363543  0.2603933675465965  0.5959276367889000
  0.5309052760363544  0.2603933675465965  0.5959276367889000
  0.5559052760363542  0.2603933675465965  0.5959276367889000
  0.5809052760363542  0.2603933675465965  0.5959276367889000
  0.6059052760363542  0.2603933675465965  0.5959276367889000
  0.6309052760363544  0.2603933675465965  0.5959276367889000
  0.6559052760363543  0.2603933675465965  0.5959276367889000
  0.6809052760363543  0.2603933675465965  0.5959276367889000
  0.7059052760363542  0.2603933675465965  0.5959276367889000
  0.7309052760363544  0.2603933675465965  0.5959276367889000
  0.7559052760363543  0.2603933675465965  0.5959276367889000
  0.7809052760363543  0.2603933675465965  0.5959276367889000
  0.8059052760363543  0.2603933675465965  0.5959276367889000
  0.8309052760363542  0.2603933675465965  0.5959276367889000
  0.8559052760363542  0.2603933675465965  0.5959276367889000
  0.8809052760363542  0.2603933675465965  0.5959276367889000
  0.9059052760363543  0.2603933675465965  0.5959276367889000
  0.9309052760363542  0.2603933675465965  0.5959276367889000
  0.9559052760363541  0.2603933675465965  0.5959276367889000
  0.9809052760363542  0.2603933675465965  0.5959276367889000
  0.0059052760363543  0.2853933675465965  0.5959276367889000
  0.0309052760363543  0.2853933675465965  0.5959276367889000
  0.0559052760363543  0.2853933675465965  0.5959276367889000
  0.0809052760363543  0.2853933675465965  0.5959276367889000
  0.1059052760363542  0.2853933675465965  0.5959276367889000
  0.1309052760363542  0.2853933675465965  0.5959276367889000
  0.1559052760363543  0.2853933675465965  0.5959276367889000
  0.1809052760363542  0.2853933675465965  0.5959276367889000
  0.2059052760363543  0.2853933675465965  0.5959276367889000
  0.2309052760363542  0.2853933675465965  0.5959276367889000
  0.2559052760363543  0.2853933675465965  0.5959276367889000
  0.2809052760363543  0.2853933675465965  0.5959276367889000
  0.3059052760363544  0.2853933675465965  0.5959276367889000
  0.3309052760363542  0.2853933675465965  0.5959276367889000
  0.3559052760363544  0.2853933675465965  0.5959276367889000
  0.3809052760363543  0.2853933675465965  0.5959276367889000
  0.4059052760363542  0.2853933675465965  0.5959276367889000
  0.4309052760363542  0.2853933675465965  0.5959276367889000
  0.4559052760363542  0.2853933675465965  0.5959276367889000
  0.4809052760363542  0.2853933675465965  0.5959276367889000
  0.5059052760363542  0.2853933675465965  0.5959276367889000
  0.5309052760363543  0.2853933675465965  0.5959276367889000
  0.5559052760363542  0.2853933675465965  0.5959276367889000
  0.5809052760363542  0.2853933675465965  0.5959276367889000
  0.6059052760363541  0.2853933675465965  0.5959276367889000
  0.6309052760363543  0.2853933675465965  0.5959276367889000
  0.6559052760363543  0.2853933675465965  0.5959276367889000
  0.6809052760363543  0.2853933675465965  0.5959276367889000
  0.7059052760363541  0.2853933675465965  0.5959276367889000
  0.7309052760363542  0.2853933675465965  0.5959276367889000
  0.7559052760363543  0.2853933675465965  0.5959276367889000
  0.7809052760363543  0.2853933675465965  0.5959276367889000
  0.8059052760363542  0.2853933675465965  0.5959276367889000
  0.8309052760363543  0.2853933675465965  0.5959276367889000
  0.8559052760363542  0.2853933675465965  0.5959276367889000
  0.8809052760363543  0.2853933675465965  0.5959276367889000
  0.9059052760363542  0.2853933675465965  0.5959276367889000
  0.9309052760363543  0.2853933675465965  0.5959276367889000
  0.9559052760363542  0.2853933675465965  0.5959276367889000
  0.9809052760363544  0.2853933675465965  0.5959276367889000
  0.0059052760363543  0.3103933675465965  0.5959276367889000
  0.0309052760363543  0.3103933675465965  0.5959276367889000
  0.0559052760363543  0.3103933675465965  0.5959276367889000
  0.0809052760363543  0.3103933675465965  0.5959276367889000
  0.1059052760363543  0.3103933675465965  0.5959276367889000
  0.1309052760363542  0.3103933675465965  0.5959276367889000
  0.1559052760363543  0.3103933675465965  0.5959276367889000
  0.1809052760363542  0.3103933675465965  0.5959276367889000
  0.2059052760363543  0.3103933675465965  0.5959276367889000
  0.2309052760363543  0.3103933675465965  0.5959276367889000
  0.2559052760363543  0.3103933675465965  0.5959276367889000
  0.2809052760363543  0.3103933675465965  0.5959276367889000
  0.3059052760363544  0.3103933675465965  0.5959276367889000
  0.3309052760363543  0.3103933675465965  0.5959276367889000
  0.3559052760363543  0.3103933675465965  0.5959276367889000
  0.3809052760363543  0.3103933675465965  0.5959276367889000
  0.4059052760363543  0.3103933675465965  0.5959276367889000
  0.4309052760363544  0.3103933675465965  0.5959276367889000
  0.4559052760363543  0.3103933675465965  0.5959276367889000
  0.4809052760363543  0.3103933675465965  0.5959276367889000
  0.5059052760363543  0.3103933675465965  0.5959276367889000
  0.5309052760363543  0.3103933675465965  0.5959276367889000
  0.5559052760363542  0.3103933675465965  0.5959276367889000
  0.5809052760363542  0.3103933675465965  0.5959276367889000
  0.6059052760363542  0.3103933675465965  0.5959276367889000
  0.6309052760363543  0.3103933675465965  0.5959276367889000
  0.6559052760363543  0.3103933675465965  0.5959276367889000
  0.6809052760363543  0.3103933675465965  0.5959276367889000
  0.7059052760363542  0.3103933675465965  0.5959276367889000
  0.7309052760363542  0.3103933675465965  0.5959276367889000
  0.7559052760363543  0.3103933675465965  0.5959276367889000
  0.7809052760363542  0.3103933675465965  0.5959276367889000
  0.8059052760363543  0.3103933675465965  0.5959276367889000
  0.8309052760363541  0.3103933675465965  0.5959276367889000
  0.8559052760363544  0.3103933675465965  0.5959276367889000
  0.8809052760363540  0.3103933675465965  0.5959276367889000
  0.9059052760363542  0.3103933675465965  0.5959276367889000
  0.9309052760363541  0.3103933675465965  0.5959276367889000
  0.9559052760363540  0.3103933675465965  0.5959276367889000
  0.9809052760363541  0.3103933675465965  0.5959276367889000
  0.0059052760363543  0.3353933675465965  0.5959276367889000
  0.0309052760363543  0.3353933675465965  0.5959276367889000
  0.0559052760363543  0.3353933675465965  0.5959276367889000
  0.0809052760363543  0.3353933675465965  0.5959276367889000
  0.1059052760363543  0.3353933675465965  0.5959276367889000
  0.1309052760363543  0.3353933675465965  0.5959276367889000
  0.1559052760363543  0.3353933675465965  0.5959276367889000
  0.1809052760363543  0.3353933675465965  0.5959276367889000
  0.2059052760363543  0.3353933675465965  0.5959276367889000
  0.2309052760363543  0.3353933675465965  0.5959276367889000
  0.2559052760363543  0.3353933675465965  0.5959276367889000
  0.2809052760363543  0.3353933675465965  0.5959276367889000
  0.3059052760363543  0.3353933675465965  0.5959276367889000
  0.3309052760363543  0.3353933675465965  0.5959276367889000
  0.3559052760363544  0.3353933675465965  0.5959276367889000
  0.3809052760363543  0.3353933675465965  0.5959276367889000
  0.4059052760363543  0.3353933675465965  0.5959276367889000
  0.4309052760363543  0.3353933675465965  0.5959276367889000
  0.4559052760363543  0.3353933675465965  0.5959276367889000
  0.4809052760363542  0.3353933675465965  0.5959276367889000
  0.5059052760363543  0.3353933675465965  0.5959276367889000
  0.5309052760363544  0.3353933675465965  0.5959276367889000
  0.5559052760363543  0.3353933675465965  0.5959276367889000
  0.5809052760363542  0.3353933675465965  0.5959276367889000
  0.6059052760363542  0.3353933675465965  0.5959276367889000
  0.6309052760363544  0.3353933675465965  0.5959276367889000
  0.6559052760363544  0.3353933675465965  0.5959276367889000
  0.6809052760363543  0.3353933675465965  0.5959276367889000
  0.7059052760363542  0.3353933675465965  0.5959276367889000
  0.7309052760363544  0.3353933675465965  0.5959276367889000
  0.7559052760363544  0.3353933675465965  0.5959276367889000
  0.7809052760363543  0.3353933675465965  0.5959276367889000
  0.8059052760363542  0.3353933675465965  0.5959276367889000
  0.8309052760363543  0.3353933675465965  0.5959276367889000
  0.8559052760363542  0.3353933675465965  0.5959276367889000
  0.8809052760363544  0.3353933675465965  0.5959276367889000
  0.9059052760363543  0.3353933675465965  0.5959276367889000
  0.9309052760363542  0.3353933675465965  0.5959276367889000
  0.9559052760363541  0.3353933675465965  0.5959276367889000
  0.9809052760363542  0.3353933675465965  0.5959276367889000
  0.0059052760363543  0.3603933675465966  0.5959276367889000
  0.0309052760363543  0.3603933675465966  0.5959276367889000
  0.0559052760363543  0.3603933675465966  0.5959276367889000
  0.0809052760363543  0.3603933675465966  0.5959276367889000
  0.1059052760363542  0.3603933675465966  0.5959276367889000
  0.1309052760363543  0.3603933675465966  0.5959276367889000
  0.1559052760363542  0.3603933675465966  0.5959276367889000
  0.1809052760363543  0.3603933675465966  0.5959276367889000
  0.2059052760363543  0.3603933675465966  0.5959276367889000
  0.2309052760363543  0.3603933675465966  0.5959276367889000
  0.2559052760363543  0.3603933675465966  0.5959276367889000
  0.2809052760363543  0.3603933675465966  0.5959276367889000
  0.3059052760363543  0.3603933675465966  0.5959276367889000
  0.3309052760363543  0.3603933675465966  0.5959276367889000
  0.3559052760363543  0.3603933675465966  0.5959276367889000
  0.3809052760363543  0.3603933675465966  0.5959276367889000
  0.4059052760363543  0.3603933675465966  0.5959276367889000
  0.4309052760363543  0.3603933675465966  0.5959276367889000
  0.4559052760363543  0.3603933675465966  0.5959276367889000
  0.4809052760363543  0.3603933675465966  0.5959276367889000
  0.5059052760363543  0.3603933675465966  0.5959276367889000
  0.5309052760363543  0.3603933675465966  0.5959276367889000
  0.5559052760363542  0.3603933675465966  0.5959276367889000
  0.5809052760363542  0.3603933675465966  0.5959276367889000
  0.6059052760363542  0.3603933675465966  0.5959276367889000
  0.6309052760363543  0.3603933675465966  0.5959276367889000
  0.6559052760363543  0.3603933675465966  0.5959276367889000
  0.6809052760363543  0.3603933675465966  0.5959276367889000
  0.7059052760363542  0.3603933675465966  0.5959276367889000
  0.7309052760363542  0.3603933675465966  0.5959276367889000
  0.7559052760363543  0.3603933675465966  0.5959276367889000
  0.7809052760363542  0.3603933675465966  0.5959276367889000
  0.8059052760363542  0.3603933675465966  0.5959276367889000
  0.8309052760363541  0.3603933675465966  0.5959276367889000
  0.8559052760363542  0.3603933675465966  0.5959276367889000
  0.8809052760363542  0.3603933675465966  0.5959276367889000
  0.9059052760363543  0.3603933675465966  0.5959276367889000
  0.9309052760363542  0.3603933675465966  0.5959276367889000
  0.9559052760363541  0.3603933675465966  0.5959276367889000
  0.9809052760363540  0.3603933675465966  0.5959276367889000
  0.0059052760363543  0.3853933675465965  0.5959276367889000
  0.0309052760363543  0.3853933675465965  0.5959276367889000
  0.0559052760363543  0.3853933675465965  0.5959276367889000
  0.0809052760363543  0.3853933675465965  0.5959276367889000
  0.1059052760363542  0.3853933675465965  0.5959276367889000
  0.1309052760363543  0.3853933675465965  0.5959276367889000
  0.1559052760363543  0.3853933675465965  0.5959276367889000
  0.1809052760363543  0.3853933675465965  0.5959276367889000
  0.2059052760363543  0.3853933675465965  0.5959276367889000
  0.2309052760363542  0.3853933675465965  0.5959276367889000
  0.2559052760363543  0.3853933675465965  0.5959276367889000
  0.2809052760363543  0.3853933675465965  0.5959276367889000
  0.3059052760363543  0.3853933675465965  0.5959276367889000
  0.3309052760363543  0.3853933675465965  0.5959276367889000
  0.3559052760363542  0.3853933675465965  0.5959276367889000
  0.3809052760363543  0.3853933675465965  0.5959276367889000
  0.4059052760363543  0.3853933675465965  0.5959276367889000
  0.4309052760363543  0.3853933675465965  0.5959276367889000
  0.4559052760363542  0.3853933675465965  0.5959276367889000
  0.4809052760363542  0.3853933675465965  0.5959276367889000
  0.5059052760363543  0.3853933675465965  0.5959276367889000
  0.5309052760363544  0.3853933675465965  0.5959276367889000
  0.5559052760363542  0.3853933675465965  0.5959276367889000
  0.5809052760363542  0.3853933675465965  0.5959276367889000
  0.6059052760363542  0.3853933675465965  0.5959276367889000
  0.6309052760363544  0.3853933675465965  0.5959276367889000
  0.6559052760363543  0.3853933675465965  0.5959276367889000
  0.6809052760363543  0.3853933675465965  0.5959276367889000
  0.7059052760363542  0.3853933675465965  0.5959276367889000
  0.7309052760363544  0.3853933675465965  0.5959276367889000
  0.7559052760363542  0.3853933675465965  0.5959276367889000
  0.7809052760363543  0.3853933675465965  0.5959276367889000
  0.8059052760363542  0.3853933675465965  0.5959276367889000
  0.8309052760363542  0.3853933675465965  0.5959276367889000
  0.8559052760363541  0.3853933675465965  0.5959276367889000
  0.8809052760363543  0.3853933675465965  0.5959276367889000
  0.9059052760363542  0.3853933675465965  0.5959276367889000
  0.9309052760363543  0.3853933675465965  0.5959276367889000
  0.9559052760363542  0.3853933675465965  0.5959276367889000
  0.9809052760363544  0.3853933675465965  0.5959276367889000
  0.0059052760363543  0.4103933675465966  0.5959276367889000
  0.0309052760363543  0.4103933675465966  0.5959276367889000
  0.0559052760363543  0.4103933675465966  0.5959276367889000
  0.0809052760363543  0.4103933675465966  0.5959276367889000
  0.1059052760363543  0.4103933675465966  0.5959276367889000
  0.1309052760363543  0.4103933675465966  0.5959276367889000
  0.1559052760363543  0.4103933675465966  0.5959276367889000
  0.1809052760363543  0.4103933675465966  0.5959276367889000
  0.2059052760363543  0.4103933675465966  0.5959276367889000
  0.2309052760363543  0.4103933675465966  0.5959276367889000
  0.2559052760363543  0.4103933675465966  0.5959276367889000
  0.2809052760363543  0.4103933675465966  0.5959276367889000
  0.3059052760363544  0.4103933675465966  0.5959276367889000
  0.3309052760363543  0.4103933675465966  0.5959276367889000
  0.3559052760363544  0.4103933675465966  0.5959276367889000
  0.3809052760363543  0.4103933675465966  0.5959276367889000
  0.4059052760363542  0.4103933675465966  0.5959276367889000
  0.4309052760363543  0.4103933675465966  0.5959276367889000
  0.4559052760363543  0.4103933675465966  0.5959276367889000
  0.4809052760363543  0.4103933675465966  0.5959276367889000
  0.5059052760363543  0.4103933675465966  0.5959276367889000
  0.5309052760363544  0.4103933675465966  0.5959276367889000
  0.5559052760363543  0.4103933675465966  0.5959276367889000
  0.5809052760363543  0.4103933675465966  0.5959276367889000
  0.6059052760363542  0.4103933675465966  0.5959276367889000
  0.6309052760363544  0.4103933675465966  0.5959276367889000
  0.6559052760363544  0.4103933675465966  0.5959276367889000
  0.6809052760363543  0.4103933675465966  0.5959276367889000
  0.7059052760363542  0.4103933675465966  0.5959276367889000
  0.7309052760363545  0.4103933675465966  0.5959276367889000
  0.7559052760363544  0.4103933675465966  0.5959276367889000
  0.7809052760363544  0.4103933675465966  0.5959276367889000
  0.8059052760363544  0.4103933675465966  0.5959276367889000
  0.8309052760363543  0.4103933675465966  0.5959276367889000
  0.8559052760363542  0.4103933675465966  0.5959276367889000
  0.8809052760363544  0.4103933675465966  0.5959276367889000
  0.9059052760363543  0.4103933675465966  0.5959276367889000
  0.9309052760363544  0.4103933675465966  0.5959276367889000
  0.9559052760363543  0.4103933675465966  0.5959276367889000
  0.9809052760363545  0.4103933675465966  0.5959276367889000
  0.0059052760363542  0.4353933675465966  0.5959276367889000
  0.0309052760363543  0.4353933675465966  0.5959276367889000
  0.0559052760363543  0.4353933675465966  0.5959276367889000
  0.0809052760363543  0.4353933675465966  0.5959276367889000
  0.1059052760363543  0.4353933675465966  0.5959276367889000
  0.1309052760363542  0.4353933675465966  0.5959276367889000
  0.1559052760363543  0.4353933675465966  0.5959276367889000
  0.1809052760363542  0.4353933675465966  0.5959276367889000
  0.2059052760363543  0.4353933675465966  0.5959276367889000
  0.2309052760363543  0.4353933675465966  0.5959276367889000
  0.2559052760363543  0.4353933675465966  0.5959276367889000
  0.2809052760363543  0.4353933675465966  0.5959276367889000
  0.3059052760363544  0.4353933675465966  0.5959276367889000
  0.3309052760363542  0.4353933675465966  0.5959276367889000
  0.3559052760363544  0.4353933675465966  0.5959276367889000
  0.3809052760363543  0.4353933675465966  0.5959276367889000
  0.4059052760363543  0.4353933675465966  0.5959276367889000
  0.4309052760363542  0.4353933675465966  0.5959276367889000
  0.4559052760363542  0.4353933675465966  0.5959276367889000
  0.4809052760363542  0.4353933675465966  0.5959276367889000
  0.5059052760363543  0.4353933675465966  0.5959276367889000
  0.5309052760363543  0.4353933675465966  0.5959276367889000
  0.5559052760363542  0.4353933675465966  0.5959276367889000
  0.5809052760363542  0.4353933675465966  0.5959276367889000
  0.6059052760363542  0.4353933675465966  0.5959276367889000
  0.6309052760363543  0.4353933675465966  0.5959276367889000
  0.6559052760363543  0.4353933675465966  0.5959276367889000
  0.6809052760363543  0.4353933675465966  0.5959276367889000
  0.7059052760363542  0.4353933675465966  0.5959276367889000
  0.7309052760363542  0.4353933675465966  0.5959276367889000
  0.7559052760363544  0.4353933675465966  0.5959276367889000
  0.7809052760363543  0.4353933675465966  0.5959276367889000
  0.8059052760363544  0.4353933675465966  0.5959276367889000
  0.8309052760363543  0.4353933675465966  0.5959276367889000
  0.8559052760363545  0.4353933675465966  0.5959276367889000
  0.8809052760363542  0.4353933675465966  0.5959276367889000
  0.9059052760363543  0.4353933675465966  0.5959276367889000
  0.9309052760363542  0.4353933675465966  0.5959276367889000
  0.9559052760363541  0.4353933675465966  0.5959276367889000
  0.9809052760363542  0.4353933675465966  0.5959276367889000
  0.0059052760363543  0.4603933675465965  0.5959276367889000
  0.0309052760363543  0.4603933675465965  0.5959276367889000
  0.0559052760363543  0.4603933675465965  0.5959276367889000
  0.0809052760363543  0.4603933675465965  0.5959276367889000
  0.1059052760363543  0.4603933675465965  0.5959276367889000
  0.1309052760363543  0.4603933675465965  0.5959276367889000
  0.1559052760363543  0.4603933675465965  0.5959276367889000
  0.1809052760363543  0.4603933675465965  0.5959276367889000
  0.2059052760363543  0.4603933675465965  0.5959276367889000
  0.2309052760363543  0.4603933675465965  0.5959276367889000
  0.2559052760363543  0.4603933675465965  0.5959276367889000
  0.2809052760363542  0.4603933675465965  0.5959276367889000
  0.3059052760363544  0.4603933675465965  0.5959276367889000
  0.3309052760363543  0.4603933675465965  0.5959276367889000
  0.3559052760363544  0.4603933675465965  0.5959276367889000
  0.3809052760363542  0.4603933675465965  0.5959276367889000
  0.4059052760363542  0.4603933675465965  0.5959276367889000
  0.4309052760363543  0.4603933675465965  0.5959276367889000
  0.4559052760363543  0.4603933675465965  0.5959276367889000
  0.4809052760363542  0.4603933675465965  0.5959276367889000
  0.5059052760363543  0.4603933675465965  0.5959276367889000
  0.5309052760363544  0.4603933675465965  0.5959276367889000
  0.5559052760363543  0.4603933675465965  0.5959276367889000
  0.5809052760363542  0.4603933675465965  0.5959276367889000
  0.6059052760363542  0.4603933675465965  0.5959276367889000
  0.6309052760363544  0.4603933675465965  0.5959276367889000
  0.6559052760363544  0.4603933675465965  0.5959276367889000
  0.6809052760363543  0.4603933675465965  0.5959276367889000
  0.7059052760363543  0.4603933675465965  0.5959276367889000
  0.7309052760363545  0.4603933675465965  0.5959276367889000
  0.7559052760363544  0.4603933675465965  0.5959276367889000
  0.7809052760363544  0.4603933675465965  0.5959276367889000
  0.8059052760363543  0.4603933675465965  0.5959276367889000
  0.8309052760363544  0.4603933675465965  0.5959276367889000
  0.8559052760363544  0.4603933675465965  0.5959276367889000
  0.8809052760363545  0.4603933675465965  0.5959276367889000
  0.9059052760363542  0.4603933675465965  0.5959276367889000
  0.9309052760363543  0.4603933675465965  0.5959276367889000
  0.9559052760363542  0.4603933675465965  0.5959276367889000
  0.9809052760363544  0.4603933675465965  0.5959276367889000
  0.0059052760363543  0.4853933675465966  0.5959276367889000
  0.0309052760363543  0.4853933675465966  0.5959276367889000
  0.0559052760363543  0.4853933675465966  0.5959276367889000
  0.0809052760363543  0.4853933675465966  0.5959276367889000
  0.1059052760363543  0.4853933675465966  0.5959276367889000
  0.1309052760363543  0.4853933675465966  0.5959276367889000
  0.1559052760363543  0.4853933675465966  0.5959276367889000
  0.1809052760363543  0.4853933675465966  0.5959276367889000
  0.2059052760363543  0.4853933675465966  0.5959276367889000
  0.2309052760363543  0.4853933675465966  0.5959276367889000
  0.2559052760363543  0.4853933675465966  0.5959276367889000
  0.2809052760363543  0.4853933675465966  0.5959276367889000
  0.3059052760363543  0.4853933675465966  0.5959276367889000
  0.3309052760363542  0.4853933675465966  0.5959276367889000
  0.3559052760363544  0.4853933675465966  0.5959276367889000
  0.3809052760363543  0.4853933675465966  0.5959276367889000
  0.4059052760363542  0.4853933675465966  0.5959276367889000
  0.4309052760363542  0.4853933675465966  0.5959276367889000
  0.4559052760363542  0.4853933675465966  0.5959276367889000
  0.4809052760363542  0.4853933675465966  0.5959276367889000
  0.5059052760363542  0.4853933675465966  0.5959276367889000
  0.5309052760363543  0.4853933675465966  0.5959276367889000
  0.5559052760363542  0.4853933675465966  0.5959276367889000
  0.5809052760363542  0.4853933675465966  0.5959276367889000
  0.6059052760363541  0.4853933675465966  0.5959276367889000
  0.6309052760363543  0.4853933675465966  0.5959276367889000
  0.6559052760363543  0.4853933675465966  0.5959276367889000
  0.6809052760363543  0.4853933675465966  0.5959276367889000
  0.7059052760363541  0.4853933675465966  0.5959276367889000
  0.7309052760363542  0.4853933675465966  0.5959276367889000
  0.7559052760363544  0.4853933675465966  0.5959276367889000
  0.7809052760363542  0.4853933675465966  0.5959276367889000
  0.8059052760363543  0.4853933675465966  0.5959276367889000
  0.8309052760363542  0.4853933675465966  0.5959276367889000
  0.8559052760363544  0.4853933675465966  0.5959276367889000
  0.8809052760363543  0.4853933675465966  0.5959276367889000
  0.9059052760363544  0.4853933675465966  0.5959276367889000
  0.9309052760363543  0.4853933675465966  0.5959276367889000
  0.9559052760363540  0.4853933675465966  0.5959276367889000
  0.9809052760363541  0.4853933675465966  0.5959276367889000
  0.0059052760363543  0.5103933675465966  0.5959276367889000
  0.0309052760363543  0.5103933675465966  0.5959276367889000
  0.0559052760363543  0.5103933675465966  0.5959276367889000
  0.0809052760363543  0.5103933675465966  0.5959276367889000
  0.1059052760363543  0.5103933675465966  0.5959276367889000
  0.1309052760363542  0.5103933675465966  0.5959276367889000
  0.1559052760363543  0.5103933675465966  0.5959276367889000
  0.1809052760363543  0.5103933675465966  0.5959276367889000
  0.2059052760363543  0.5103933675465966  0.5959276367889000
  0.2309052760363543  0.5103933675465966  0.5959276367889000
  0.2559052760363542  0.5103933675465966  0.5959276367889000
  0.2809052760363542  0.5103933675465966  0.5959276367889000
  0.3059052760363544  0.5103933675465966  0.5959276367889000
  0.3309052760363543  0.5103933675465966  0.5959276367889000
  0.3559052760363543  0.5103933675465966  0.5959276367889000
  0.3809052760363542  0.5103933675465966  0.5959276367889000
  0.4059052760363542  0.5103933675465966  0.5959276367889000
  0.4309052760363543  0.5103933675465966  0.5959276367889000
  0.4559052760363542  0.5103933675465966  0.5959276367889000
  0.4809052760363542  0.5103933675465966  0.5959276367889000
  0.5059052760363543  0.5103933675465966  0.5959276367889000
  0.5309052760363544  0.5103933675465966  0.5959276367889000
  0.5559052760363542  0.5103933675465966  0.5959276367889000
  0.5809052760363542  0.5103933675465966  0.5959276367889000
  0.6059052760363542  0.5103933675465966  0.5959276367889000
  0.6309052760363544  0.5103933675465966  0.5959276367889000
  0.6559052760363543  0.5103933675465966  0.5959276367889000
  0.6809052760363544  0.5103933675465966  0.5959276367889000
  0.7059052760363543  0.5103933675465966  0.5959276367889000
  0.7309052760363544  0.5103933675465966  0.5959276367889000
  0.7559052760363544  0.5103933675465966  0.5959276367889000
  0.7809052760363543  0.5103933675465966  0.5959276367889000
  0.8059052760363542  0.5103933675465966  0.5959276367889000
  0.8309052760363543  0.5103933675465966  0.5959276367889000
  0.8559052760363542  0.5103933675465966  0.5959276367889000
  0.8809052760363544  0.5103933675465966  0.5959276367889000
  0.9059052760363543  0.5103933675465966  0.5959276367889000
  0.9309052760363544  0.5103933675465966  0.5959276367889000
  0.9559052760363543  0.5103933675465966  0.5959276367889000
  0.9809052760363542  0.5103933675465966  0.5959276367889000
  0.0059052760363543  0.5353933675465966  0.5959276367889000
  0.0309052760363542  0.5353933675465966  0.5959276367889000
  0.0559052760363543  0.5353933675465966  0.5959276367889000
  0.0809052760363543  0.5353933675465966  0.5959276367889000
  0.1059052760363543  0.5353933675465966  0.5959276367889000
  0.1309052760363543  0.5353933675465966  0.5959276367889000
  0.1559052760363543  0.5353933675465966  0.5959276367889000
  0.1809052760363543  0.5353933675465966  0.5959276367889000
  0.2059052760363543  0.5353933675465966  0.5959276367889000
  0.2309052760363542  0.5353933675465966  0.5959276367889000
  0.2559052760363544  0.5353933675465966  0.5959276367889000
  0.2809052760363543  0.5353933675465966  0.5959276367889000
  0.3059052760363543  0.5353933675465966  0.5959276367889000
  0.3309052760363543  0.5353933675465966  0.5959276367889000
  0.3559052760363544  0.5353933675465966  0.5959276367889000
  0.3809052760363543  0.5353933675465966  0.5959276367889000
  0.4059052760363543  0.5353933675465966  0.5959276367889000
  0.4309052760363543  0.5353933675465966  0.5959276367889000
  0.4559052760363543  0.5353933675465966  0.5959276367889000
  0.4809052760363542  0.5353933675465966  0.5959276367889000
  0.5059052760363543  0.5353933675465966  0.5959276367889000
  0.5309052760363544  0.5353933675465966  0.5959276367889000
  0.5559052760363543  0.5353933675465966  0.5959276367889000
  0.5809052760363542  0.5353933675465966  0.5959276367889000
  0.6059052760363542  0.5353933675465966  0.5959276367889000
  0.6309052760363544  0.5353933675465966  0.5959276367889000
  0.6559052760363544  0.5353933675465966  0.5959276367889000
  0.6809052760363542  0.5353933675465966  0.5959276367889000
  0.7059052760363541  0.5353933675465966  0.5959276367889000
  0.7309052760363542  0.5353933675465966  0.5959276367889000
  0.7559052760363544  0.5353933675465966  0.5959276367889000
  0.7809052760363543  0.5353933675465966  0.5959276367889000
  0.8059052760363544  0.5353933675465966  0.5959276367889000
  0.8309052760363541  0.5353933675465966  0.5959276367889000
  0.8559052760363542  0.5353933675465966  0.5959276367889000
  0.8809052760363542  0.5353933675465966  0.5959276367889000
  0.9059052760363543  0.5353933675465966  0.5959276367889000
  0.9309052760363542  0.5353933675465966  0.5959276367889000
  0.9559052760363541  0.5353933675465966  0.5959276367889000
  0.9809052760363542  0.5353933675465966  0.5959276367889000
  0.0059052760363543  0.5603933675465965  0.5959276367889000
  0.0309052760363543  0.5603933675465965  0.5959276367889000
  0.0559052760363543  0.5603933675465965  0.5959276367889000
  0.0809052760363543  0.5603933675465965  0.5959276367889000
  0.1059052760363543  0.5603933675465965  0.5959276367889000
  0.1309052760363543  0.5603933675465965  0.5959276367889000
  0.1559052760363542  0.5603933675465965  0.5959276367889000
  0.1809052760363543  0.5603933675465965  0.5959276367889000
  0.2059052760363543  0.5603933675465965  0.5959276367889000
  0.2309052760363542  0.5603933675465965  0.5959276367889000
  0.2559052760363543  0.5603933675465965  0.5959276367889000
  0.2809052760363543  0.5603933675465965  0.5959276367889000
  0.3059052760363544  0.5603933675465965  0.5959276367889000
  0.3309052760363542  0.5603933675465965  0.5959276367889000
  0.3559052760363544  0.5603933675465965  0.5959276367889000
  0.3809052760363543  0.5603933675465965  0.5959276367889000
  0.4059052760363543  0.5603933675465965  0.5959276367889000
  0.4309052760363542  0.5603933675465965  0.5959276367889000
  0.4559052760363542  0.5603933675465965  0.5959276367889000
  0.4809052760363542  0.5603933675465965  0.5959276367889000
  0.5059052760363543  0.5603933675465965  0.5959276367889000
  0.5309052760363543  0.5603933675465965  0.5959276367889000
  0.5559052760363542  0.5603933675465965  0.5959276367889000
  0.5809052760363542  0.5603933675465965  0.5959276367889000
  0.6059052760363542  0.5603933675465965  0.5959276367889000
  0.6309052760363543  0.5603933675465965  0.5959276367889000
  0.6559052760363543  0.5603933675465965  0.5959276367889000
  0.6809052760363544  0.5603933675465965  0.5959276367889000
  0.7059052760363543  0.5603933675465965  0.5959276367889000
  0.7309052760363544  0.5603933675465965  0.5959276367889000
  0.7559052760363543  0.5603933675465965  0.5959276367889000
  0.7809052760363544  0.5603933675465965  0.5959276367889000
  0.8059052760363543  0.5603933675465965  0.5959276367889000
  0.8309052760363544  0.5603933675465965  0.5959276367889000
  0.8559052760363544  0.5603933675465965  0.5959276367889000
  0.8809052760363543  0.5603933675465965  0.5959276367889000
  0.9059052760363542  0.5603933675465965  0.5959276367889000
  0.9309052760363543  0.5603933675465965  0.5959276367889000
  0.9559052760363542  0.5603933675465965  0.5959276367889000
  0.9809052760363544  0.5603933675465965  0.5959276367889000
  0.0059052760363543  0.5853933675465965  0.5959276367889000
  0.0309052760363543  0.5853933675465965  0.5959276367889000
  0.0559052760363543  0.5853933675465965  0.5959276367889000
  0.0809052760363543  0.5853933675465965  0.5959276367889000
  0.1059052760363543  0.5853933675465965  0.5959276367889000
  0.1309052760363543  0.5853933675465965  0.5959276367889000
  0.1559052760363543  0.5853933675465965  0.5959276367889000
  0.1809052760363543  0.5853933675465965  0.5959276367889000
  0.2059052760363543  0.5853933675465965  0.5959276367889000
  0.2309052760363543  0.5853933675465965  0.5959276367889000
  0.2559052760363543  0.5853933675465965  0.5959276367889000
  0.2809052760363542  0.5853933675465965  0.5959276367889000
  0.3059052760363544  0.5853933675465965  0.5959276367889000
  0.3309052760363543  0.5853933675465965  0.5959276367889000
  0.3559052760363543  0.5853933675465965  0.5959276367889000
  0.3809052760363542  0.5853933675465965  0.5959276367889000
  0.4059052760363542  0.5853933675465965  0.5959276367889000
  0.4309052760363543  0.5853933675465965  0.5959276367889000
  0.4559052760363543  0.5853933675465965  0.5959276367889000
  0.4809052760363542  0.5853933675465965  0.5959276367889000
  0.5059052760363543  0.5853933675465965  0.5959276367889000
  0.5309052760363544  0.5853933675465965  0.5959276367889000
  0.5559052760363543  0.5853933675465965  0.5959276367889000
  0.5809052760363542  0.5853933675465965  0.5959276367889000
  0.6059052760363542  0.5853933675465965  0.5959276367889000
  0.6309052760363544  0.5853933675465965  0.5959276367889000
  0.6559052760363544  0.5853933675465965  0.5959276367889000
  0.6809052760363543  0.5853933675465965  0.5959276367889000
  0.7059052760363542  0.5853933675465965  0.5959276367889000
  0.7309052760363542  0.5853933675465965  0.5959276367889000
  0.7559052760363544  0.5853933675465965  0.5959276367889000
  0.7809052760363543  0.5853933675465965  0.5959276367889000
  0.8059052760363544  0.5853933675465965  0.5959276367889000
  0.8309052760363543  0.5853933675465965  0.5959276367889000
  0.8559052760363545  0.5853933675465965  0.5959276367889000
  0.8809052760363544  0.5853933675465965  0.5959276367889000
  0.9059052760363543  0.5853933675465965  0.5959276367889000
  0.9309052760363542  0.5853933675465965  0.5959276367889000
  0.9559052760363541  0.5853933675465965  0.5959276367889000
  0.9809052760363542  0.5853933675465965  0.5959276367889000
  0.0059052760363543  0.6103933675465966  0.5959276367889000
  0.0309052760363543  0.6103933675465966  0.5959276367889000
  0.0559052760363543  0.6103933675465966  0.5959276367889000
  0.0809052760363543  0.6103933675465966  0.5959276367889000
  0.1059052760363543  0.6103933675465966  0.5959276367889000
  0.1309052760363542  0.6103933675465966  0.5959276367889000
  0.1559052760363543  0.6103933675465966  0.5959276367889000
  0.1809052760363543  0.6103933675465966  0.5959276367889000
  0.2059052760363543  0.6103933675465966  0.5959276367889000
  0.2309052760363543  0.6103933675465966  0.5959276367889000
  0.2559052760363543  0.6103933675465966  0.5959276367889000
  0.2809052760363543  0.6103933675465966  0.5959276367889000
  0.3059052760363543  0.6103933675465966  0.5959276367889000
  0.3309052760363542  0.6103933675465966  0.5959276367889000
  0.3559052760363544  0.6103933675465966  0.5959276367889000
  0.3809052760363543  0.6103933675465966  0.5959276367889000
  0.4059052760363542  0.6103933675465966  0.5959276367889000
  0.4309052760363542  0.6103933675465966  0.5959276367889000
  0.4559052760363542  0.6103933675465966  0.5959276367889000
  0.4809052760363542  0.6103933675465966  0.5959276367889000
  0.5059052760363542  0.6103933675465966  0.5959276367889000
  0.5309052760363543  0.6103933675465966  0.5959276367889000
  0.5559052760363542  0.6103933675465966  0.5959276367889000
  0.5809052760363542  0.6103933675465966  0.5959276367889000
  0.6059052760363541  0.6103933675465966  0.5959276367889000
  0.6309052760363544  0.6103933675465966  0.5959276367889000
  0.6559052760363543  0.6103933675465966  0.5959276367889000
  0.6809052760363544  0.6103933675465966  0.5959276367889000
  0.7059052760363543  0.6103933675465966  0.5959276367889000
  0.7309052760363545  0.6103933675465966  0.5959276367889000
  0.7559052760363542  0.6103933675465966  0.5959276367889000
  0.7809052760363543  0.6103933675465966  0.5959276367889000
  0.8059052760363542  0.6103933675465966  0.5959276367889000
  0.8309052760363543  0.6103933675465966  0.5959276367889000
  0.8559052760363542  0.6103933675465966  0.5959276367889000
  0.8809052760363544  0.6103933675465966  0.5959276367889000
  0.9059052760363543  0.6103933675465966  0.5959276367889000
  0.9309052760363544  0.6103933675465966  0.5959276367889000
  0.9559052760363541  0.6103933675465966  0.5959276367889000
  0.9809052760363542  0.6103933675465966  0.5959276367889000
  0.0059052760363544  0.6353933675465966  0.5959276367889000
  0.0309052760363543  0.6353933675465966  0.5959276367889000
  0.0559052760363543  0.6353933675465966  0.5959276367889000
  0.0809052760363543  0.6353933675465966  0.5959276367889000
  0.1059052760363543  0.6353933675465966  0.5959276367889000
  0.1309052760363543  0.6353933675465966  0.5959276367889000
  0.1559052760363543  0.6353933675465966  0.5959276367889000
  0.1809052760363543  0.6353933675465966  0.5959276367889000
  0.2059052760363543  0.6353933675465966  0.5959276367889000
  0.2309052760363543  0.6353933675465966  0.5959276367889000
  0.2559052760363544  0.6353933675465966  0.5959276367889000
  0.2809052760363544  0.6353933675465966  0.5959276367889000
  0.3059052760363544  0.6353933675465966  0.5959276367889000
  0.3309052760363544  0.6353933675465966  0.5959276367889000
  0.3559052760363544  0.6353933675465966  0.5959276367889000
  0.3809052760363544  0.6353933675465966  0.5959276367889000
  0.4059052760363544  0.6353933675465966  0.5959276367889000
  0.4309052760363543  0.6353933675465966  0.5959276367889000
  0.4559052760363543  0.6353933675465966  0.5959276367889000
  0.4809052760363544  0.6353933675465966  0.5959276367889000
  0.5059052760363544  0.6353933675465966  0.5959276367889000
  0.5309052760363544  0.6353933675465966  0.5959276367889000
  0.5559052760363543  0.6353933675465966  0.5959276367889000
  0.5809052760363543  0.6353933675465966  0.5959276367889000
  0.6059052760363544  0.6353933675465966  0.5959276367889000
  0.6309052760363543  0.6353933675465966  0.5959276367889000
  0.6559052760363544  0.6353933675465966  0.5959276367889000
  0.6809052760363543  0.6353933675465966  0.5959276367889000
  0.7059052760363542  0.6353933675465966  0.5959276367889000
  0.7309052760363544  0.6353933675465966  0.5959276367889000
  0.7559052760363545  0.6353933675465966  0.5959276367889000
  0.7809052760363542  0.6353933675465966  0.5959276367889000
  0.8059052760363543  0.6353933675465966  0.5959276367889000
  0.8309052760363542  0.6353933675465966  0.5959276367889000
  0.8559052760363544  0.6353933675465966  0.5959276367889000
  0.8809052760363543  0.6353933675465966  0.5959276367889000
  0.9059052760363544  0.6353933675465966  0.5959276367889000
  0.9309052760363543  0.6353933675465966  0.5959276367889000
  0.9559052760363542  0.6353933675465966  0.5959276367889000
  0.9809052760363541  0.6353933675465966  0.5959276367889000
  0.0059052760363542  0.6603933675465967  0.5959276367889000
  0.0309052760363543  0.6603933675465967  0.5959276367889000
  0.0559052760363542  0.6603933675465967  0.5959276367889000
  0.0809052760363543  0.6603933675465967  0.5959276367889000
  0.1059052760363542  0.6603933675465967  0.5959276367889000
  0.1309052760363542  0.6603933675465967  0.5959276367889000
  0.1559052760363542  0.6603933675465967  0.5959276367889000
  0.1809052760363542  0.6603933675465967  0.5959276367889000
  0.2059052760363543  0.6603933675465967  0.5959276367889000
  0.2309052760363543  0.6603933675465967  0.5959276367889000
  0.2559052760363543  0.6603933675465967  0.5959276367889000
  0.2809052760363542  0.6603933675465967  0.5959276367889000
  0.3059052760363543  0.6603933675465967  0.5959276367889000
  0.3309052760363543  0.6603933675465967  0.5959276367889000
  0.3559052760363543  0.6603933675465967  0.5959276367889000
  0.3809052760363542  0.6603933675465967  0.5959276367889000
  0.4059052760363542  0.6603933675465967  0.5959276367889000
  0.4309052760363543  0.6603933675465967  0.5959276367889000
  0.4559052760363543  0.6603933675465967  0.5959276367889000
  0.4809052760363542  0.6603933675465967  0.5959276367889000
  0.5059052760363543  0.6603933675465967  0.5959276367889000
  0.5309052760363544  0.6603933675465967  0.5959276367889000
  0.5559052760363543  0.6603933675465967  0.5959276367889000
  0.5809052760363542  0.6603933675465967  0.5959276367889000
  0.6059052760363542  0.6603933675465967  0.5959276367889000
  0.6309052760363544  0.6603933675465967  0.5959276367889000
  0.6559052760363543  0.6603933675465967  0.5959276367889000
  0.6809052760363543  0.6603933675465967  0.5959276367889000
  0.7059052760363542  0.6603933675465967  0.5959276367889000
  0.7309052760363544  0.6603933675465967  0.5959276367889000
  0.7559052760363543  0.6603933675465967  0.5959276367889000
  0.7809052760363544  0.6603933675465967  0.5959276367889000
  0.8059052760363543  0.6603933675465967  0.5959276367889000
  0.8309052760363542  0.6603933675465967  0.5959276367889000
  0.8559052760363541  0.6603933675465967  0.5959276367889000
  0.8809052760363543  0.6603933675465967  0.5959276367889000
  0.9059052760363542  0.6603933675465967  0.5959276367889000
  0.9309052760363543  0.6603933675465967  0.5959276367889000
  0.9559052760363542  0.6603933675465967  0.5959276367889000
  0.9809052760363544  0.6603933675465967  0.5959276367889000
  0.0059052760363542  0.6853933675465967  0.5959276367889000
  0.0309052760363543  0.6853933675465967  0.5959276367889000
  0.0559052760363542  0.6853933675465967  0.5959276367889000
  0.0809052760363543  0.6853933675465967  0.5959276367889000
  0.1059052760363542  0.6853933675465967  0.5959276367889000
  0.1309052760363542  0.6853933675465967  0.5959276367889000
  0.1559052760363542  0.6853933675465967  0.5959276367889000
  0.1809052760363542  0.6853933675465967  0.5959276367889000
  0.2059052760363544  0.6853933675465967  0.5959276367889000
  0.2309052760363543  0.6853933675465967  0.5959276367889000
  0.2559052760363543  0.6853933675465967  0.5959276367889000
  0.2809052760363543  0.6853933675465967  0.5959276367889000
  0.3059052760363544  0.6853933675465967  0.5959276367889000
  0.3309052760363543  0.6853933675465967  0.5959276367889000
  0.3559052760363543  0.6853933675465967  0.5959276367889000
  0.3809052760363543  0.6853933675465967  0.5959276367889000
  0.4059052760363543  0.6853933675465967  0.5959276367889000
  0.4309052760363543  0.6853933675465967  0.5959276367889000
  0.4559052760363543  0.6853933675465967  0.5959276367889000
  0.4809052760363543  0.6853933675465967  0.5959276367889000
  0.5059052760363543  0.6853933675465967  0.5959276367889000
  0.5309052760363543  0.6853933675465967  0.5959276367889000
  0.5559052760363542  0.6853933675465967  0.5959276367889000
  0.5809052760363542  0.6853933675465967  0.5959276367889000
  0.6059052760363541  0.6853933675465967  0.5959276367889000
  0.6309052760363542  0.6853933675465967  0.5959276367889000
  0.6559052760363543  0.6853933675465967  0.5959276367889000
  0.6809052760363541  0.6853933675465967  0.5959276367889000
  0.7059052760363540  0.6853933675465967  0.5959276367889000
  0.7309052760363541  0.6853933675465967  0.5959276367889000
  0.7559052760363543  0.6853933675465967  0.5959276367889000
  0.7809052760363542  0.6853933675465967  0.5959276367889000
  0.8059052760363543  0.6853933675465967  0.5959276367889000
  0.8309052760363542  0.6853933675465967  0.5959276367889000
  0.8559052760363541  0.6853933675465967  0.5959276367889000
  0.8809052760363540  0.6853933675465967  0.5959276367889000
  0.9059052760363542  0.6853933675465967  0.5959276367889000
  0.9309052760363541  0.6853933675465967  0.5959276367889000
  0.9559052760363540  0.6853933675465967  0.5959276367889000
  0.9809052760363541  0.6853933675465967  0.5959276367889000
  0.0059052760363543  0.7103933675465965  0.5959276367889000
  0.0309052760363543  0.7103933675465965  0.5959276367889000
  0.0559052760363543  0.7103933675465965  0.5959276367889000
  0.0809052760363543  0.7103933675465965  0.5959276367889000
  0.1059052760363543  0.7103933675465965  0.5959276367889000
  0.1309052760363543  0.7103933675465965  0.5959276367889000
  0.1559052760363543  0.7103933675465965  0.5959276367889000
  0.1809052760363543  0.7103933675465965  0.5959276367889000
  0.2059052760363543  0.7103933675465965  0.5959276367889000
  0.2309052760363543  0.7103933675465965  0.5959276367889000
  0.2559052760363543  0.7103933675465965  0.5959276367889000
  0.2809052760363543  0.7103933675465965  0.5959276367889000
  0.3059052760363544  0.7103933675465965  0.5959276367889000
  0.3309052760363544  0.7103933675465965  0.5959276367889000
  0.3559052760363543  0.7103933675465965  0.5959276367889000
  0.3809052760363543  0.7103933675465965  0.5959276367889000
  0.4059052760363543  0.7103933675465965  0.5959276367889000
  0.4309052760363544  0.7103933675465965  0.5959276367889000
  0.4559052760363543  0.7103933675465965  0.5959276367889000
  0.4809052760363543  0.7103933675465965  0.5959276367889000
  0.5059052760363543  0.7103933675465965  0.5959276367889000
  0.5309052760363544  0.7103933675465965  0.5959276367889000
  0.5559052760363542  0.7103933675465965  0.5959276367889000
  0.5809052760363541  0.7103933675465965  0.5959276367889000
  0.6059052760363542  0.7103933675465965  0.5959276367889000
  0.6309052760363544  0.7103933675465965  0.5959276367889000
  0.6559052760363543  0.7103933675465965  0.5959276367889000
  0.6809052760363544  0.7103933675465965  0.5959276367889000
  0.7059052760363541  0.7103933675465965  0.5959276367889000
  0.7309052760363542  0.7103933675465965  0.5959276367889000
  0.7559052760363542  0.7103933675465965  0.5959276367889000
  0.7809052760363543  0.7103933675465965  0.5959276367889000
  0.8059052760363542  0.7103933675465965  0.5959276367889000
  0.8309052760363543  0.7103933675465965  0.5959276367889000
  0.8559052760363542  0.7103933675465965  0.5959276367889000
  0.8809052760363544  0.7103933675465965  0.5959276367889000
  0.9059052760363541  0.7103933675465965  0.5959276367889000
  0.9309052760363542  0.7103933675465965  0.5959276367889000
  0.9559052760363541  0.7103933675465965  0.5959276367889000
  0.9809052760363542  0.7103933675465965  0.5959276367889000
  0.0059052760363543  0.7353933675465966  0.5959276367889000
  0.0309052760363543  0.7353933675465966  0.5959276367889000
  0.0559052760363543  0.7353933675465966  0.5959276367889000
  0.0809052760363543  0.7353933675465966  0.5959276367889000
  0.1059052760363543  0.7353933675465966  0.5959276367889000
  0.1309052760363543  0.7353933675465966  0.5959276367889000
  0.1559052760363543  0.7353933675465966  0.5959276367889000
  0.1809052760363543  0.7353933675465966  0.5959276367889000
  0.2059052760363542  0.7353933675465966  0.5959276367889000
  0.2309052760363542  0.7353933675465966  0.5959276367889000
  0.2559052760363544  0.7353933675465966  0.5959276367889000
  0.2809052760363544  0.7353933675465966  0.5959276367889000
  0.3059052760363543  0.7353933675465966  0.5959276367889000
  0.3309052760363543  0.7353933675465966  0.5959276367889000
  0.3559052760363544  0.7353933675465966  0.5959276367889000
  0.3809052760363544  0.7353933675465966  0.5959276367889000
  0.4059052760363543  0.7353933675465966  0.5959276367889000
  0.4309052760363543  0.7353933675465966  0.5959276367889000
  0.4559052760363543  0.7353933675465966  0.5959276367889000
  0.4809052760363544  0.7353933675465966  0.5959276367889000
  0.5059052760363543  0.7353933675465966  0.5959276367889000
  0.5309052760363544  0.7353933675465966  0.5959276367889000
  0.5559052760363543  0.7353933675465966  0.5959276367889000
  0.5809052760363543  0.7353933675465966  0.5959276367889000
  0.6059052760363541  0.7353933675465966  0.5959276367889000
  0.6309052760363543  0.7353933675465966  0.5959276367889000
  0.6559052760363544  0.7353933675465966  0.5959276367889000
  0.6809052760363543  0.7353933675465966  0.5959276367889000
  0.7059052760363542  0.7353933675465966  0.5959276367889000
  0.7309052760363544  0.7353933675465966  0.5959276367889000
  0.7559052760363543  0.7353933675465966  0.5959276367889000
  0.7809052760363542  0.7353933675465966  0.5959276367889000
  0.8059052760363543  0.7353933675465966  0.5959276367889000
  0.8309052760363542  0.7353933675465966  0.5959276367889000
  0.8559052760363544  0.7353933675465966  0.5959276367889000
  0.8809052760363543  0.7353933675465966  0.5959276367889000
  0.9059052760363544  0.7353933675465966  0.5959276367889000
  0.9309052760363543  0.7353933675465966  0.5959276367889000
  0.9559052760363540  0.7353933675465966  0.5959276367889000
  0.9809052760363541  0.7353933675465966  0.5959276367889000
  0.0059052760363543  0.7603933675465966  0.5959276367889000
  0.0309052760363543  0.7603933675465966  0.5959276367889000
  0.0559052760363543  0.7603933675465966  0.5959276367889000
  0.0809052760363543  0.7603933675465966  0.5959276367889000
  0.1059052760363543  0.7603933675465966  0.5959276367889000
  0.1309052760363543  0.7603933675465966  0.5959276367889000
  0.1559052760363542  0.7603933675465966  0.5959276367889000
  0.1809052760363543  0.7603933675465966  0.5959276367889000
  0.2059052760363544  0.7603933675465966  0.5959276367889000
  0.2309052760363543  0.7603933675465966  0.5959276367889000
  0.2559052760363543  0.7603933675465966  0.5959276367889000
  0.2809052760363543  0.7603933675465966  0.5959276367889000
  0.3059052760363544  0.7603933675465966  0.5959276367889000
  0.3309052760363543  0.7603933675465966  0.5959276367889000
  0.3559052760363543  0.7603933675465966  0.5959276367889000
  0.3809052760363543  0.7603933675465966  0.5959276367889000
  0.4059052760363543  0.7603933675465966  0.5959276367889000
  0.4309052760363543  0.7603933675465966  0.5959276367889000
  0.4559052760363543  0.7603933675465966  0.5959276367889000
  0.4809052760363543  0.7603933675465966  0.5959276367889000
  0.5059052760363543  0.7603933675465966  0.5959276367889000
  0.5309052760363543  0.7603933675465966  0.5959276367889000
  0.5559052760363542  0.7603933675465966  0.5959276367889000
  0.5809052760363541  0.7603933675465966  0.5959276367889000
  0.6059052760363542  0.7603933675465966  0.5959276367889000
  0.6309052760363543  0.7603933675465966  0.5959276367889000
  0.6559052760363542  0.7603933675465966  0.5959276367889000
  0.6809052760363543  0.7603933675465966  0.5959276367889000
  0.7059052760363542  0.7603933675465966  0.5959276367889000
  0.7309052760363544  0.7603933675465966  0.5959276367889000
  0.7559052760363543  0.7603933675465966  0.5959276367889000
  0.7809052760363542  0.7603933675465966  0.5959276367889000
  0.8059052760363541  0.7603933675465966  0.5959276367889000
  0.8309052760363542  0.7603933675465966  0.5959276367889000
  0.8559052760363541  0.7603933675465966  0.5959276367889000
  0.8809052760363543  0.7603933675465966  0.5959276367889000
  0.9059052760363542  0.7603933675465966  0.5959276367889000
  0.9309052760363543  0.7603933675465966  0.5959276367889000
  0.9559052760363542  0.7603933675465966  0.5959276367889000
  0.9809052760363541  0.7603933675465966  0.5959276367889000
  0.0059052760363543  0.7853933675465966  0.5959276367889000
  0.0309052760363543  0.7853933675465966  0.5959276367889000
  0.0559052760363543  0.7853933675465966  0.5959276367889000
  0.0809052760363543  0.7853933675465966  0.5959276367889000
  0.1059052760363542  0.7853933675465966  0.5959276367889000
  0.1309052760363543  0.7853933675465966  0.5959276367889000
  0.1559052760363544  0.7853933675465966  0.5959276367889000
  0.1809052760363543  0.7853933675465966  0.5959276367889000
  0.2059052760363543  0.7853933675465966  0.5959276367889000
  0.2309052760363544  0.7853933675465966  0.5959276367889000
  0.2559052760363544  0.7853933675465966  0.5959276367889000
  0.2809052760363543  0.7853933675465966  0.5959276367889000
  0.3059052760363544  0.7853933675465966  0.5959276367889000
  0.3309052760363543  0.7853933675465966  0.5959276367889000
  0.3559052760363545  0.7853933675465966  0.5959276367889000
  0.3809052760363543  0.7853933675465966  0.5959276367889000
  0.4059052760363543  0.7853933675465966  0.5959276367889000
  0.4309052760363543  0.7853933675465966  0.5959276367889000
  0.4559052760363543  0.7853933675465966  0.5959276367889000
  0.4809052760363542  0.7853933675465966  0.5959276367889000
  0.5059052760363543  0.7853933675465966  0.5959276367889000
  0.5309052760363544  0.7853933675465966  0.5959276367889000
  0.5559052760363544  0.7853933675465966  0.5959276367889000
  0.5809052760363542  0.7853933675465966  0.5959276367889000
  0.6059052760363544  0.7853933675465966  0.5959276367889000
  0.6309052760363544  0.7853933675465966  0.5959276367889000
  0.6559052760363543  0.7853933675465966  0.5959276367889000
  0.6809052760363544  0.7853933675465966  0.5959276367889000
  0.7059052760363543  0.7853933675465966  0.5959276367889000
  0.7309052760363545  0.7853933675465966  0.5959276367889000
  0.7559052760363544  0.7853933675465966  0.5959276367889000
  0.7809052760363545  0.7853933675465966  0.5959276367889000
  0.8059052760363542  0.7853933675465966  0.5959276367889000
  0.8309052760363543  0.7853933675465966  0.5959276367889000
  0.8559052760363542  0.7853933675465966  0.5959276367889000
  0.8809052760363544  0.7853933675465966  0.5959276367889000
  0.9059052760363543  0.7853933675465966  0.5959276367889000
  0.9309052760363544  0.7853933675465966  0.5959276367889000
  0.9559052760363543  0.7853933675465966  0.5959276367889000
  0.9809052760363545  0.7853933675465966  0.5959276367889000
  0.0059052760363543  0.8103933675465966  0.5959276367889000
  0.0309052760363544  0.8103933675465966  0.5959276367889000
  0.0559052760363543  0.8103933675465966  0.5959276367889000
  0.0809052760363543  0.8103933675465966  0.5959276367889000
  0.1059052760363543  0.8103933675465966  0.5959276367889000
  0.1309052760363542  0.8103933675465966  0.5959276367889000
  0.1559052760363543  0.8103933675465966  0.5959276367889000
  0.1809052760363544  0.8103933675465966  0.5959276367889000
  0.2059052760363543  0.8103933675465966  0.5959276367889000
  0.2309052760363543  0.8103933675465966  0.5959276367889000
  0.2559052760363543  0.8103933675465966  0.5959276367889000
  0.2809052760363543  0.8103933675465966  0.5959276367889000
  0.3059052760363544  0.8103933675465966  0.5959276367889000
  0.3309052760363543  0.8103933675465966  0.5959276367889000
  0.3559052760363544  0.8103933675465966  0.5959276367889000
  0.3809052760363543  0.8103933675465966  0.5959276367889000
  0.4059052760363542  0.8103933675465966  0.5959276367889000
  0.4309052760363543  0.8103933675465966  0.5959276367889000
  0.4559052760363543  0.8103933675465966  0.5959276367889000
  0.4809052760363543  0.8103933675465966  0.5959276367889000
  0.5059052760363543  0.8103933675465966  0.5959276367889000
  0.5309052760363544  0.8103933675465966  0.5959276367889000
  0.5559052760363543  0.8103933675465966  0.5959276367889000
  0.5809052760363544  0.8103933675465966  0.5959276367889000
  0.6059052760363544  0.8103933675465966  0.5959276367889000
  0.6309052760363545  0.8103933675465966  0.5959276367889000
  0.6559052760363544  0.8103933675465966  0.5959276367889000
  0.6809052760363543  0.8103933675465966  0.5959276367889000
  0.7059052760363542  0.8103933675465966  0.5959276367889000
  0.7309052760363544  0.8103933675465966  0.5959276367889000
  0.7559052760363545  0.8103933675465966  0.5959276367889000
  0.7809052760363544  0.8103933675465966  0.5959276367889000
  0.8059052760363545  0.8103933675465966  0.5959276367889000
  0.8309052760363544  0.8103933675465966  0.5959276367889000
  0.8559052760363544  0.8103933675465966  0.5959276367889000
  0.8809052760363543  0.8103933675465966  0.5959276367889000
  0.9059052760363544  0.8103933675465966  0.5959276367889000
  0.9309052760363543  0.8103933675465966  0.5959276367889000
  0.9559052760363542  0.8103933675465966  0.5959276367889000
  0.9809052760363544  0.8103933675465966  0.5959276367889000
  0.0059052760363543  0.8353933675465967  0.5959276367889000
  0.0309052760363542  0.8353933675465967  0.5959276367889000
  0.0559052760363543  0.8353933675465967  0.5959276367889000
  0.0809052760363542  0.8353933675465967  0.5959276367889000
  0.1059052760363543  0.8353933675465967  0.5959276367889000
  0.1309052760363543  0.8353933675465967  0.5959276367889000
  0.1559052760363542  0.8353933675465967  0.5959276367889000
  0.1809052760363542  0.8353933675465967  0.5959276367889000
  0.2059052760363544  0.8353933675465967  0.5959276367889000
  0.2309052760363544  0.8353933675465967  0.5959276367889000
  0.2559052760363543  0.8353933675465967  0.5959276367889000
  0.2809052760363543  0.8353933675465967  0.5959276367889000
  0.3059052760363543  0.8353933675465967  0.5959276367889000
  0.3309052760363543  0.8353933675465967  0.5959276367889000
  0.3559052760363542  0.8353933675465967  0.5959276367889000
  0.3809052760363543  0.8353933675465967  0.5959276367889000
  0.4059052760363543  0.8353933675465967  0.5959276367889000
  0.4309052760363543  0.8353933675465967  0.5959276367889000
  0.4559052760363542  0.8353933675465967  0.5959276367889000
  0.4809052760363542  0.8353933675465967  0.5959276367889000
  0.5059052760363543  0.8353933675465967  0.5959276367889000
  0.5309052760363543  0.8353933675465967  0.5959276367889000
  0.5559052760363541  0.8353933675465967  0.5959276367889000
  0.5809052760363542  0.8353933675465967  0.5959276367889000
  0.6059052760363541  0.8353933675465967  0.5959276367889000
  0.6309052760363543  0.8353933675465967  0.5959276367889000
  0.6559052760363544  0.8353933675465967  0.5959276367889000
  0.6809052760363543  0.8353933675465967  0.5959276367889000
  0.7059052760363540  0.8353933675465967  0.5959276367889000
  0.7309052760363541  0.8353933675465967  0.5959276367889000
  0.7559052760363543  0.8353933675465967  0.5959276367889000
  0.7809052760363542  0.8353933675465967  0.5959276367889000
  0.8059052760363543  0.8353933675465967  0.5959276367889000
  0.8309052760363542  0.8353933675465967  0.5959276367889000
  0.8559052760363544  0.8353933675465967  0.5959276367889000
  0.8809052760363543  0.8353933675465967  0.5959276367889000
  0.9059052760363542  0.8353933675465967  0.5959276367889000
  0.9309052760363541  0.8353933675465967  0.5959276367889000
  0.9559052760363540  0.8353933675465967  0.5959276367889000
  0.9809052760363541  0.8353933675465967  0.5959276367889000
  0.0059052760363543  0.8603933675465967  0.5959276367889000
  0.0309052760363543  0.8603933675465967  0.5959276367889000
  0.0559052760363543  0.8603933675465967  0.5959276367889000
  0.0809052760363543  0.8603933675465967  0.5959276367889000
  0.1059052760363542  0.8603933675465967  0.5959276367889000
  0.1309052760363542  0.8603933675465967  0.5959276367889000
  0.1559052760363543  0.8603933675465967  0.5959276367889000
  0.1809052760363543  0.8603933675465967  0.5959276367889000
  0.2059052760363543  0.8603933675465967  0.5959276367889000
  0.2309052760363543  0.8603933675465967  0.5959276367889000
  0.2559052760363543  0.8603933675465967  0.5959276367889000
  0.2809052760363543  0.8603933675465967  0.5959276367889000
  0.3059052760363543  0.8603933675465967  0.5959276367889000
  0.3309052760363543  0.8603933675465967  0.5959276367889000
  0.3559052760363543  0.8603933675465967  0.5959276367889000
  0.3809052760363543  0.8603933675465967  0.5959276367889000
  0.4059052760363542  0.8603933675465967  0.5959276367889000
  0.4309052760363543  0.8603933675465967  0.5959276367889000
  0.4559052760363543  0.8603933675465967  0.5959276367889000
  0.4809052760363542  0.8603933675465967  0.5959276367889000
  0.5059052760363543  0.8603933675465967  0.5959276367889000
  0.5309052760363544  0.8603933675465967  0.5959276367889000
  0.5559052760363543  0.8603933675465967  0.5959276367889000
  0.5809052760363541  0.8603933675465967  0.5959276367889000
  0.6059052760363542  0.8603933675465967  0.5959276367889000
  0.6309052760363544  0.8603933675465967  0.5959276367889000
  0.6559052760363543  0.8603933675465967  0.5959276367889000
  0.6809052760363544  0.8603933675465967  0.5959276367889000
  0.7059052760363543  0.8603933675465967  0.5959276367889000
  0.7309052760363542  0.8603933675465967  0.5959276367889000
  0.7559052760363542  0.8603933675465967  0.5959276367889000
  0.7809052760363543  0.8603933675465967  0.5959276367889000
  0.8059052760363542  0.8603933675465967  0.5959276367889000
  0.8309052760363543  0.8603933675465967  0.5959276367889000
  0.8559052760363542  0.8603933675465967  0.5959276367889000
  0.8809052760363544  0.8603933675465967  0.5959276367889000
  0.9059052760363543  0.8603933675465967  0.5959276367889000
  0.9309052760363542  0.8603933675465967  0.5959276367889000
  0.9559052760363541  0.8603933675465967  0.5959276367889000
  0.9809052760363542  0.8603933675465967  0.5959276367889000
  0.0059052760363543  0.8853933675465966  0.5959276367889000
  0.0309052760363543  0.8853933675465966  0.5959276367889000
  0.0559052760363542  0.8853933675465966  0.5959276367889000
  0.0809052760363543  0.8853933675465966  0.5959276367889000
  0.1059052760363543  0.8853933675465966  0.5959276367889000
  0.1309052760363542  0.8853933675465966  0.5959276367889000
  0.1559052760363543  0.8853933675465966  0.5959276367889000
  0.1809052760363543  0.8853933675465966  0.5959276367889000
  0.2059052760363544  0.8853933675465966  0.5959276367889000
  0.2309052760363543  0.8853933675465966  0.5959276367889000
  0.2559052760363543  0.8853933675465966  0.5959276367889000
  0.2809052760363543  0.8853933675465966  0.5959276367889000
  0.3059052760363544  0.8853933675465966  0.5959276367889000
  0.3309052760363542  0.8853933675465966  0.5959276367889000
  0.3559052760363544  0.8853933675465966  0.5959276367889000
  0.3809052760363543  0.8853933675465966  0.5959276367889000
  0.4059052760363543  0.8853933675465966  0.5959276367889000
  0.4309052760363542  0.8853933675465966  0.5959276367889000
  0.4559052760363542  0.8853933675465966  0.5959276367889000
  0.4809052760363542  0.8853933675465966  0.5959276367889000
  0.5059052760363544  0.8853933675465966  0.5959276367889000
  0.5309052760363544  0.8853933675465966  0.5959276367889000
  0.5559052760363543  0.8853933675465966  0.5959276367889000
  0.5809052760363541  0.8853933675465966  0.5959276367889000
  0.6059052760363542  0.8853933675465966  0.5959276367889000
  0.6309052760363544  0.8853933675465966  0.5959276367889000
  0.6559052760363543  0.8853933675465966  0.5959276367889000
  0.6809052760363544  0.8853933675465966  0.5959276367889000
  0.7059052760363543  0.8853933675465966  0.5959276367889000
  0.7309052760363545  0.8853933675465966  0.5959276367889000
  0.7559052760363544  0.8853933675465966  0.5959276367889000
  0.7809052760363543  0.8853933675465966  0.5959276367889000
  0.8059052760363542  0.8853933675465966  0.5959276367889000
  0.8309052760363543  0.8853933675465966  0.5959276367889000
  0.8559052760363542  0.8853933675465966  0.5959276367889000
  0.8809052760363544  0.8853933675465966  0.5959276367889000
  0.9059052760363543  0.8853933675465966  0.5959276367889000
  0.9309052760363544  0.8853933675465966  0.5959276367889000
  0.9559052760363543  0.8853933675465966  0.5959276367889000
  0.9809052760363542  0.8853933675465966  0.5959276367889000
  0.0059052760363543  0.9103933675465966  0.5959276367889000
  0.0309052760363543  0.9103933675465966  0.5959276367889000
  0.0559052760363544  0.9103933675465966  0.5959276367889000
  0.0809052760363543  0.9103933675465966  0.5959276367889000
  0.1059052760363543  0.9103933675465966  0.5959276367889000
  0.1309052760363544  0.9103933675465966  0.5959276367889000
  0.1559052760363544  0.9103933675465966  0.5959276367889000
  0.1809052760363543  0.9103933675465966  0.5959276367889000
  0.2059052760363543  0.9103933675465966  0.5959276367889000
  0.2309052760363543  0.9103933675465966  0.5959276367889000
  0.2559052760363544  0.9103933675465966  0.5959276367889000
  0.2809052760363543  0.9103933675465966  0.5959276367889000
  0.3059052760363544  0.9103933675465966  0.5959276367889000
  0.3309052760363543  0.9103933675465966  0.5959276367889000
  0.3559052760363544  0.9103933675465966  0.5959276367889000
  0.3809052760363543  0.9103933675465966  0.5959276367889000
  0.4059052760363543  0.9103933675465966  0.5959276367889000
  0.4309052760363543  0.9103933675465966  0.5959276367889000
  0.4559052760363543  0.9103933675465966  0.5959276367889000
  0.4809052760363544  0.9103933675465966  0.5959276367889000
  0.5059052760363543  0.9103933675465966  0.5959276367889000
  0.5309052760363544  0.9103933675465966  0.5959276367889000
  0.5559052760363543  0.9103933675465966  0.5959276367889000
  0.5809052760363544  0.9103933675465966  0.5959276367889000
  0.6059052760363544  0.9103933675465966  0.5959276367889000
  0.6309052760363543  0.9103933675465966  0.5959276367889000
  0.6559052760363544  0.9103933675465966  0.5959276367889000
  0.6809052760363543  0.9103933675465966  0.5959276367889000
  0.7059052760363542  0.9103933675465966  0.5959276367889000
  0.7309052760363544  0.9103933675465966  0.5959276367889000
  0.7559052760363545  0.9103933675465966  0.5959276367889000
  0.7809052760363544  0.9103933675465966  0.5959276367889000
  0.8059052760363543  0.9103933675465966  0.5959276367889000
  0.8309052760363542  0.9103933675465966  0.5959276367889000
  0.8559052760363544  0.9103933675465966  0.5959276367889000
  0.8809052760363543  0.9103933675465966  0.5959276367889000
  0.9059052760363544  0.9103933675465966  0.5959276367889000
  0.9309052760363543  0.9103933675465966  0.5959276367889000
  0.9559052760363542  0.9103933675465966  0.5959276367889000
  0.9809052760363544  0.9103933675465966  0.5959276367889000
  0.0059052760363544  0.9353933675465966  0.5959276367889000
  0.0309052760363543  0.9353933675465966  0.5959276367889000
  0.0559052760363543  0.9353933675465966  0.5959276367889000
  0.0809052760363544  0.9353933675465966  0.5959276367889000
  0.1059052760363543  0.9353933675465966  0.5959276367889000
  0.1309052760363543  0.9353933675465966  0.5959276367889000
  0.1559052760363543  0.9353933675465966  0.5959276367889000
  0.1809052760363543  0.9353933675465966  0.5959276367889000
  0.2059052760363543  0.9353933675465966  0.5959276367889000
  0.2309052760363543  0.9353933675465966  0.5959276367889000
  0.2559052760363543  0.9353933675465966  0.5959276367889000
  0.2809052760363543  0.9353933675465966  0.5959276367889000
  0.3059052760363544  0.9353933675465966  0.5959276367889000
  0.3309052760363543  0.9353933675465966  0.5959276367889000
  0.3559052760363544  0.9353933675465966  0.5959276367889000
  0.3809052760363543  0.9353933675465966  0.5959276367889000
  0.4059052760363542  0.9353933675465966  0.5959276367889000
  0.4309052760363543  0.9353933675465966  0.5959276367889000
  0.4559052760363543  0.9353933675465966  0.5959276367889000
  0.4809052760363543  0.9353933675465966  0.5959276367889000
  0.5059052760363543  0.9353933675465966  0.5959276367889000
  0.5309052760363544  0.9353933675465966  0.5959276367889000
  0.5559052760363543  0.9353933675465966  0.5959276367889000
  0.5809052760363542  0.9353933675465966  0.5959276367889000
  0.6059052760363544  0.9353933675465966  0.5959276367889000
  0.6309052760363545  0.9353933675465966  0.5959276367889000
  0.6559052760363542  0.9353933675465966  0.5959276367889000
  0.6809052760363543  0.9353933675465966  0.5959276367889000
  0.7059052760363542  0.9353933675465966  0.5959276367889000
  0.7309052760363544  0.9353933675465966  0.5959276367889000
  0.7559052760363543  0.9353933675465966  0.5959276367889000
  0.7809052760363544  0.9353933675465966  0.5959276367889000
  0.8059052760363543  0.9353933675465966  0.5959276367889000
  0.8309052760363542  0.9353933675465966  0.5959276367889000
  0.8559052760363541  0.9353933675465966  0.5959276367889000
  0.8809052760363543  0.9353933675465966  0.5959276367889000
  0.9059052760363542  0.9353933675465966  0.5959276367889000
  0.9309052760363543  0.9353933675465966  0.5959276367889000
  0.9559052760363542  0.9353933675465966  0.5959276367889000
  0.9809052760363544  0.9353933675465966  0.5959276367889000
  0.0059052760363543  0.9603933675465965  0.5959276367889000
  0.0309052760363543  0.9603933675465965  0.5959276367889000
  0.0559052760363542  0.9603933675465965  0.5959276367889000
  0.0809052760363543  0.9603933675465965  0.5959276367889000
  0.1059052760363543  0.9603933675465965  0.5959276367889000
  0.1309052760363543  0.9603933675465965  0.5959276367889000
  0.1559052760363543  0.9603933675465965  0.5959276367889000
  0.1809052760363544  0.9603933675465965  0.5959276367889000
  0.2059052760363544  0.9603933675465965  0.5959276367889000
  0.2309052760363544  0.9603933675465965  0.5959276367889000
  0.2559052760363543  0.9603933675465965  0.5959276367889000
  0.2809052760363543  0.9603933675465965  0.5959276367889000
  0.3059052760363545  0.9603933675465965  0.5959276367889000
  0.3309052760363544  0.9603933675465965  0.5959276367889000
  0.3559052760363544  0.9603933675465965  0.5959276367889000
  0.3809052760363543  0.9603933675465965  0.5959276367889000
  0.4059052760363543  0.9603933675465965  0.5959276367889000
  0.4309052760363544  0.9603933675465965  0.5959276367889000
  0.4559052760363543  0.9603933675465965  0.5959276367889000
  0.4809052760363544  0.9603933675465965  0.5959276367889000
  0.5059052760363543  0.9603933675465965  0.5959276367889000
  0.5309052760363543  0.9603933675465965  0.5959276367889000
  0.5559052760363542  0.9603933675465965  0.5959276367889000
  0.5809052760363543  0.9603933675465965  0.5959276367889000
  0.6059052760363542  0.9603933675465965  0.5959276367889000
  0.6309052760363544  0.9603933675465965  0.5959276367889000
  0.6559052760363545  0.9603933675465965  0.5959276367889000
  0.6809052760363542  0.9603933675465965  0.5959276367889000
  0.7059052760363541  0.9603933675465965  0.5959276367889000
  0.7309052760363542  0.9603933675465965  0.5959276367889000
  0.7559052760363544  0.9603933675465965  0.5959276367889000
  0.7809052760363543  0.9603933675465965  0.5959276367889000
  0.8059052760363544  0.9603933675465965  0.5959276367889000
  0.8309052760363543  0.9603933675465965  0.5959276367889000
  0.8559052760363545  0.9603933675465965  0.5959276367889000
  0.8809052760363542  0.9603933675465965  0.5959276367889000
  0.9059052760363543  0.9603933675465965  0.5959276367889000
  0.9309052760363542  0.9603933675465965  0.5959276367889000
  0.9559052760363541  0.9603933675465965  0.5959276367889000
  0.9809052760363542  0.9603933675465965  0.5959276367889000
  0.0059052760363543  0.9853933675465967  0.5959276367889000
  0.0309052760363542  0.9853933675465967  0.5959276367889000
  0.0559052760363542  0.9853933675465967  0.5959276367889000
  0.0809052760363543  0.9853933675465967  0.5959276367889000
  0.1059052760363542  0.9853933675465967  0.5959276367889000
  0.1309052760363542  0.9853933675465967  0.5959276367889000
  0.1559052760363543  0.9853933675465967  0.5959276367889000
  0.1809052760363543  0.9853933675465967  0.5959276367889000
  0.2059052760363543  0.9853933675465967  0.5959276367889000
  0.2309052760363543  0.9853933675465967  0.5959276367889000
  0.2559052760363543  0.9853933675465967  0.5959276367889000
  0.2809052760363542  0.9853933675465967  0.5959276367889000
  0.3059052760363544  0.9853933675465967  0.5959276367889000
  0.3309052760363543  0.9853933675465967  0.5959276367889000
  0.3559052760363544  0.9853933675465967  0.5959276367889000
  0.3809052760363542  0.9853933675465967  0.5959276367889000
  0.4059052760363542  0.9853933675465967  0.5959276367889000
  0.4309052760363543  0.9853933675465967  0.5959276367889000
  0.4559052760363544  0.9853933675465967  0.5959276367889000
  0.4809052760363542  0.9853933675465967  0.5959276367889000
  0.5059052760363543  0.9853933675465967  0.5959276367889000
  0.5309052760363543  0.9853933675465967  0.5959276367889000
  0.5559052760363542  0.9853933675465967  0.5959276367889000
  0.5809052760363541  0.9853933675465967  0.5959276367889000
  0.6059052760363542  0.9853933675465967  0.5959276367889000
  0.6309052760363544  0.9853933675465967  0.5959276367889000
  0.6559052760363543  0.9853933675465967  0.5959276367889000
  0.6809052760363544  0.9853933675465967  0.5959276367889000
  0.7059052760363543  0.9853933675465967  0.5959276367889000
  0.7309052760363542  0.9853933675465967  0.5959276367889000
  0.7559052760363542  0.9853933675465967  0.5959276367889000
  0.7809052760363543  0.9853933675465967  0.5959276367889000
  0.8059052760363542  0.9853933675465967  0.5959276367889000
  0.8309052760363543  0.9853933675465967  0.5959276367889000
  0.8559052760363542  0.9853933675465967  0.5959276367889000
  0.8809052760363544  0.9853933675465967  0.5959276367889000
  0.9059052760363543  0.9853933675465967  0.5959276367889000
  0.9309052760363542  0.9853933675465967  0.5959276367889000
  0.9559052760363541  0.9853933675465967  0.5959276367889000
  0.9809052760363542  0.9853933675465967  0.5959276367889000
  0.0030629121152420  0.0168240747750133  0.4222107301842400
  0.0279181157253440  0.0168240747750133  0.4222107301842400
  0.0529181157253440  0.0168240747750133  0.4222107301842400
  0.0779181157253440  0.0168240747750133  0.4222107301842400
  0.1029181157253440  0.0168240747750133  0.4222107301842400
  0.1279181157253440  0.0168240747750133  0.4222107301842400
  0.1529181157253440  0.0168240747750133  0.4222107301842400
  0.1779181157253440  0.0168240747750133  0.4222107301842400
  0.2029181157253440  0.0168240747750133  0.4222107301842400
  0.2279181157253440  0.0168240747750133  0.4222107301842400
  0.2529181157253440  0.0168240747750133  0.4222107301842400
  0.2779181157253440  0.0168240747750133  0.4222107301842400
  0.3029181157253440  0.0168240747750133  0.4222107301842400
  0.3279181157253440  0.0168240747750133  0.4222107301842400
  0.3529181157253440  0.0168240747750133  0.4222107301842400
  0.3779181157253440  0.0168240747750133  0.4222107301842400
  0.4029181157253440  0.0168240747750133  0.4222107301842400
  0.4279181157253440  0.0168240747750133  0.4222107301842400
  0.4529181157253440  0.0168240747750133  0.4222107301842400
  0.4779181157253440  0.0168240747750133  0.4222107301842400
  0.5029181157253440  0.0168240747750133  0.4222107301842400
  0.5279181157253439  0.0168240747750133  0.4222107301842400
  0.5529181157253440  0.0168240747750133  0.4222107301842400
  0.5779181157253440  0.0168240747750133  0.4222107301842400
  0.6029181157253439  0.0168240747750133  0.4222107301842400
  0.6279181157253440  0.0168240747750133  0.4222107301842400
  0.6529181157253441  0.0168240747750133  0.4222107301842400
  0.6779181157253440  0.0168240747750133  0.4222107301842400
  0.7029181157253439  0.0168240747750133  0.4222107301842400
  0.7279181157253439  0.0168240747750133  0.4222107301842400
  0.7529181157253441  0.0168240747750133  0.4222107301842400
  0.7779181157253441  0.0168240747750133  0.4222107301842400
  0.8029181157253439  0.0168240747750133  0.4222107301842400
  0.8279181157253439  0.0168240747750133  0.4222107301842400
  0.8529181157253440  0.0168240747750133  0.4222107301842400
  0.8779181157253441  0.0168240747750133  0.4222107301842400
  0.9029181157253440  0.0168240747750133  0.4222107301842400
  0.9279181157253439  0.0168240747750133  0.4222107301842400
  0.9529181157253440  0.0168240747750133  0.4222107301842400
  0.9779181157253439  0.0168240747750133  0.4222107301842400
  0.0029181157253440  0.0418240747750133  0.4222107301842400
  0.0279181157253440  0.0418240747750133  0.4222107301842400
  0.0529181157253440  0.0418240747750133  0.4222107301842400
  0.0779181157253440  0.0418240747750133  0.4222107301842400
  0.1029181157253440  0.0418240747750133  0.4222107301842400
  0.1279181157253440  0.0418240747750133  0.4222107301842400
  0.1529181157253440  0.0418240747750133  0.4222107301842400
  0.1779181157253440  0.0418240747750133  0.4222107301842400
  0.2029181157253440  0.0418240747750133  0.4222107301842400
  0.2279181157253440  0.0418240747750133  0.4222107301842400
  0.2529181157253440  0.0418240747750133  0.4222107301842400
  0.2779181157253440  0.0418240747750133  0.4222107301842400
  0.3029181157253440  0.0418240747750133  0.4222107301842400
  0.3279181157253440  0.0418240747750133  0.4222107301842400
  0.3529181157253440  0.0418240747750133  0.4222107301842400
  0.3779181157253440  0.0418240747750133  0.4222107301842400
  0.4029181157253440  0.0418240747750133  0.4222107301842400
  0.4279181157253440  0.0418240747750133  0.4222107301842400
  0.4529181157253441  0.0418240747750133  0.4222107301842400
  0.4779181157253440  0.0418240747750133  0.4222107301842400
  0.5029181157253441  0.0418240747750133  0.4222107301842400
  0.5279181157253440  0.0418240747750133  0.4222107301842400
  0.5529181157253440  0.0418240747750133  0.4222107301842400
  0.5779181157253440  0.0418240747750133  0.4222107301842400
  0.6029181157253440  0.0418240747750133  0.4222107301842400
  0.6279181157253440  0.0418240747750133  0.4222107301842400
  0.6529181157253441  0.0418240747750133  0.4222107301842400
  0.6779181157253440  0.0418240747750133  0.4222107301842400
  0.7029181157253440  0.0418240747750133  0.4222107301842400
  0.7279181157253439  0.0418240747750133  0.4222107301842400
  0.7529181157253441  0.0418240747750133  0.4222107301842400
  0.7779181157253441  0.0418240747750133  0.4222107301842400
  0.8029181157253440  0.0418240747750133  0.4222107301842400
  0.8279181157253439  0.0418240747750133  0.4222107301842400
  0.8529181157253440  0.0418240747750133  0.4222107301842400
  0.8779181157253441  0.0418240747750133  0.4222107301842400
  0.9029181157253441  0.0418240747750133  0.4222107301842400
  0.9279181157253440  0.0418240747750133  0.4222107301842400
  0.9529181157253441  0.0418240747750133  0.4222107301842400
  0.9779181157253440  0.0418240747750133  0.4222107301842400
  0.0029181157253440  0.0668240747750133  0.4222107301842400
  0.0279181157253440  0.0668240747750133  0.4222107301842400
  0.0529181157253440  0.0668240747750133  0.4222107301842400
  0.0779181157253440  0.0668240747750133  0.4222107301842400
  0.1029181157253440  0.0668240747750133  0.4222107301842400
  0.1279181157253440  0.0668240747750133  0.4222107301842400
  0.1529181157253440  0.0668240747750133  0.4222107301842400
  0.1779181157253440  0.0668240747750133  0.4222107301842400
  0.2029181157253440  0.0668240747750133  0.4222107301842400
  0.2279181157253440  0.0668240747750133  0.4222107301842400
  0.2529181157253440  0.0668240747750133  0.4222107301842400
  0.2779181157253440  0.0668240747750133  0.4222107301842400
  0.3029181157253439  0.0668240747750133  0.4222107301842400
  0.3279181157253440  0.0668240747750133  0.4222107301842400
  0.3529181157253440  0.0668240747750133  0.4222107301842400
  0.3779181157253440  0.0668240747750133  0.4222107301842400
  0.4029181157253440  0.0668240747750133  0.4222107301842400
  0.4279181157253440  0.0668240747750133  0.4222107301842400
  0.4529181157253440  0.0668240747750133  0.4222107301842400
  0.4779181157253440  0.0668240747750133  0.4222107301842400
  0.5029181157253441  0.0668240747750133  0.4222107301842400
  0.5279181157253440  0.0668240747750133  0.4222107301842400
  0.5529181157253441  0.0668240747750133  0.4222107301842400
  0.5779181157253440  0.0668240747750133  0.4222107301842400
  0.6029181157253440  0.0668240747750133  0.4222107301842400
  0.6279181157253441  0.0668240747750133  0.4222107301842400
  0.6529181157253442  0.0668240747750133  0.4222107301842400
  0.6779181157253440  0.0668240747750133  0.4222107301842400
  0.7029181157253440  0.0668240747750133  0.4222107301842400
  0.7279181157253440  0.0668240747750133  0.4222107301842400
  0.7529181157253442  0.0668240747750133  0.4222107301842400
  0.7779181157253441  0.0668240747750133  0.4222107301842400
  0.8029181157253440  0.0668240747750133  0.4222107301842400
  0.8279181157253440  0.0668240747750133  0.4222107301842400
  0.8529181157253442  0.0668240747750133  0.4222107301842400
  0.8779181157253441  0.0668240747750133  0.4222107301842400
  0.9029181157253441  0.0668240747750133  0.4222107301842400
  0.9279181157253440  0.0668240747750133  0.4222107301842400
  0.9529181157253441  0.0668240747750133  0.4222107301842400
  0.9779181157253439  0.0668240747750133  0.4222107301842400
  0.0029181157253440  0.0918240747750133  0.4222107301842400
  0.0279181157253440  0.0918240747750133  0.4222107301842400
  0.0529181157253440  0.0918240747750133  0.4222107301842400
  0.0779181157253440  0.0918240747750133  0.4222107301842400
  0.1029181157253440  0.0918240747750133  0.4222107301842400
  0.1279181157253440  0.0918240747750133  0.4222107301842400
  0.1529181157253440  0.0918240747750133  0.4222107301842400
  0.1779181157253440  0.0918240747750133  0.4222107301842400
  0.2029181157253440  0.0918240747750133  0.4222107301842400
  0.2279181157253441  0.0918240747750133  0.4222107301842400
  0.2529181157253440  0.0918240747750133  0.4222107301842400
  0.2779181157253440  0.0918240747750133  0.4222107301842400
  0.3029181157253439  0.0918240747750133  0.4222107301842400
  0.3279181157253440  0.0918240747750133  0.4222107301842400
  0.3529181157253440  0.0918240747750133  0.4222107301842400
  0.3779181157253440  0.0918240747750133  0.4222107301842400
  0.4029181157253440  0.0918240747750133  0.4222107301842400
  0.4279181157253441  0.0918240747750133  0.4222107301842400
  0.4529181157253440  0.0918240747750133  0.4222107301842400
  0.4779181157253440  0.0918240747750133  0.4222107301842400
  0.5029181157253441  0.0918240747750133  0.4222107301842400
  0.5279181157253439  0.0918240747750133  0.4222107301842400
  0.5529181157253440  0.0918240747750133  0.4222107301842400
  0.5779181157253440  0.0918240747750133  0.4222107301842400
  0.6029181157253440  0.0918240747750133  0.4222107301842400
  0.6279181157253440  0.0918240747750133  0.4222107301842400
  0.6529181157253441  0.0918240747750133  0.4222107301842400
  0.6779181157253440  0.0918240747750133  0.4222107301842400
  0.7029181157253440  0.0918240747750133  0.4222107301842400
  0.7279181157253439  0.0918240747750133  0.4222107301842400
  0.7529181157253441  0.0918240747750133  0.4222107301842400
  0.7779181157253441  0.0918240747750133  0.4222107301842400
  0.8029181157253440  0.0918240747750133  0.4222107301842400
  0.8279181157253439  0.0918240747750133  0.4222107301842400
  0.8529181157253440  0.0918240747750133  0.4222107301842400
  0.8779181157253441  0.0918240747750133  0.4222107301842400
  0.9029181157253441  0.0918240747750133  0.4222107301842400
  0.9279181157253440  0.0918240747750133  0.4222107301842400
  0.9529181157253441  0.0918240747750133  0.4222107301842400
  0.9779181157253439  0.0918240747750133  0.4222107301842400
  0.0029181157253440  0.1168240747750132  0.4222107301842400
  0.0279181157253440  0.1168240747750132  0.4222107301842400
  0.0529181157253440  0.1168240747750132  0.4222107301842400
  0.0779181157253440  0.1168240747750132  0.4222107301842400
  0.1029181157253440  0.1168240747750132  0.4222107301842400
  0.1279181157253440  0.1168240747750132  0.4222107301842400
  0.1529181157253440  0.1168240747750132  0.4222107301842400
  0.1779181157253440  0.1168240747750132  0.4222107301842400
  0.2029181157253440  0.1168240747750132  0.4222107301842400
  0.2279181157253440  0.1168240747750132  0.4222107301842400
  0.2529181157253440  0.1168240747750132  0.4222107301842400
  0.2779181157253440  0.1168240747750132  0.4222107301842400
  0.3029181157253439  0.1168240747750132  0.4222107301842400
  0.3279181157253440  0.1168240747750132  0.4222107301842400
  0.3529181157253440  0.1168240747750132  0.4222107301842400
  0.3779181157253440  0.1168240747750132  0.4222107301842400
  0.4029181157253440  0.1168240747750132  0.4222107301842400
  0.4279181157253440  0.1168240747750132  0.4222107301842400
  0.4529181157253440  0.1168240747750132  0.4222107301842400
  0.4779181157253440  0.1168240747750132  0.4222107301842400
  0.5029181157253441  0.1168240747750132  0.4222107301842400
  0.5279181157253440  0.1168240747750132  0.4222107301842400
  0.5529181157253440  0.1168240747750132  0.4222107301842400
  0.5779181157253440  0.1168240747750132  0.4222107301842400
  0.6029181157253440  0.1168240747750132  0.4222107301842400
  0.6279181157253441  0.1168240747750132  0.4222107301842400
  0.6529181157253441  0.1168240747750132  0.4222107301842400
  0.6779181157253440  0.1168240747750132  0.4222107301842400
  0.7029181157253440  0.1168240747750132  0.4222107301842400
  0.7279181157253440  0.1168240747750132  0.4222107301842400
  0.7529181157253441  0.1168240747750132  0.4222107301842400
  0.7779181157253441  0.1168240747750132  0.4222107301842400
  0.8029181157253440  0.1168240747750132  0.4222107301842400
  0.8279181157253440  0.1168240747750132  0.4222107301842400
  0.8529181157253440  0.1168240747750132  0.4222107301842400
  0.8779181157253442  0.1168240747750132  0.4222107301842400
  0.9029181157253441  0.1168240747750132  0.4222107301842400
  0.9279181157253440  0.1168240747750132  0.4222107301842400
  0.9529181157253441  0.1168240747750132  0.4222107301842400
  0.9779181157253440  0.1168240747750132  0.4222107301842400
  0.0029181157253440  0.1418240747750132  0.4222107301842400
  0.0279181157253440  0.1418240747750132  0.4222107301842400
  0.0529181157253440  0.1418240747750132  0.4222107301842400
  0.0779181157253440  0.1418240747750132  0.4222107301842400
  0.1029181157253440  0.1418240747750132  0.4222107301842400
  0.1279181157253440  0.1418240747750132  0.4222107301842400
  0.1529181157253440  0.1418240747750132  0.4222107301842400
  0.1779181157253440  0.1418240747750132  0.4222107301842400
  0.2029181157253440  0.1418240747750132  0.4222107301842400
  0.2279181157253440  0.1418240747750132  0.4222107301842400
  0.2529181157253440  0.1418240747750132  0.4222107301842400
  0.2779181157253440  0.1418240747750132  0.4222107301842400
  0.3029181157253440  0.1418240747750132  0.4222107301842400
  0.3279181157253440  0.1418240747750132  0.4222107301842400
  0.3529181157253440  0.1418240747750132  0.4222107301842400
  0.3779181157253440  0.1418240747750132  0.4222107301842400
  0.4029181157253441  0.1418240747750132  0.4222107301842400
  0.4279181157253441  0.1418240747750132  0.4222107301842400
  0.4529181157253441  0.1418240747750132  0.4222107301842400
  0.4779181157253441  0.1418240747750132  0.4222107301842400
  0.5029181157253440  0.1418240747750132  0.4222107301842400
  0.5279181157253439  0.1418240747750132  0.4222107301842400
  0.5529181157253440  0.1418240747750132  0.4222107301842400
  0.5779181157253440  0.1418240747750132  0.4222107301842400
  0.6029181157253439  0.1418240747750132  0.4222107301842400
  0.6279181157253440  0.1418240747750132  0.4222107301842400
  0.6529181157253441  0.1418240747750132  0.4222107301842400
  0.6779181157253440  0.1418240747750132  0.4222107301842400
  0.7029181157253439  0.1418240747750132  0.4222107301842400
  0.7279181157253439  0.1418240747750132  0.4222107301842400
  0.7529181157253441  0.1418240747750132  0.4222107301842400
  0.7779181157253440  0.1418240747750132  0.4222107301842400
  0.8029181157253439  0.1418240747750132  0.4222107301842400
  0.8279181157253439  0.1418240747750132  0.4222107301842400
  0.8529181157253440  0.1418240747750132  0.4222107301842400
  0.8779181157253440  0.1418240747750132  0.4222107301842400
  0.9029181157253441  0.1418240747750132  0.4222107301842400
  0.9279181157253440  0.1418240747750132  0.4222107301842400
  0.9529181157253441  0.1418240747750132  0.4222107301842400
  0.9779181157253440  0.1418240747750132  0.4222107301842400
  0.0029181157253440  0.1668240747750133  0.4222107301842400
  0.0279181157253440  0.1668240747750133  0.4222107301842400
  0.0529181157253440  0.1668240747750133  0.4222107301842400
  0.0779181157253440  0.1668240747750133  0.4222107301842400
  0.1029181157253440  0.1668240747750133  0.4222107301842400
  0.1279181157253440  0.1668240747750133  0.4222107301842400
  0.1529181157253440  0.1668240747750133  0.4222107301842400
  0.1779181157253440  0.1668240747750133  0.4222107301842400
  0.2029181157253440  0.1668240747750133  0.4222107301842400
  0.2279181157253440  0.1668240747750133  0.4222107301842400
  0.2529181157253441  0.1668240747750133  0.4222107301842400
  0.2779181157253441  0.1668240747750133  0.4222107301842400
  0.3029181157253441  0.1668240747750133  0.4222107301842400
  0.3279181157253441  0.1668240747750133  0.4222107301842400
  0.3529181157253440  0.1668240747750133  0.4222107301842400
  0.3779181157253441  0.1668240747750133  0.4222107301842400
  0.4029181157253440  0.1668240747750133  0.4222107301842400
  0.4279181157253440  0.1668240747750133  0.4222107301842400
  0.4529181157253440  0.1668240747750133  0.4222107301842400
  0.4779181157253440  0.1668240747750133  0.4222107301842400
  0.5029181157253441  0.1668240747750133  0.4222107301842400
  0.5279181157253440  0.1668240747750133  0.4222107301842400
  0.5529181157253440  0.1668240747750133  0.4222107301842400
  0.5779181157253440  0.1668240747750133  0.4222107301842400
  0.6029181157253440  0.1668240747750133  0.4222107301842400
  0.6279181157253440  0.1668240747750133  0.4222107301842400
  0.6529181157253441  0.1668240747750133  0.4222107301842400
  0.6779181157253440  0.1668240747750133  0.4222107301842400
  0.7029181157253440  0.1668240747750133  0.4222107301842400
  0.7279181157253439  0.1668240747750133  0.4222107301842400
  0.7529181157253441  0.1668240747750133  0.4222107301842400
  0.7779181157253441  0.1668240747750133  0.4222107301842400
  0.8029181157253440  0.1668240747750133  0.4222107301842400
  0.8279181157253439  0.1668240747750133  0.4222107301842400
  0.8529181157253440  0.1668240747750133  0.4222107301842400
  0.8779181157253442  0.1668240747750133  0.4222107301842400
  0.9029181157253441  0.1668240747750133  0.4222107301842400
  0.9279181157253439  0.1668240747750133  0.4222107301842400
  0.9529181157253440  0.1668240747750133  0.4222107301842400
  0.9779181157253439  0.1668240747750133  0.4222107301842400
  0.0029181157253440  0.1918240747750133  0.4222107301842400
  0.0279181157253440  0.1918240747750133  0.4222107301842400
  0.0529181157253440  0.1918240747750133  0.4222107301842400
  0.0779181157253440  0.1918240747750133  0.4222107301842400
  0.1029181157253440  0.1918240747750133  0.4222107301842400
  0.1279181157253440  0.1918240747750133  0.4222107301842400
  0.1529181157253441  0.1918240747750133  0.4222107301842400
  0.1779181157253441  0.1918240747750133  0.4222107301842400
  0.2029181157253440  0.1918240747750133  0.4222107301842400
  0.2279181157253440  0.1918240747750133  0.4222107301842400
  0.2529181157253440  0.1918240747750133  0.4222107301842400
  0.2779181157253441  0.1918240747750133  0.4222107301842400
  0.3029181157253440  0.1918240747750133  0.4222107301842400
  0.3279181157253441  0.1918240747750133  0.4222107301842400
  0.3529181157253440  0.1918240747750133  0.4222107301842400
  0.3779181157253441  0.1918240747750133  0.4222107301842400
  0.4029181157253440  0.1918240747750133  0.4222107301842400
  0.4279181157253441  0.1918240747750133  0.4222107301842400
  0.4529181157253441  0.1918240747750133  0.4222107301842400
  0.4779181157253440  0.1918240747750133  0.4222107301842400
  0.5029181157253440  0.1918240747750133  0.4222107301842400
  0.5279181157253439  0.1918240747750133  0.4222107301842400
  0.5529181157253440  0.1918240747750133  0.4222107301842400
  0.5779181157253439  0.1918240747750133  0.4222107301842400
  0.6029181157253439  0.1918240747750133  0.4222107301842400
  0.6279181157253440  0.1918240747750133  0.4222107301842400
  0.6529181157253441  0.1918240747750133  0.4222107301842400
  0.6779181157253439  0.1918240747750133  0.4222107301842400
  0.7029181157253439  0.1918240747750133  0.4222107301842400
  0.7279181157253439  0.1918240747750133  0.4222107301842400
  0.7529181157253441  0.1918240747750133  0.4222107301842400
  0.7779181157253440  0.1918240747750133  0.4222107301842400
  0.8029181157253439  0.1918240747750133  0.4222107301842400
  0.8279181157253439  0.1918240747750133  0.4222107301842400
  0.8529181157253440  0.1918240747750133  0.4222107301842400
  0.8779181157253440  0.1918240747750133  0.4222107301842400
  0.9029181157253441  0.1918240747750133  0.4222107301842400
  0.9279181157253439  0.1918240747750133  0.4222107301842400
  0.9529181157253440  0.1918240747750133  0.4222107301842400
  0.9779181157253439  0.1918240747750133  0.4222107301842400
  0.0029181157253440  0.2168240747750133  0.4222107301842400
  0.0279181157253440  0.2168240747750133  0.4222107301842400
  0.0529181157253440  0.2168240747750133  0.4222107301842400
  0.0779181157253440  0.2168240747750133  0.4222107301842400
  0.1029181157253440  0.2168240747750133  0.4222107301842400
  0.1279181157253440  0.2168240747750133  0.4222107301842400
  0.1529181157253440  0.2168240747750133  0.4222107301842400
  0.1779181157253441  0.2168240747750133  0.4222107301842400
  0.2029181157253440  0.2168240747750133  0.4222107301842400
  0.2279181157253440  0.2168240747750133  0.4222107301842400
  0.2529181157253440  0.2168240747750133  0.4222107301842400
  0.2779181157253440  0.2168240747750133  0.4222107301842400
  0.3029181157253440  0.2168240747750133  0.4222107301842400
  0.3279181157253440  0.2168240747750133  0.4222107301842400
  0.3529181157253440  0.2168240747750133  0.4222107301842400
  0.3779181157253440  0.2168240747750133  0.4222107301842400
  0.4029181157253440  0.2168240747750133  0.4222107301842400
  0.4279181157253440  0.2168240747750133  0.4222107301842400
  0.4529181157253440  0.2168240747750133  0.4222107301842400
  0.4779181157253440  0.2168240747750133  0.4222107301842400
  0.5029181157253440  0.2168240747750133  0.4222107301842400
  0.5279181157253439  0.2168240747750133  0.4222107301842400
  0.5529181157253440  0.2168240747750133  0.4222107301842400
  0.5779181157253440  0.2168240747750133  0.4222107301842400
  0.6029181157253439  0.2168240747750133  0.4222107301842400
  0.6279181157253440  0.2168240747750133  0.4222107301842400
  0.6529181157253441  0.2168240747750133  0.4222107301842400
  0.6779181157253440  0.2168240747750133  0.4222107301842400
  0.7029181157253439  0.2168240747750133  0.4222107301842400
  0.7279181157253439  0.2168240747750133  0.4222107301842400
  0.7529181157253441  0.2168240747750133  0.4222107301842400
  0.7779181157253441  0.2168240747750133  0.4222107301842400
  0.8029181157253439  0.2168240747750133  0.4222107301842400
  0.8279181157253439  0.2168240747750133  0.4222107301842400
  0.8529181157253440  0.2168240747750133  0.4222107301842400
  0.8779181157253442  0.2168240747750133  0.4222107301842400
  0.9029181157253441  0.2168240747750133  0.4222107301842400
  0.9279181157253440  0.2168240747750133  0.4222107301842400
  0.9529181157253439  0.2168240747750133  0.4222107301842400
  0.9779181157253438  0.2168240747750133  0.4222107301842400
  0.0029181157253440  0.2418240747750132  0.4222107301842400
  0.0279181157253440  0.2418240747750132  0.4222107301842400
  0.0529181157253440  0.2418240747750132  0.4222107301842400
  0.0779181157253440  0.2418240747750132  0.4222107301842400
  0.1029181157253440  0.2418240747750132  0.4222107301842400
  0.1279181157253440  0.2418240747750132  0.4222107301842400
  0.1529181157253440  0.2418240747750132  0.4222107301842400
  0.1779181157253440  0.2418240747750132  0.4222107301842400
  0.2029181157253440  0.2418240747750132  0.4222107301842400
  0.2279181157253440  0.2418240747750132  0.4222107301842400
  0.2529181157253440  0.2418240747750132  0.4222107301842400
  0.2779181157253440  0.2418240747750132  0.4222107301842400
  0.3029181157253440  0.2418240747750132  0.4222107301842400
  0.3279181157253440  0.2418240747750132  0.4222107301842400
  0.3529181157253440  0.2418240747750132  0.4222107301842400
  0.3779181157253440  0.2418240747750132  0.4222107301842400
  0.4029181157253440  0.2418240747750132  0.4222107301842400
  0.4279181157253441  0.2418240747750132  0.4222107301842400
  0.4529181157253440  0.2418240747750132  0.4222107301842400
  0.4779181157253440  0.2418240747750132  0.4222107301842400
  0.5029181157253441  0.2418240747750132  0.4222107301842400
  0.5279181157253440  0.2418240747750132  0.4222107301842400
  0.5529181157253440  0.2418240747750132  0.4222107301842400
  0.5779181157253440  0.2418240747750132  0.4222107301842400
  0.6029181157253440  0.2418240747750132  0.4222107301842400
  0.6279181157253441  0.2418240747750132  0.4222107301842400
  0.6529181157253441  0.2418240747750132  0.4222107301842400
  0.6779181157253440  0.2418240747750132  0.4222107301842400
  0.7029181157253440  0.2418240747750132  0.4222107301842400
  0.7279181157253440  0.2418240747750132  0.4222107301842400
  0.7529181157253441  0.2418240747750132  0.4222107301842400
  0.7779181157253441  0.2418240747750132  0.4222107301842400
  0.8029181157253440  0.2418240747750132  0.4222107301842400
  0.8279181157253441  0.2418240747750132  0.4222107301842400
  0.8529181157253442  0.2418240747750132  0.4222107301842400
  0.8779181157253441  0.2418240747750132  0.4222107301842400
  0.9029181157253442  0.2418240747750132  0.4222107301842400
  0.9279181157253441  0.2418240747750132  0.4222107301842400
  0.9529181157253442  0.2418240747750132  0.4222107301842400
  0.9779181157253442  0.2418240747750132  0.4222107301842400
  0.0029181157253440  0.2668240747750132  0.4222107301842400
  0.0279181157253440  0.2668240747750132  0.4222107301842400
  0.0529181157253440  0.2668240747750132  0.4222107301842400
  0.0779181157253440  0.2668240747750132  0.4222107301842400
  0.1029181157253440  0.2668240747750132  0.4222107301842400
  0.1279181157253440  0.2668240747750132  0.4222107301842400
  0.1529181157253441  0.2668240747750132  0.4222107301842400
  0.1779181157253440  0.2668240747750132  0.4222107301842400
  0.2029181157253440  0.2668240747750132  0.4222107301842400
  0.2279181157253440  0.2668240747750132  0.4222107301842400
  0.2529181157253440  0.2668240747750132  0.4222107301842400
  0.2779181157253440  0.2668240747750132  0.4222107301842400
  0.3029181157253440  0.2668240747750132  0.4222107301842400
  0.3279181157253440  0.2668240747750132  0.4222107301842400
  0.3529181157253440  0.2668240747750132  0.4222107301842400
  0.3779181157253441  0.2668240747750132  0.4222107301842400
  0.4029181157253440  0.2668240747750132  0.4222107301842400
  0.4279181157253440  0.2668240747750132  0.4222107301842400
  0.4529181157253440  0.2668240747750132  0.4222107301842400
  0.4779181157253440  0.2668240747750132  0.4222107301842400
  0.5029181157253440  0.2668240747750132  0.4222107301842400
  0.5279181157253439  0.2668240747750132  0.4222107301842400
  0.5529181157253440  0.2668240747750132  0.4222107301842400
  0.5779181157253440  0.2668240747750132  0.4222107301842400
  0.6029181157253439  0.2668240747750132  0.4222107301842400
  0.6279181157253440  0.2668240747750132  0.4222107301842400
  0.6529181157253441  0.2668240747750132  0.4222107301842400
  0.6779181157253439  0.2668240747750132  0.4222107301842400
  0.7029181157253439  0.2668240747750132  0.4222107301842400
  0.7279181157253439  0.2668240747750132  0.4222107301842400
  0.7529181157253441  0.2668240747750132  0.4222107301842400
  0.7779181157253440  0.2668240747750132  0.4222107301842400
  0.8029181157253440  0.2668240747750132  0.4222107301842400
  0.8279181157253439  0.2668240747750132  0.4222107301842400
  0.8529181157253440  0.2668240747750132  0.4222107301842400
  0.8779181157253441  0.2668240747750132  0.4222107301842400
  0.9029181157253440  0.2668240747750132  0.4222107301842400
  0.9279181157253439  0.2668240747750132  0.4222107301842400
  0.9529181157253440  0.2668240747750132  0.4222107301842400
  0.9779181157253439  0.2668240747750132  0.4222107301842400
  0.0029181157253440  0.2918240747750133  0.4222107301842400
  0.0279181157253440  0.2918240747750133  0.4222107301842400
  0.0529181157253440  0.2918240747750133  0.4222107301842400
  0.0779181157253440  0.2918240747750133  0.4222107301842400
  0.1029181157253440  0.2918240747750133  0.4222107301842400
  0.1279181157253440  0.2918240747750133  0.4222107301842400
  0.1529181157253440  0.2918240747750133  0.4222107301842400
  0.1779181157253440  0.2918240747750133  0.4222107301842400
  0.2029181157253440  0.2918240747750133  0.4222107301842400
  0.2279181157253441  0.2918240747750133  0.4222107301842400
  0.2529181157253440  0.2918240747750133  0.4222107301842400
  0.2779181157253440  0.2918240747750133  0.4222107301842400
  0.3029181157253439  0.2918240747750133  0.4222107301842400
  0.3279181157253440  0.2918240747750133  0.4222107301842400
  0.3529181157253440  0.2918240747750133  0.4222107301842400
  0.3779181157253440  0.2918240747750133  0.4222107301842400
  0.4029181157253440  0.2918240747750133  0.4222107301842400
  0.4279181157253439  0.2918240747750133  0.4222107301842400
  0.4529181157253440  0.2918240747750133  0.4222107301842400
  0.4779181157253441  0.2918240747750133  0.4222107301842400
  0.5029181157253442  0.2918240747750133  0.4222107301842400
  0.5279181157253440  0.2918240747750133  0.4222107301842400
  0.5529181157253441  0.2918240747750133  0.4222107301842400
  0.5779181157253441  0.2918240747750133  0.4222107301842400
  0.6029181157253442  0.2918240747750133  0.4222107301842400
  0.6279181157253441  0.2918240747750133  0.4222107301842400
  0.6529181157253442  0.2918240747750133  0.4222107301842400
  0.6779181157253441  0.2918240747750133  0.4222107301842400
  0.7029181157253441  0.2918240747750133  0.4222107301842400
  0.7279181157253440  0.2918240747750133  0.4222107301842400
  0.7529181157253442  0.2918240747750133  0.4222107301842400
  0.7779181157253442  0.2918240747750133  0.4222107301842400
  0.8029181157253440  0.2918240747750133  0.4222107301842400
  0.8279181157253440  0.2918240747750133  0.4222107301842400
  0.8529181157253442  0.2918240747750133  0.4222107301842400
  0.8779181157253440  0.2918240747750133  0.4222107301842400
  0.9029181157253441  0.2918240747750133  0.4222107301842400
  0.9279181157253440  0.2918240747750133  0.4222107301842400
  0.9529181157253441  0.2918240747750133  0.4222107301842400
  0.9779181157253440  0.2918240747750133  0.4222107301842400
  0.0029181157253440  0.3168240747750133  0.4222107301842400
  0.0279181157253440  0.3168240747750133  0.4222107301842400
  0.0529181157253440  0.3168240747750133  0.4222107301842400
  0.0779181157253440  0.3168240747750133  0.4222107301842400
  0.1029181157253440  0.3168240747750133  0.4222107301842400
  0.1279181157253440  0.3168240747750133  0.4222107301842400
  0.1529181157253440  0.3168240747750133  0.4222107301842400
  0.1779181157253440  0.3168240747750133  0.4222107301842400
  0.2029181157253440  0.3168240747750133  0.4222107301842400
  0.2279181157253441  0.3168240747750133  0.4222107301842400
  0.2529181157253440  0.3168240747750133  0.4222107301842400
  0.2779181157253441  0.3168240747750133  0.4222107301842400
  0.3029181157253440  0.3168240747750133  0.4222107301842400
  0.3279181157253441  0.3168240747750133  0.4222107301842400
  0.3529181157253441  0.3168240747750133  0.4222107301842400
  0.3779181157253440  0.3168240747750133  0.4222107301842400
  0.4029181157253440  0.3168240747750133  0.4222107301842400
  0.4279181157253441  0.3168240747750133  0.4222107301842400
  0.4529181157253441  0.3168240747750133  0.4222107301842400
  0.4779181157253441  0.3168240747750133  0.4222107301842400
  0.5029181157253441  0.3168240747750133  0.4222107301842400
  0.5279181157253440  0.3168240747750133  0.4222107301842400
  0.5529181157253440  0.3168240747750133  0.4222107301842400
  0.5779181157253440  0.3168240747750133  0.4222107301842400
  0.6029181157253440  0.3168240747750133  0.4222107301842400
  0.6279181157253441  0.3168240747750133  0.4222107301842400
  0.6529181157253441  0.3168240747750133  0.4222107301842400
  0.6779181157253440  0.3168240747750133  0.4222107301842400
  0.7029181157253440  0.3168240747750133  0.4222107301842400
  0.7279181157253440  0.3168240747750133  0.4222107301842400
  0.7529181157253441  0.3168240747750133  0.4222107301842400
  0.7779181157253441  0.3168240747750133  0.4222107301842400
  0.8029181157253440  0.3168240747750133  0.4222107301842400
  0.8279181157253439  0.3168240747750133  0.4222107301842400
  0.8529181157253440  0.3168240747750133  0.4222107301842400
  0.8779181157253442  0.3168240747750133  0.4222107301842400
  0.9029181157253439  0.3168240747750133  0.4222107301842400
  0.9279181157253438  0.3168240747750133  0.4222107301842400
  0.9529181157253439  0.3168240747750133  0.4222107301842400
  0.9779181157253438  0.3168240747750133  0.4222107301842400
  0.0029181157253440  0.3418240747750133  0.4222107301842400
  0.0279181157253440  0.3418240747750133  0.4222107301842400
  0.0529181157253440  0.3418240747750133  0.4222107301842400
  0.0779181157253440  0.3418240747750133  0.4222107301842400
  0.1029181157253440  0.3418240747750133  0.4222107301842400
  0.1279181157253440  0.3418240747750133  0.4222107301842400
  0.1529181157253440  0.3418240747750133  0.4222107301842400
  0.1779181157253440  0.3418240747750133  0.4222107301842400
  0.2029181157253440  0.3418240747750133  0.4222107301842400
  0.2279181157253440  0.3418240747750133  0.4222107301842400
  0.2529181157253440  0.3418240747750133  0.4222107301842400
  0.2779181157253440  0.3418240747750133  0.4222107301842400
  0.3029181157253441  0.3418240747750133  0.4222107301842400
  0.3279181157253440  0.3418240747750133  0.4222107301842400
  0.3529181157253440  0.3418240747750133  0.4222107301842400
  0.3779181157253441  0.3418240747750133  0.4222107301842400
  0.4029181157253440  0.3418240747750133  0.4222107301842400
  0.4279181157253440  0.3418240747750133  0.4222107301842400
  0.4529181157253440  0.3418240747750133  0.4222107301842400
  0.4779181157253442  0.3418240747750133  0.4222107301842400
  0.5029181157253441  0.3418240747750133  0.4222107301842400
  0.5279181157253440  0.3418240747750133  0.4222107301842400
  0.5529181157253441  0.3418240747750133  0.4222107301842400
  0.5779181157253441  0.3418240747750133  0.4222107301842400
  0.6029181157253440  0.3418240747750133  0.4222107301842400
  0.6279181157253441  0.3418240747750133  0.4222107301842400
  0.6529181157253442  0.3418240747750133  0.4222107301842400
  0.6779181157253441  0.3418240747750133  0.4222107301842400
  0.7029181157253440  0.3418240747750133  0.4222107301842400
  0.7279181157253440  0.3418240747750133  0.4222107301842400
  0.7529181157253442  0.3418240747750133  0.4222107301842400
  0.7779181157253441  0.3418240747750133  0.4222107301842400
  0.8029181157253439  0.3418240747750133  0.4222107301842400
  0.8279181157253440  0.3418240747750133  0.4222107301842400
  0.8529181157253442  0.3418240747750133  0.4222107301842400
  0.8779181157253441  0.3418240747750133  0.4222107301842400
  0.9029181157253442  0.3418240747750133  0.4222107301842400
  0.9279181157253441  0.3418240747750133  0.4222107301842400
  0.9529181157253440  0.3418240747750133  0.4222107301842400
  0.9779181157253439  0.3418240747750133  0.4222107301842400
  0.0029181157253440  0.3668240747750133  0.4222107301842400
  0.0279181157253440  0.3668240747750133  0.4222107301842400
  0.0529181157253440  0.3668240747750133  0.4222107301842400
  0.0779181157253440  0.3668240747750133  0.4222107301842400
  0.1029181157253440  0.3668240747750133  0.4222107301842400
  0.1279181157253440  0.3668240747750133  0.4222107301842400
  0.1529181157253440  0.3668240747750133  0.4222107301842400
  0.1779181157253440  0.3668240747750133  0.4222107301842400
  0.2029181157253440  0.3668240747750133  0.4222107301842400
  0.2279181157253440  0.3668240747750133  0.4222107301842400
  0.2529181157253440  0.3668240747750133  0.4222107301842400
  0.2779181157253440  0.3668240747750133  0.4222107301842400
  0.3029181157253441  0.3668240747750133  0.4222107301842400
  0.3279181157253441  0.3668240747750133  0.4222107301842400
  0.3529181157253440  0.3668240747750133  0.4222107301842400
  0.3779181157253440  0.3668240747750133  0.4222107301842400
  0.4029181157253440  0.3668240747750133  0.4222107301842400
  0.4279181157253441  0.3668240747750133  0.4222107301842400
  0.4529181157253440  0.3668240747750133  0.4222107301842400
  0.4779181157253441  0.3668240747750133  0.4222107301842400
  0.5029181157253441  0.3668240747750133  0.4222107301842400
  0.5279181157253440  0.3668240747750133  0.4222107301842400
  0.5529181157253440  0.3668240747750133  0.4222107301842400
  0.5779181157253440  0.3668240747750133  0.4222107301842400
  0.6029181157253440  0.3668240747750133  0.4222107301842400
  0.6279181157253440  0.3668240747750133  0.4222107301842400
  0.6529181157253441  0.3668240747750133  0.4222107301842400
  0.6779181157253440  0.3668240747750133  0.4222107301842400
  0.7029181157253440  0.3668240747750133  0.4222107301842400
  0.7279181157253439  0.3668240747750133  0.4222107301842400
  0.7529181157253440  0.3668240747750133  0.4222107301842400
  0.7779181157253441  0.3668240747750133  0.4222107301842400
  0.8029181157253440  0.3668240747750133  0.4222107301842400
  0.8279181157253438  0.3668240747750133  0.4222107301842400
  0.8529181157253439  0.3668240747750133  0.4222107301842400
  0.8779181157253441  0.3668240747750133  0.4222107301842400
  0.9029181157253440  0.3668240747750133  0.4222107301842400
  0.9279181157253439  0.3668240747750133  0.4222107301842400
  0.9529181157253440  0.3668240747750133  0.4222107301842400
  0.9779181157253439  0.3668240747750133  0.4222107301842400
  0.0029181157253440  0.3918240747750132  0.4222107301842400
  0.0279181157253440  0.3918240747750132  0.4222107301842400
  0.0529181157253440  0.3918240747750132  0.4222107301842400
  0.0779181157253440  0.3918240747750132  0.4222107301842400
  0.1029181157253441  0.3918240747750132  0.4222107301842400
  0.1279181157253440  0.3918240747750132  0.4222107301842400
  0.1529181157253441  0.3918240747750132  0.4222107301842400
  0.1779181157253440  0.3918240747750132  0.4222107301842400
  0.2029181157253440  0.3918240747750132  0.4222107301842400
  0.2279181157253441  0.3918240747750132  0.4222107301842400
  0.2529181157253440  0.3918240747750132  0.4222107301842400
  0.2779181157253440  0.3918240747750132  0.4222107301842400
  0.3029181157253440  0.3918240747750132  0.4222107301842400
  0.3279181157253440  0.3918240747750132  0.4222107301842400
  0.3529181157253440  0.3918240747750132  0.4222107301842400
  0.3779181157253440  0.3918240747750132  0.4222107301842400
  0.4029181157253440  0.3918240747750132  0.4222107301842400
  0.4279181157253440  0.3918240747750132  0.4222107301842400
  0.4529181157253440  0.3918240747750132  0.4222107301842400
  0.4779181157253440  0.3918240747750132  0.4222107301842400
  0.5029181157253441  0.3918240747750132  0.4222107301842400
  0.5279181157253440  0.3918240747750132  0.4222107301842400
  0.5529181157253441  0.3918240747750132  0.4222107301842400
  0.5779181157253440  0.3918240747750132  0.4222107301842400
  0.6029181157253440  0.3918240747750132  0.4222107301842400
  0.6279181157253441  0.3918240747750132  0.4222107301842400
  0.6529181157253442  0.3918240747750132  0.4222107301842400
  0.6779181157253440  0.3918240747750132  0.4222107301842400
  0.7029181157253440  0.3918240747750132  0.4222107301842400
  0.7279181157253440  0.3918240747750132  0.4222107301842400
  0.7529181157253442  0.3918240747750132  0.4222107301842400
  0.7779181157253440  0.3918240747750132  0.4222107301842400
  0.8029181157253439  0.3918240747750132  0.4222107301842400
  0.8279181157253439  0.3918240747750132  0.4222107301842400
  0.8529181157253440  0.3918240747750132  0.4222107301842400
  0.8779181157253440  0.3918240747750132  0.4222107301842400
  0.9029181157253441  0.3918240747750132  0.4222107301842400
  0.9279181157253440  0.3918240747750132  0.4222107301842400
  0.9529181157253441  0.3918240747750132  0.4222107301842400
  0.9779181157253440  0.3918240747750132  0.4222107301842400
  0.0029181157253441  0.4168240747750133  0.4222107301842400
  0.0279181157253440  0.4168240747750133  0.4222107301842400
  0.0529181157253440  0.4168240747750133  0.4222107301842400
  0.0779181157253441  0.4168240747750133  0.4222107301842400
  0.1029181157253440  0.4168240747750133  0.4222107301842400
  0.1279181157253441  0.4168240747750133  0.4222107301842400
  0.1529181157253440  0.4168240747750133  0.4222107301842400
  0.1779181157253441  0.4168240747750133  0.4222107301842400
  0.2029181157253441  0.4168240747750133  0.4222107301842400
  0.2279181157253441  0.4168240747750133  0.4222107301842400
  0.2529181157253440  0.4168240747750133  0.4222107301842400
  0.2779181157253441  0.4168240747750133  0.4222107301842400
  0.3029181157253441  0.4168240747750133  0.4222107301842400
  0.3279181157253441  0.4168240747750133  0.4222107301842400
  0.3529181157253441  0.4168240747750133  0.4222107301842400
  0.3779181157253441  0.4168240747750133  0.4222107301842400
  0.4029181157253441  0.4168240747750133  0.4222107301842400
  0.4279181157253441  0.4168240747750133  0.4222107301842400
  0.4529181157253441  0.4168240747750133  0.4222107301842400
  0.4779181157253441  0.4168240747750133  0.4222107301842400
  0.5029181157253441  0.4168240747750133  0.4222107301842400
  0.5279181157253439  0.4168240747750133  0.4222107301842400
  0.5529181157253440  0.4168240747750133  0.4222107301842400
  0.5779181157253440  0.4168240747750133  0.4222107301842400
  0.6029181157253440  0.4168240747750133  0.4222107301842400
  0.6279181157253440  0.4168240747750133  0.4222107301842400
  0.6529181157253441  0.4168240747750133  0.4222107301842400
  0.6779181157253440  0.4168240747750133  0.4222107301842400
  0.7029181157253440  0.4168240747750133  0.4222107301842400
  0.7279181157253440  0.4168240747750133  0.4222107301842400
  0.7529181157253442  0.4168240747750133  0.4222107301842400
  0.7779181157253441  0.4168240747750133  0.4222107301842400
  0.8029181157253440  0.4168240747750133  0.4222107301842400
  0.8279181157253441  0.4168240747750133  0.4222107301842400
  0.8529181157253440  0.4168240747750133  0.4222107301842400
  0.8779181157253440  0.4168240747750133  0.4222107301842400
  0.9029181157253441  0.4168240747750133  0.4222107301842400
  0.9279181157253440  0.4168240747750133  0.4222107301842400
  0.9529181157253441  0.4168240747750133  0.4222107301842400
  0.9779181157253440  0.4168240747750133  0.4222107301842400
  0.0029181157253440  0.4418240747750133  0.4222107301842400
  0.0279181157253440  0.4418240747750133  0.4222107301842400
  0.0529181157253440  0.4418240747750133  0.4222107301842400
  0.0779181157253440  0.4418240747750133  0.4222107301842400
  0.1029181157253440  0.4418240747750133  0.4222107301842400
  0.1279181157253441  0.4418240747750133  0.4222107301842400
  0.1529181157253440  0.4418240747750133  0.4222107301842400
  0.1779181157253441  0.4418240747750133  0.4222107301842400
  0.2029181157253440  0.4418240747750133  0.4222107301842400
  0.2279181157253440  0.4418240747750133  0.4222107301842400
  0.2529181157253440  0.4418240747750133  0.4222107301842400
  0.2779181157253440  0.4418240747750133  0.4222107301842400
  0.3029181157253440  0.4418240747750133  0.4222107301842400
  0.3279181157253440  0.4418240747750133  0.4222107301842400
  0.3529181157253439  0.4418240747750133  0.4222107301842400
  0.3779181157253440  0.4418240747750133  0.4222107301842400
  0.4029181157253440  0.4418240747750133  0.4222107301842400
  0.4279181157253440  0.4418240747750133  0.4222107301842400
  0.4529181157253439  0.4418240747750133  0.4222107301842400
  0.4779181157253440  0.4418240747750133  0.4222107301842400
  0.5029181157253441  0.4418240747750133  0.4222107301842400
  0.5279181157253440  0.4418240747750133  0.4222107301842400
  0.5529181157253440  0.4418240747750133  0.4222107301842400
  0.5779181157253440  0.4418240747750133  0.4222107301842400
  0.6029181157253440  0.4418240747750133  0.4222107301842400
  0.6279181157253441  0.4418240747750133  0.4222107301842400
  0.6529181157253441  0.4418240747750133  0.4222107301842400
  0.6779181157253440  0.4418240747750133  0.4222107301842400
  0.7029181157253440  0.4418240747750133  0.4222107301842400
  0.7279181157253440  0.4418240747750133  0.4222107301842400
  0.7529181157253441  0.4418240747750133  0.4222107301842400
  0.7779181157253440  0.4418240747750133  0.4222107301842400
  0.8029181157253439  0.4418240747750133  0.4222107301842400
  0.8279181157253440  0.4418240747750133  0.4222107301842400
  0.8529181157253442  0.4418240747750133  0.4222107301842400
  0.8779181157253441  0.4418240747750133  0.4222107301842400
  0.9029181157253440  0.4418240747750133  0.4222107301842400
  0.9279181157253439  0.4418240747750133  0.4222107301842400
  0.9529181157253440  0.4418240747750133  0.4222107301842400
  0.9779181157253439  0.4418240747750133  0.4222107301842400
  0.0029181157253440  0.4668240747750133  0.4222107301842400
  0.0279181157253440  0.4668240747750133  0.4222107301842400
  0.0529181157253440  0.4668240747750133  0.4222107301842400
  0.0779181157253440  0.4668240747750133  0.4222107301842400
  0.1029181157253440  0.4668240747750133  0.4222107301842400
  0.1279181157253440  0.4668240747750133  0.4222107301842400
  0.1529181157253440  0.4668240747750133  0.4222107301842400
  0.1779181157253440  0.4668240747750133  0.4222107301842400
  0.2029181157253441  0.4668240747750133  0.4222107301842400
  0.2279181157253440  0.4668240747750133  0.4222107301842400
  0.2529181157253440  0.4668240747750133  0.4222107301842400
  0.2779181157253441  0.4668240747750133  0.4222107301842400
  0.3029181157253439  0.4668240747750133  0.4222107301842400
  0.3279181157253441  0.4668240747750133  0.4222107301842400
  0.3529181157253441  0.4668240747750133  0.4222107301842400
  0.3779181157253441  0.4668240747750133  0.4222107301842400
  0.4029181157253440  0.4668240747750133  0.4222107301842400
  0.4279181157253441  0.4668240747750133  0.4222107301842400
  0.4529181157253441  0.4668240747750133  0.4222107301842400
  0.4779181157253441  0.4668240747750133  0.4222107301842400
  0.5029181157253441  0.4668240747750133  0.4222107301842400
  0.5279181157253440  0.4668240747750133  0.4222107301842400
  0.5529181157253441  0.4668240747750133  0.4222107301842400
  0.5779181157253441  0.4668240747750133  0.4222107301842400
  0.6029181157253440  0.4668240747750133  0.4222107301842400
  0.6279181157253441  0.4668240747750133  0.4222107301842400
  0.6529181157253442  0.4668240747750133  0.4222107301842400
  0.6779181157253441  0.4668240747750133  0.4222107301842400
  0.7029181157253440  0.4668240747750133  0.4222107301842400
  0.7279181157253442  0.4668240747750133  0.4222107301842400
  0.7529181157253443  0.4668240747750133  0.4222107301842400
  0.7779181157253441  0.4668240747750133  0.4222107301842400
  0.8029181157253440  0.4668240747750133  0.4222107301842400
  0.8279181157253441  0.4668240747750133  0.4222107301842400
  0.8529181157253443  0.4668240747750133  0.4222107301842400
  0.8779181157253442  0.4668240747750133  0.4222107301842400
  0.9029181157253443  0.4668240747750133  0.4222107301842400
  0.9279181157253440  0.4668240747750133  0.4222107301842400
  0.9529181157253441  0.4668240747750133  0.4222107301842400
  0.9779181157253440  0.4668240747750133  0.4222107301842400
  0.0029181157253440  0.4918240747750133  0.4222107301842400
  0.0279181157253440  0.4918240747750133  0.4222107301842400
  0.0529181157253441  0.4918240747750133  0.4222107301842400
  0.0779181157253440  0.4918240747750133  0.4222107301842400
  0.1029181157253441  0.4918240747750133  0.4222107301842400
  0.1279181157253441  0.4918240747750133  0.4222107301842400
  0.1529181157253440  0.4918240747750133  0.4222107301842400
  0.1779181157253441  0.4918240747750133  0.4222107301842400
  0.2029181157253440  0.4918240747750133  0.4222107301842400
  0.2279181157253441  0.4918240747750133  0.4222107301842400
  0.2529181157253440  0.4918240747750133  0.4222107301842400
  0.2779181157253441  0.4918240747750133  0.4222107301842400
  0.3029181157253440  0.4918240747750133  0.4222107301842400
  0.3279181157253440  0.4918240747750133  0.4222107301842400
  0.3529181157253440  0.4918240747750133  0.4222107301842400
  0.3779181157253441  0.4918240747750133  0.4222107301842400
  0.4029181157253441  0.4918240747750133  0.4222107301842400
  0.4279181157253440  0.4918240747750133  0.4222107301842400
  0.4529181157253440  0.4918240747750133  0.4222107301842400
  0.4779181157253440  0.4918240747750133  0.4222107301842400
  0.5029181157253441  0.4918240747750133  0.4222107301842400
  0.5279181157253440  0.4918240747750133  0.4222107301842400
  0.5529181157253440  0.4918240747750133  0.4222107301842400
  0.5779181157253440  0.4918240747750133  0.4222107301842400
  0.6029181157253440  0.4918240747750133  0.4222107301842400
  0.6279181157253440  0.4918240747750133  0.4222107301842400
  0.6529181157253441  0.4918240747750133  0.4222107301842400
  0.6779181157253440  0.4918240747750133  0.4222107301842400
  0.7029181157253441  0.4918240747750133  0.4222107301842400
  0.7279181157253439  0.4918240747750133  0.4222107301842400
  0.7529181157253441  0.4918240747750133  0.4222107301842400
  0.7779181157253441  0.4918240747750133  0.4222107301842400
  0.8029181157253440  0.4918240747750133  0.4222107301842400
  0.8279181157253439  0.4918240747750133  0.4222107301842400
  0.8529181157253440  0.4918240747750133  0.4222107301842400
  0.8779181157253442  0.4918240747750133  0.4222107301842400
  0.9029181157253441  0.4918240747750133  0.4222107301842400
  0.9279181157253440  0.4918240747750133  0.4222107301842400
  0.9529181157253441  0.4918240747750133  0.4222107301842400
  0.9779181157253438  0.4918240747750133  0.4222107301842400
  0.0029181157253440  0.5168240747750135  0.4222107301842400
  0.0279181157253440  0.5168240747750135  0.4222107301842400
  0.0529181157253440  0.5168240747750135  0.4222107301842400
  0.0779181157253440  0.5168240747750135  0.4222107301842400
  0.1029181157253440  0.5168240747750135  0.4222107301842400
  0.1279181157253440  0.5168240747750135  0.4222107301842400
  0.1529181157253440  0.5168240747750135  0.4222107301842400
  0.1779181157253440  0.5168240747750135  0.4222107301842400
  0.2029181157253440  0.5168240747750135  0.4222107301842400
  0.2279181157253441  0.5168240747750135  0.4222107301842400
  0.2529181157253440  0.5168240747750135  0.4222107301842400
  0.2779181157253440  0.5168240747750135  0.4222107301842400
  0.3029181157253439  0.5168240747750135  0.4222107301842400
  0.3279181157253441  0.5168240747750135  0.4222107301842400
  0.3529181157253441  0.5168240747750135  0.4222107301842400
  0.3779181157253440  0.5168240747750135  0.4222107301842400
  0.4029181157253440  0.5168240747750135  0.4222107301842400
  0.4279181157253441  0.5168240747750135  0.4222107301842400
  0.4529181157253441  0.5168240747750135  0.4222107301842400
  0.4779181157253440  0.5168240747750135  0.4222107301842400
  0.5029181157253440  0.5168240747750135  0.4222107301842400
  0.5279181157253439  0.5168240747750135  0.4222107301842400
  0.5529181157253440  0.5168240747750135  0.4222107301842400
  0.5779181157253439  0.5168240747750135  0.4222107301842400
  0.6029181157253439  0.5168240747750135  0.4222107301842400
  0.6279181157253440  0.5168240747750135  0.4222107301842400
  0.6529181157253440  0.5168240747750135  0.4222107301842400
  0.6779181157253440  0.5168240747750135  0.4222107301842400
  0.7029181157253439  0.5168240747750135  0.4222107301842400
  0.7279181157253440  0.5168240747750135  0.4222107301842400
  0.7529181157253442  0.5168240747750135  0.4222107301842400
  0.7779181157253441  0.5168240747750135  0.4222107301842400
  0.8029181157253440  0.5168240747750135  0.4222107301842400
  0.8279181157253439  0.5168240747750135  0.4222107301842400
  0.8529181157253440  0.5168240747750135  0.4222107301842400
  0.8779181157253440  0.5168240747750135  0.4222107301842400
  0.9029181157253441  0.5168240747750135  0.4222107301842400
  0.9279181157253440  0.5168240747750135  0.4222107301842400
  0.9529181157253441  0.5168240747750135  0.4222107301842400
  0.9779181157253440  0.5168240747750135  0.4222107301842400
  0.0029181157253440  0.5418240747750133  0.4222107301842400
  0.0279181157253440  0.5418240747750133  0.4222107301842400
  0.0529181157253440  0.5418240747750133  0.4222107301842400
  0.0779181157253441  0.5418240747750133  0.4222107301842400
  0.1029181157253440  0.5418240747750133  0.4222107301842400
  0.1279181157253441  0.5418240747750133  0.4222107301842400
  0.1529181157253440  0.5418240747750133  0.4222107301842400
  0.1779181157253441  0.5418240747750133  0.4222107301842400
  0.2029181157253440  0.5418240747750133  0.4222107301842400
  0.2279181157253440  0.5418240747750133  0.4222107301842400
  0.2529181157253440  0.5418240747750133  0.4222107301842400
  0.2779181157253441  0.5418240747750133  0.4222107301842400
  0.3029181157253441  0.5418240747750133  0.4222107301842400
  0.3279181157253441  0.5418240747750133  0.4222107301842400
  0.3529181157253441  0.5418240747750133  0.4222107301842400
  0.3779181157253441  0.5418240747750133  0.4222107301842400
  0.4029181157253440  0.5418240747750133  0.4222107301842400
  0.4279181157253441  0.5418240747750133  0.4222107301842400
  0.4529181157253441  0.5418240747750133  0.4222107301842400
  0.4779181157253441  0.5418240747750133  0.4222107301842400
  0.5029181157253440  0.5418240747750133  0.4222107301842400
  0.5279181157253439  0.5418240747750133  0.4222107301842400
  0.5529181157253440  0.5418240747750133  0.4222107301842400
  0.5779181157253440  0.5418240747750133  0.4222107301842400
  0.6029181157253439  0.5418240747750133  0.4222107301842400
  0.6279181157253440  0.5418240747750133  0.4222107301842400
  0.6529181157253441  0.5418240747750133  0.4222107301842400
  0.6779181157253440  0.5418240747750133  0.4222107301842400
  0.7029181157253440  0.5418240747750133  0.4222107301842400
  0.7279181157253439  0.5418240747750133  0.4222107301842400
  0.7529181157253441  0.5418240747750133  0.4222107301842400
  0.7779181157253442  0.5418240747750133  0.4222107301842400
  0.8029181157253441  0.5418240747750133  0.4222107301842400
  0.8279181157253440  0.5418240747750133  0.4222107301842400
  0.8529181157253439  0.5418240747750133  0.4222107301842400
  0.8779181157253441  0.5418240747750133  0.4222107301842400
  0.9029181157253440  0.5418240747750133  0.4222107301842400
  0.9279181157253439  0.5418240747750133  0.4222107301842400
  0.9529181157253440  0.5418240747750133  0.4222107301842400
  0.9779181157253439  0.5418240747750133  0.4222107301842400
  0.0029181157253441  0.5668240747750133  0.4222107301842400
  0.0279181157253440  0.5668240747750133  0.4222107301842400
  0.0529181157253441  0.5668240747750133  0.4222107301842400
  0.0779181157253440  0.5668240747750133  0.4222107301842400
  0.1029181157253440  0.5668240747750133  0.4222107301842400
  0.1279181157253440  0.5668240747750133  0.4222107301842400
  0.1529181157253440  0.5668240747750133  0.4222107301842400
  0.1779181157253440  0.5668240747750133  0.4222107301842400
  0.2029181157253440  0.5668240747750133  0.4222107301842400
  0.2279181157253440  0.5668240747750133  0.4222107301842400
  0.2529181157253440  0.5668240747750133  0.4222107301842400
  0.2779181157253441  0.5668240747750133  0.4222107301842400
  0.3029181157253440  0.5668240747750133  0.4222107301842400
  0.3279181157253441  0.5668240747750133  0.4222107301842400
  0.3529181157253440  0.5668240747750133  0.4222107301842400
  0.3779181157253441  0.5668240747750133  0.4222107301842400
  0.4029181157253441  0.5668240747750133  0.4222107301842400
  0.4279181157253441  0.5668240747750133  0.4222107301842400
  0.4529181157253440  0.5668240747750133  0.4222107301842400
  0.4779181157253440  0.5668240747750133  0.4222107301842400
  0.5029181157253441  0.5668240747750133  0.4222107301842400
  0.5279181157253440  0.5668240747750133  0.4222107301842400
  0.5529181157253440  0.5668240747750133  0.4222107301842400
  0.5779181157253440  0.5668240747750133  0.4222107301842400
  0.6029181157253440  0.5668240747750133  0.4222107301842400
  0.6279181157253441  0.5668240747750133  0.4222107301842400
  0.6529181157253442  0.5668240747750133  0.4222107301842400
  0.6779181157253441  0.5668240747750133  0.4222107301842400
  0.7029181157253440  0.5668240747750133  0.4222107301842400
  0.7279181157253440  0.5668240747750133  0.4222107301842400
  0.7529181157253442  0.5668240747750133  0.4222107301842400
  0.7779181157253441  0.5668240747750133  0.4222107301842400
  0.8029181157253440  0.5668240747750133  0.4222107301842400
  0.8279181157253441  0.5668240747750133  0.4222107301842400
  0.8529181157253443  0.5668240747750133  0.4222107301842400
  0.8779181157253442  0.5668240747750133  0.4222107301842400
  0.9029181157253441  0.5668240747750133  0.4222107301842400
  0.9279181157253440  0.5668240747750133  0.4222107301842400
  0.9529181157253441  0.5668240747750133  0.4222107301842400
  0.9779181157253440  0.5668240747750133  0.4222107301842400
  0.0029181157253440  0.5918240747750134  0.4222107301842400
  0.0279181157253440  0.5918240747750134  0.4222107301842400
  0.0529181157253440  0.5918240747750134  0.4222107301842400
  0.0779181157253440  0.5918240747750134  0.4222107301842400
  0.1029181157253440  0.5918240747750134  0.4222107301842400
  0.1279181157253440  0.5918240747750134  0.4222107301842400
  0.1529181157253441  0.5918240747750134  0.4222107301842400
  0.1779181157253440  0.5918240747750134  0.4222107301842400
  0.2029181157253441  0.5918240747750134  0.4222107301842400
  0.2279181157253441  0.5918240747750134  0.4222107301842400
  0.2529181157253440  0.5918240747750134  0.4222107301842400
  0.2779181157253441  0.5918240747750134  0.4222107301842400
  0.3029181157253439  0.5918240747750134  0.4222107301842400
  0.3279181157253441  0.5918240747750134  0.4222107301842400
  0.3529181157253441  0.5918240747750134  0.4222107301842400
  0.3779181157253440  0.5918240747750134  0.4222107301842400
  0.4029181157253440  0.5918240747750134  0.4222107301842400
  0.4279181157253441  0.5918240747750134  0.4222107301842400
  0.4529181157253441  0.5918240747750134  0.4222107301842400
  0.4779181157253440  0.5918240747750134  0.4222107301842400
  0.5029181157253440  0.5918240747750134  0.4222107301842400
  0.5279181157253439  0.5918240747750134  0.4222107301842400
  0.5529181157253440  0.5918240747750134  0.4222107301842400
  0.5779181157253439  0.5918240747750134  0.4222107301842400
  0.6029181157253439  0.5918240747750134  0.4222107301842400
  0.6279181157253440  0.5918240747750134  0.4222107301842400
  0.6529181157253441  0.5918240747750134  0.4222107301842400
  0.6779181157253439  0.5918240747750134  0.4222107301842400
  0.7029181157253440  0.5918240747750134  0.4222107301842400
  0.7279181157253438  0.5918240747750134  0.4222107301842400
  0.7529181157253440  0.5918240747750134  0.4222107301842400
  0.7779181157253441  0.5918240747750134  0.4222107301842400
  0.8029181157253440  0.5918240747750134  0.4222107301842400
  0.8279181157253439  0.5918240747750134  0.4222107301842400
  0.8529181157253440  0.5918240747750134  0.4222107301842400
  0.8779181157253442  0.5918240747750134  0.4222107301842400
  0.9029181157253441  0.5918240747750134  0.4222107301842400
  0.9279181157253438  0.5918240747750134  0.4222107301842400
  0.9529181157253439  0.5918240747750134  0.4222107301842400
  0.9779181157253438  0.5918240747750134  0.4222107301842400
  0.0029181157253440  0.6168240747750133  0.4222107301842400
  0.0279181157253440  0.6168240747750133  0.4222107301842400
  0.0529181157253440  0.6168240747750133  0.4222107301842400
  0.0779181157253441  0.6168240747750133  0.4222107301842400
  0.1029181157253440  0.6168240747750133  0.4222107301842400
  0.1279181157253440  0.6168240747750133  0.4222107301842400
  0.1529181157253440  0.6168240747750133  0.4222107301842400
  0.1779181157253441  0.6168240747750133  0.4222107301842400
  0.2029181157253441  0.6168240747750133  0.4222107301842400
  0.2279181157253440  0.6168240747750133  0.4222107301842400
  0.2529181157253441  0.6168240747750133  0.4222107301842400
  0.2779181157253441  0.6168240747750133  0.4222107301842400
  0.3029181157253441  0.6168240747750133  0.4222107301842400
  0.3279181157253440  0.6168240747750133  0.4222107301842400
  0.3529181157253440  0.6168240747750133  0.4222107301842400
  0.3779181157253441  0.6168240747750133  0.4222107301842400
  0.4029181157253441  0.6168240747750133  0.4222107301842400
  0.4279181157253440  0.6168240747750133  0.4222107301842400
  0.4529181157253440  0.6168240747750133  0.4222107301842400
  0.4779181157253442  0.6168240747750133  0.4222107301842400
  0.5029181157253442  0.6168240747750133  0.4222107301842400
  0.5279181157253440  0.6168240747750133  0.4222107301842400
  0.5529181157253441  0.6168240747750133  0.4222107301842400
  0.5779181157253441  0.6168240747750133  0.4222107301842400
  0.6029181157253442  0.6168240747750133  0.4222107301842400
  0.6279181157253441  0.6168240747750133  0.4222107301842400
  0.6529181157253442  0.6168240747750133  0.4222107301842400
  0.6779181157253441  0.6168240747750133  0.4222107301842400
  0.7029181157253440  0.6168240747750133  0.4222107301842400
  0.7279181157253442  0.6168240747750133  0.4222107301842400
  0.7529181157253441  0.6168240747750133  0.4222107301842400
  0.7779181157253440  0.6168240747750133  0.4222107301842400
  0.8029181157253439  0.6168240747750133  0.4222107301842400
  0.8279181157253440  0.6168240747750133  0.4222107301842400
  0.8529181157253442  0.6168240747750133  0.4222107301842400
  0.8779181157253441  0.6168240747750133  0.4222107301842400
  0.9029181157253442  0.6168240747750133  0.4222107301842400
  0.9279181157253441  0.6168240747750133  0.4222107301842400
  0.9529181157253440  0.6168240747750133  0.4222107301842400
  0.9779181157253439  0.6168240747750133  0.4222107301842400
  0.0029181157253440  0.6418240747750134  0.4222107301842400
  0.0279181157253441  0.6418240747750134  0.4222107301842400
  0.0529181157253440  0.6418240747750134  0.4222107301842400
  0.0779181157253441  0.6418240747750134  0.4222107301842400
  0.1029181157253440  0.6418240747750134  0.4222107301842400
  0.1279181157253440  0.6418240747750134  0.4222107301842400
  0.1529181157253441  0.6418240747750134  0.4222107301842400
  0.1779181157253441  0.6418240747750134  0.4222107301842400
  0.2029181157253440  0.6418240747750134  0.4222107301842400
  0.2279181157253441  0.6418240747750134  0.4222107301842400
  0.2529181157253441  0.6418240747750134  0.4222107301842400
  0.2779181157253440  0.6418240747750134  0.4222107301842400
  0.3029181157253441  0.6418240747750134  0.4222107301842400
  0.3279181157253441  0.6418240747750134  0.4222107301842400
  0.3529181157253441  0.6418240747750134  0.4222107301842400
  0.3779181157253440  0.6418240747750134  0.4222107301842400
  0.4029181157253440  0.6418240747750134  0.4222107301842400
  0.4279181157253441  0.6418240747750134  0.4222107301842400
  0.4529181157253441  0.6418240747750134  0.4222107301842400
  0.4779181157253441  0.6418240747750134  0.4222107301842400
  0.5029181157253441  0.6418240747750134  0.4222107301842400
  0.5279181157253440  0.6418240747750134  0.4222107301842400
  0.5529181157253440  0.6418240747750134  0.4222107301842400
  0.5779181157253440  0.6418240747750134  0.4222107301842400
  0.6029181157253440  0.6418240747750134  0.4222107301842400
  0.6279181157253440  0.6418240747750134  0.4222107301842400
  0.6529181157253440  0.6418240747750134  0.4222107301842400
  0.6779181157253439  0.6418240747750134  0.4222107301842400
  0.7029181157253440  0.6418240747750134  0.4222107301842400
  0.7279181157253439  0.6418240747750134  0.4222107301842400
  0.7529181157253441  0.6418240747750134  0.4222107301842400
  0.7779181157253442  0.6418240747750134  0.4222107301842400
  0.8029181157253439  0.6418240747750134  0.4222107301842400
  0.8279181157253438  0.6418240747750134  0.4222107301842400
  0.8529181157253439  0.6418240747750134  0.4222107301842400
  0.8779181157253441  0.6418240747750134  0.4222107301842400
  0.9029181157253440  0.6418240747750134  0.4222107301842400
  0.9279181157253439  0.6418240747750134  0.4222107301842400
  0.9529181157253440  0.6418240747750134  0.4222107301842400
  0.9779181157253439  0.6418240747750134  0.4222107301842400
  0.0029181157253441  0.6668240747750134  0.4222107301842400
  0.0279181157253440  0.6668240747750134  0.4222107301842400
  0.0529181157253440  0.6668240747750134  0.4222107301842400
  0.0779181157253440  0.6668240747750134  0.4222107301842400
  0.1029181157253440  0.6668240747750134  0.4222107301842400
  0.1279181157253441  0.6668240747750134  0.4222107301842400
  0.1529181157253441  0.6668240747750134  0.4222107301842400
  0.1779181157253441  0.6668240747750134  0.4222107301842400
  0.2029181157253440  0.6668240747750134  0.4222107301842400
  0.2279181157253440  0.6668240747750134  0.4222107301842400
  0.2529181157253441  0.6668240747750134  0.4222107301842400
  0.2779181157253441  0.6668240747750134  0.4222107301842400
  0.3029181157253440  0.6668240747750134  0.4222107301842400
  0.3279181157253440  0.6668240747750134  0.4222107301842400
  0.3529181157253440  0.6668240747750134  0.4222107301842400
  0.3779181157253441  0.6668240747750134  0.4222107301842400
  0.4029181157253440  0.6668240747750134  0.4222107301842400
  0.4279181157253440  0.6668240747750134  0.4222107301842400
  0.4529181157253440  0.6668240747750134  0.4222107301842400
  0.4779181157253442  0.6668240747750134  0.4222107301842400
  0.5029181157253441  0.6668240747750134  0.4222107301842400
  0.5279181157253440  0.6668240747750134  0.4222107301842400
  0.5529181157253441  0.6668240747750134  0.4222107301842400
  0.5779181157253441  0.6668240747750134  0.4222107301842400
  0.6029181157253439  0.6668240747750134  0.4222107301842400
  0.6279181157253441  0.6668240747750134  0.4222107301842400
  0.6529181157253442  0.6668240747750134  0.4222107301842400
  0.6779181157253440  0.6668240747750134  0.4222107301842400
  0.7029181157253439  0.6668240747750134  0.4222107301842400
  0.7279181157253440  0.6668240747750134  0.4222107301842400
  0.7529181157253442  0.6668240747750134  0.4222107301842400
  0.7779181157253441  0.6668240747750134  0.4222107301842400
  0.8029181157253440  0.6668240747750134  0.4222107301842400
  0.8279181157253441  0.6668240747750134  0.4222107301842400
  0.8529181157253440  0.6668240747750134  0.4222107301842400
  0.8779181157253440  0.6668240747750134  0.4222107301842400
  0.9029181157253441  0.6668240747750134  0.4222107301842400
  0.9279181157253440  0.6668240747750134  0.4222107301842400
  0.9529181157253441  0.6668240747750134  0.4222107301842400
  0.9779181157253440  0.6668240747750134  0.4222107301842400
  0.0029181157253441  0.6918240747750133  0.4222107301842400
  0.0279181157253440  0.6918240747750133  0.4222107301842400
  0.0529181157253441  0.6918240747750133  0.4222107301842400
  0.0779181157253440  0.6918240747750133  0.4222107301842400
  0.1029181157253440  0.6918240747750133  0.4222107301842400
  0.1279181157253440  0.6918240747750133  0.4222107301842400
  0.1529181157253440  0.6918240747750133  0.4222107301842400
  0.1779181157253440  0.6918240747750133  0.4222107301842400
  0.2029181157253441  0.6918240747750133  0.4222107301842400
  0.2279181157253442  0.6918240747750133  0.4222107301842400
  0.2529181157253440  0.6918240747750133  0.4222107301842400
  0.2779181157253441  0.6918240747750133  0.4222107301842400
  0.3029181157253440  0.6918240747750133  0.4222107301842400
  0.3279181157253441  0.6918240747750133  0.4222107301842400
  0.3529181157253440  0.6918240747750133  0.4222107301842400
  0.3779181157253441  0.6918240747750133  0.4222107301842400
  0.4029181157253441  0.6918240747750133  0.4222107301842400
  0.4279181157253441  0.6918240747750133  0.4222107301842400
  0.4529181157253440  0.6918240747750133  0.4222107301842400
  0.4779181157253440  0.6918240747750133  0.4222107301842400
  0.5029181157253441  0.6918240747750133  0.4222107301842400
  0.5279181157253440  0.6918240747750133  0.4222107301842400
  0.5529181157253440  0.6918240747750133  0.4222107301842400
  0.5779181157253440  0.6918240747750133  0.4222107301842400
  0.6029181157253442  0.6918240747750133  0.4222107301842400
  0.6279181157253441  0.6918240747750133  0.4222107301842400
  0.6529181157253441  0.6918240747750133  0.4222107301842400
  0.6779181157253441  0.6918240747750133  0.4222107301842400
  0.7029181157253440  0.6918240747750133  0.4222107301842400
  0.7279181157253439  0.6918240747750133  0.4222107301842400
  0.7529181157253441  0.6918240747750133  0.4222107301842400
  0.7779181157253442  0.6918240747750133  0.4222107301842400
  0.8029181157253441  0.6918240747750133  0.4222107301842400
  0.8279181157253440  0.6918240747750133  0.4222107301842400
  0.8529181157253442  0.6918240747750133  0.4222107301842400
  0.8779181157253441  0.6918240747750133  0.4222107301842400
  0.9029181157253440  0.6918240747750133  0.4222107301842400
  0.9279181157253439  0.6918240747750133  0.4222107301842400
  0.9529181157253440  0.6918240747750133  0.4222107301842400
  0.9779181157253439  0.6918240747750133  0.4222107301842400
  0.0029181157253440  0.7168240747750134  0.4222107301842400
  0.0279181157253440  0.7168240747750134  0.4222107301842400
  0.0529181157253440  0.7168240747750134  0.4222107301842400
  0.0779181157253440  0.7168240747750134  0.4222107301842400
  0.1029181157253440  0.7168240747750134  0.4222107301842400
  0.1279181157253441  0.7168240747750134  0.4222107301842400
  0.1529181157253441  0.7168240747750134  0.4222107301842400
  0.1779181157253440  0.7168240747750134  0.4222107301842400
  0.2029181157253440  0.7168240747750134  0.4222107301842400
  0.2279181157253440  0.7168240747750134  0.4222107301842400
  0.2529181157253441  0.7168240747750134  0.4222107301842400
  0.2779181157253440  0.7168240747750134  0.4222107301842400
  0.3029181157253440  0.7168240747750134  0.4222107301842400
  0.3279181157253440  0.7168240747750134  0.4222107301842400
  0.3529181157253440  0.7168240747750134  0.4222107301842400
  0.3779181157253440  0.7168240747750134  0.4222107301842400
  0.4029181157253440  0.7168240747750134  0.4222107301842400
  0.4279181157253440  0.7168240747750134  0.4222107301842400
  0.4529181157253440  0.7168240747750134  0.4222107301842400
  0.4779181157253440  0.7168240747750134  0.4222107301842400
  0.5029181157253441  0.7168240747750134  0.4222107301842400
  0.5279181157253440  0.7168240747750134  0.4222107301842400
  0.5529181157253441  0.7168240747750134  0.4222107301842400
  0.5779181157253440  0.7168240747750134  0.4222107301842400
  0.6029181157253439  0.7168240747750134  0.4222107301842400
  0.6279181157253441  0.7168240747750134  0.4222107301842400
  0.6529181157253442  0.7168240747750134  0.4222107301842400
  0.6779181157253441  0.7168240747750134  0.4222107301842400
  0.7029181157253440  0.7168240747750134  0.4222107301842400
  0.7279181157253439  0.7168240747750134  0.4222107301842400
  0.7529181157253441  0.7168240747750134  0.4222107301842400
  0.7779181157253440  0.7168240747750134  0.4222107301842400
  0.8029181157253439  0.7168240747750134  0.4222107301842400
  0.8279181157253440  0.7168240747750134  0.4222107301842400
  0.8529181157253442  0.7168240747750134  0.4222107301842400
  0.8779181157253441  0.7168240747750134  0.4222107301842400
  0.9029181157253442  0.7168240747750134  0.4222107301842400
  0.9279181157253439  0.7168240747750134  0.4222107301842400
  0.9529181157253440  0.7168240747750134  0.4222107301842400
  0.9779181157253439  0.7168240747750134  0.4222107301842400
  0.0029181157253440  0.7418240747750134  0.4222107301842400
  0.0279181157253440  0.7418240747750134  0.4222107301842400
  0.0529181157253440  0.7418240747750134  0.4222107301842400
  0.0779181157253440  0.7418240747750134  0.4222107301842400
  0.1029181157253440  0.7418240747750134  0.4222107301842400
  0.1279181157253441  0.7418240747750134  0.4222107301842400
  0.1529181157253440  0.7418240747750134  0.4222107301842400
  0.1779181157253441  0.7418240747750134  0.4222107301842400
  0.2029181157253441  0.7418240747750134  0.4222107301842400
  0.2279181157253440  0.7418240747750134  0.4222107301842400
  0.2529181157253440  0.7418240747750134  0.4222107301842400
  0.2779181157253440  0.7418240747750134  0.4222107301842400
  0.3029181157253441  0.7418240747750134  0.4222107301842400
  0.3279181157253440  0.7418240747750134  0.4222107301842400
  0.3529181157253440  0.7418240747750134  0.4222107301842400
  0.3779181157253440  0.7418240747750134  0.4222107301842400
  0.4029181157253440  0.7418240747750134  0.4222107301842400
  0.4279181157253439  0.7418240747750134  0.4222107301842400
  0.4529181157253440  0.7418240747750134  0.4222107301842400
  0.4779181157253441  0.7418240747750134  0.4222107301842400
  0.5029181157253442  0.7418240747750134  0.4222107301842400
  0.5279181157253440  0.7418240747750134  0.4222107301842400
  0.5529181157253441  0.7418240747750134  0.4222107301842400
  0.5779181157253440  0.7418240747750134  0.4222107301842400
  0.6029181157253440  0.7418240747750134  0.4222107301842400
  0.6279181157253440  0.7418240747750134  0.4222107301842400
  0.6529181157253441  0.7418240747750134  0.4222107301842400
  0.6779181157253440  0.7418240747750134  0.4222107301842400
  0.7029181157253441  0.7418240747750134  0.4222107301842400
  0.7279181157253440  0.7418240747750134  0.4222107301842400
  0.7529181157253440  0.7418240747750134  0.4222107301842400
  0.7779181157253441  0.7418240747750134  0.4222107301842400
  0.8029181157253440  0.7418240747750134  0.4222107301842400
  0.8279181157253439  0.7418240747750134  0.4222107301842400
  0.8529181157253440  0.7418240747750134  0.4222107301842400
  0.8779181157253442  0.7418240747750134  0.4222107301842400
  0.9029181157253441  0.7418240747750134  0.4222107301842400
  0.9279181157253440  0.7418240747750134  0.4222107301842400
  0.9529181157253439  0.7418240747750134  0.4222107301842400
  0.9779181157253438  0.7418240747750134  0.4222107301842400
  0.0029181157253440  0.7668240747750135  0.4222107301842400
  0.0279181157253440  0.7668240747750135  0.4222107301842400
  0.0529181157253440  0.7668240747750135  0.4222107301842400
  0.0779181157253440  0.7668240747750135  0.4222107301842400
  0.1029181157253441  0.7668240747750135  0.4222107301842400
  0.1279181157253441  0.7668240747750135  0.4222107301842400
  0.1529181157253440  0.7668240747750135  0.4222107301842400
  0.1779181157253440  0.7668240747750135  0.4222107301842400
  0.2029181157253440  0.7668240747750135  0.4222107301842400
  0.2279181157253440  0.7668240747750135  0.4222107301842400
  0.2529181157253440  0.7668240747750135  0.4222107301842400
  0.2779181157253440  0.7668240747750135  0.4222107301842400
  0.3029181157253440  0.7668240747750135  0.4222107301842400
  0.3279181157253440  0.7668240747750135  0.4222107301842400
  0.3529181157253439  0.7668240747750135  0.4222107301842400
  0.3779181157253440  0.7668240747750135  0.4222107301842400
  0.4029181157253440  0.7668240747750135  0.4222107301842400
  0.4279181157253440  0.7668240747750135  0.4222107301842400
  0.4529181157253439  0.7668240747750135  0.4222107301842400
  0.4779181157253440  0.7668240747750135  0.4222107301842400
  0.5029181157253441  0.7668240747750135  0.4222107301842400
  0.5279181157253440  0.7668240747750135  0.4222107301842400
  0.5529181157253439  0.7668240747750135  0.4222107301842400
  0.5779181157253440  0.7668240747750135  0.4222107301842400
  0.6029181157253439  0.7668240747750135  0.4222107301842400
  0.6279181157253440  0.7668240747750135  0.4222107301842400
  0.6529181157253441  0.7668240747750135  0.4222107301842400
  0.6779181157253440  0.7668240747750135  0.4222107301842400
  0.7029181157253439  0.7668240747750135  0.4222107301842400
  0.7279181157253440  0.7668240747750135  0.4222107301842400
  0.7529181157253442  0.7668240747750135  0.4222107301842400
  0.7779181157253441  0.7668240747750135  0.4222107301842400
  0.8029181157253438  0.7668240747750135  0.4222107301842400
  0.8279181157253439  0.7668240747750135  0.4222107301842400
  0.8529181157253440  0.7668240747750135  0.4222107301842400
  0.8779181157253440  0.7668240747750135  0.4222107301842400
  0.9029181157253441  0.7668240747750135  0.4222107301842400
  0.9279181157253440  0.7668240747750135  0.4222107301842400
  0.9529181157253441  0.7668240747750135  0.4222107301842400
  0.9779181157253440  0.7668240747750135  0.4222107301842400
  0.0029181157253440  0.7918240747750135  0.4222107301842400
  0.0279181157253440  0.7918240747750135  0.4222107301842400
  0.0529181157253440  0.7918240747750135  0.4222107301842400
  0.0779181157253440  0.7918240747750135  0.4222107301842400
  0.1029181157253441  0.7918240747750135  0.4222107301842400
  0.1279181157253440  0.7918240747750135  0.4222107301842400
  0.1529181157253441  0.7918240747750135  0.4222107301842400
  0.1779181157253441  0.7918240747750135  0.4222107301842400
  0.2029181157253440  0.7918240747750135  0.4222107301842400
  0.2279181157253440  0.7918240747750135  0.4222107301842400
  0.2529181157253440  0.7918240747750135  0.4222107301842400
  0.2779181157253441  0.7918240747750135  0.4222107301842400
  0.3029181157253439  0.7918240747750135  0.4222107301842400
  0.3279181157253441  0.7918240747750135  0.4222107301842400
  0.3529181157253441  0.7918240747750135  0.4222107301842400
  0.3779181157253441  0.7918240747750135  0.4222107301842400
  0.4029181157253440  0.7918240747750135  0.4222107301842400
  0.4279181157253441  0.7918240747750135  0.4222107301842400
  0.4529181157253441  0.7918240747750135  0.4222107301842400
  0.4779181157253441  0.7918240747750135  0.4222107301842400
  0.5029181157253441  0.7918240747750135  0.4222107301842400
  0.5279181157253440  0.7918240747750135  0.4222107301842400
  0.5529181157253441  0.7918240747750135  0.4222107301842400
  0.5779181157253441  0.7918240747750135  0.4222107301842400
  0.6029181157253440  0.7918240747750135  0.4222107301842400
  0.6279181157253441  0.7918240747750135  0.4222107301842400
  0.6529181157253442  0.7918240747750135  0.4222107301842400
  0.6779181157253441  0.7918240747750135  0.4222107301842400
  0.7029181157253440  0.7918240747750135  0.4222107301842400
  0.7279181157253442  0.7918240747750135  0.4222107301842400
  0.7529181157253443  0.7918240747750135  0.4222107301842400
  0.7779181157253442  0.7918240747750135  0.4222107301842400
  0.8029181157253441  0.7918240747750135  0.4222107301842400
  0.8279181157253440  0.7918240747750135  0.4222107301842400
  0.8529181157253442  0.7918240747750135  0.4222107301842400
  0.8779181157253441  0.7918240747750135  0.4222107301842400
  0.9029181157253442  0.7918240747750135  0.4222107301842400
  0.9279181157253441  0.7918240747750135  0.4222107301842400
  0.9529181157253442  0.7918240747750135  0.4222107301842400
  0.9779181157253442  0.7918240747750135  0.4222107301842400
  0.0029181157253441  0.8168240747750133  0.4222107301842400
  0.0279181157253441  0.8168240747750133  0.4222107301842400
  0.0529181157253441  0.8168240747750133  0.4222107301842400
  0.0779181157253440  0.8168240747750133  0.4222107301842400
  0.1029181157253440  0.8168240747750133  0.4222107301842400
  0.1279181157253441  0.8168240747750133  0.4222107301842400
  0.1529181157253441  0.8168240747750133  0.4222107301842400
  0.1779181157253441  0.8168240747750133  0.4222107301842400
  0.2029181157253441  0.8168240747750133  0.4222107301842400
  0.2279181157253441  0.8168240747750133  0.4222107301842400
  0.2529181157253441  0.8168240747750133  0.4222107301842400
  0.2779181157253441  0.8168240747750133  0.4222107301842400
  0.3029181157253441  0.8168240747750133  0.4222107301842400
  0.3279181157253441  0.8168240747750133  0.4222107301842400
  0.3529181157253440  0.8168240747750133  0.4222107301842400
  0.3779181157253441  0.8168240747750133  0.4222107301842400
  0.4029181157253441  0.8168240747750133  0.4222107301842400
  0.4279181157253440  0.8168240747750133  0.4222107301842400
  0.4529181157253440  0.8168240747750133  0.4222107301842400
  0.4779181157253442  0.8168240747750133  0.4222107301842400
  0.5029181157253442  0.8168240747750133  0.4222107301842400
  0.5279181157253440  0.8168240747750133  0.4222107301842400
  0.5529181157253440  0.8168240747750133  0.4222107301842400
  0.5779181157253441  0.8168240747750133  0.4222107301842400
  0.6029181157253440  0.8168240747750133  0.4222107301842400
  0.6279181157253442  0.8168240747750133  0.4222107301842400
  0.6529181157253443  0.8168240747750133  0.4222107301842400
  0.6779181157253440  0.8168240747750133  0.4222107301842400
  0.7029181157253439  0.8168240747750133  0.4222107301842400
  0.7279181157253440  0.8168240747750133  0.4222107301842400
  0.7529181157253442  0.8168240747750133  0.4222107301842400
  0.7779181157253441  0.8168240747750133  0.4222107301842400
  0.8029181157253440  0.8168240747750133  0.4222107301842400
  0.8279181157253441  0.8168240747750133  0.4222107301842400
  0.8529181157253443  0.8168240747750133  0.4222107301842400
  0.8779181157253440  0.8168240747750133  0.4222107301842400
  0.9029181157253441  0.8168240747750133  0.4222107301842400
  0.9279181157253440  0.8168240747750133  0.4222107301842400
  0.9529181157253441  0.8168240747750133  0.4222107301842400
  0.9779181157253440  0.8168240747750133  0.4222107301842400
  0.0029181157253440  0.8418240747750133  0.4222107301842400
  0.0279181157253441  0.8418240747750133  0.4222107301842400
  0.0529181157253440  0.8418240747750133  0.4222107301842400
  0.0779181157253441  0.8418240747750133  0.4222107301842400
  0.1029181157253441  0.8418240747750133  0.4222107301842400
  0.1279181157253441  0.8418240747750133  0.4222107301842400
  0.1529181157253441  0.8418240747750133  0.4222107301842400
  0.1779181157253440  0.8418240747750133  0.4222107301842400
  0.2029181157253440  0.8418240747750133  0.4222107301842400
  0.2279181157253441  0.8418240747750133  0.4222107301842400
  0.2529181157253441  0.8418240747750133  0.4222107301842400
  0.2779181157253440  0.8418240747750133  0.4222107301842400
  0.3029181157253441  0.8418240747750133  0.4222107301842400
  0.3279181157253441  0.8418240747750133  0.4222107301842400
  0.3529181157253441  0.8418240747750133  0.4222107301842400
  0.3779181157253440  0.8418240747750133  0.4222107301842400
  0.4029181157253440  0.8418240747750133  0.4222107301842400
  0.4279181157253441  0.8418240747750133  0.4222107301842400
  0.4529181157253441  0.8418240747750133  0.4222107301842400
  0.4779181157253441  0.8418240747750133  0.4222107301842400
  0.5029181157253441  0.8418240747750133  0.4222107301842400
  0.5279181157253440  0.8418240747750133  0.4222107301842400
  0.5529181157253441  0.8418240747750133  0.4222107301842400
  0.5779181157253439  0.8418240747750133  0.4222107301842400
  0.6029181157253440  0.8418240747750133  0.4222107301842400
  0.6279181157253440  0.8418240747750133  0.4222107301842400
  0.6529181157253441  0.8418240747750133  0.4222107301842400
  0.6779181157253440  0.8418240747750133  0.4222107301842400
  0.7029181157253441  0.8418240747750133  0.4222107301842400
  0.7279181157253438  0.8418240747750133  0.4222107301842400
  0.7529181157253440  0.8418240747750133  0.4222107301842400
  0.7779181157253441  0.8418240747750133  0.4222107301842400
  0.8029181157253440  0.8418240747750133  0.4222107301842400
  0.8279181157253439  0.8418240747750133  0.4222107301842400
  0.8529181157253440  0.8418240747750133  0.4222107301842400
  0.8779181157253442  0.8418240747750133  0.4222107301842400
  0.9029181157253441  0.8418240747750133  0.4222107301842400
  0.9279181157253438  0.8418240747750133  0.4222107301842400
  0.9529181157253439  0.8418240747750133  0.4222107301842400
  0.9779181157253438  0.8418240747750133  0.4222107301842400
  0.0029181157253440  0.8668240747750133  0.4222107301842400
  0.0279181157253441  0.8668240747750133  0.4222107301842400
  0.0529181157253441  0.8668240747750133  0.4222107301842400
  0.0779181157253441  0.8668240747750133  0.4222107301842400
  0.1029181157253441  0.8668240747750133  0.4222107301842400
  0.1279181157253440  0.8668240747750133  0.4222107301842400
  0.1529181157253441  0.8668240747750133  0.4222107301842400
  0.1779181157253441  0.8668240747750133  0.4222107301842400
  0.2029181157253441  0.8668240747750133  0.4222107301842400
  0.2279181157253440  0.8668240747750133  0.4222107301842400
  0.2529181157253441  0.8668240747750133  0.4222107301842400
  0.2779181157253442  0.8668240747750133  0.4222107301842400
  0.3029181157253441  0.8668240747750133  0.4222107301842400
  0.3279181157253441  0.8668240747750133  0.4222107301842400
  0.3529181157253442  0.8668240747750133  0.4222107301842400
  0.3779181157253442  0.8668240747750133  0.4222107301842400
  0.4029181157253441  0.8668240747750133  0.4222107301842400
  0.4279181157253441  0.8668240747750133  0.4222107301842400
  0.4529181157253441  0.8668240747750133  0.4222107301842400
  0.4779181157253442  0.8668240747750133  0.4222107301842400
  0.5029181157253442  0.8668240747750133  0.4222107301842400
  0.5279181157253441  0.8668240747750133  0.4222107301842400
  0.5529181157253442  0.8668240747750133  0.4222107301842400
  0.5779181157253440  0.8668240747750133  0.4222107301842400
  0.6029181157253442  0.8668240747750133  0.4222107301842400
  0.6279181157253441  0.8668240747750133  0.4222107301842400
  0.6529181157253442  0.8668240747750133  0.4222107301842400
  0.6779181157253441  0.8668240747750133  0.4222107301842400
  0.7029181157253442  0.8668240747750133  0.4222107301842400
  0.7279181157253442  0.8668240747750133  0.4222107301842400
  0.7529181157253441  0.8668240747750133  0.4222107301842400
  0.7779181157253442  0.8668240747750133  0.4222107301842400
  0.8029181157253441  0.8668240747750133  0.4222107301842400
  0.8279181157253440  0.8668240747750133  0.4222107301842400
  0.8529181157253442  0.8668240747750133  0.4222107301842400
  0.8779181157253443  0.8668240747750133  0.4222107301842400
  0.9029181157253442  0.8668240747750133  0.4222107301842400
  0.9279181157253441  0.8668240747750133  0.4222107301842400
  0.9529181157253440  0.8668240747750133  0.4222107301842400
  0.9779181157253439  0.8668240747750133  0.4222107301842400
  0.0029181157253440  0.8918240747750135  0.4222107301842400
  0.0279181157253440  0.8918240747750135  0.4222107301842400
  0.0529181157253440  0.8918240747750135  0.4222107301842400
  0.0779181157253440  0.8918240747750135  0.4222107301842400
  0.1029181157253440  0.8918240747750135  0.4222107301842400
  0.1279181157253440  0.8918240747750135  0.4222107301842400
  0.1529181157253439  0.8918240747750135  0.4222107301842400
  0.1779181157253440  0.8918240747750135  0.4222107301842400
  0.2029181157253440  0.8918240747750135  0.4222107301842400
  0.2279181157253440  0.8918240747750135  0.4222107301842400
  0.2529181157253440  0.8918240747750135  0.4222107301842400
  0.2779181157253441  0.8918240747750135  0.4222107301842400
  0.3029181157253440  0.8918240747750135  0.4222107301842400
  0.3279181157253441  0.8918240747750135  0.4222107301842400
  0.3529181157253440  0.8918240747750135  0.4222107301842400
  0.3779181157253441  0.8918240747750135  0.4222107301842400
  0.4029181157253441  0.8918240747750135  0.4222107301842400
  0.4279181157253441  0.8918240747750135  0.4222107301842400
  0.4529181157253440  0.8918240747750135  0.4222107301842400
  0.4779181157253440  0.8918240747750135  0.4222107301842400
  0.5029181157253441  0.8918240747750135  0.4222107301842400
  0.5279181157253440  0.8918240747750135  0.4222107301842400
  0.5529181157253440  0.8918240747750135  0.4222107301842400
  0.5779181157253442  0.8918240747750135  0.4222107301842400
  0.6029181157253439  0.8918240747750135  0.4222107301842400
  0.6279181157253441  0.8918240747750135  0.4222107301842400
  0.6529181157253442  0.8918240747750135  0.4222107301842400
  0.6779181157253441  0.8918240747750135  0.4222107301842400
  0.7029181157253440  0.8918240747750135  0.4222107301842400
  0.7279181157253442  0.8918240747750135  0.4222107301842400
  0.7529181157253443  0.8918240747750135  0.4222107301842400
  0.7779181157253440  0.8918240747750135  0.4222107301842400
  0.8029181157253439  0.8918240747750135  0.4222107301842400
  0.8279181157253440  0.8918240747750135  0.4222107301842400
  0.8529181157253442  0.8918240747750135  0.4222107301842400
  0.8779181157253441  0.8918240747750135  0.4222107301842400
  0.9029181157253442  0.8918240747750135  0.4222107301842400
  0.9279181157253441  0.8918240747750135  0.4222107301842400
  0.9529181157253442  0.8918240747750135  0.4222107301842400
  0.9779181157253439  0.8918240747750135  0.4222107301842400
  0.0029181157253440  0.9168240747750135  0.4222107301842400
  0.0279181157253440  0.9168240747750135  0.4222107301842400
  0.0529181157253440  0.9168240747750135  0.4222107301842400
  0.0779181157253441  0.9168240747750135  0.4222107301842400
  0.1029181157253440  0.9168240747750135  0.4222107301842400
  0.1279181157253440  0.9168240747750135  0.4222107301842400
  0.1529181157253440  0.9168240747750135  0.4222107301842400
  0.1779181157253440  0.9168240747750135  0.4222107301842400
  0.2029181157253440  0.9168240747750135  0.4222107301842400
  0.2279181157253441  0.9168240747750135  0.4222107301842400
  0.2529181157253440  0.9168240747750135  0.4222107301842400
  0.2779181157253440  0.9168240747750135  0.4222107301842400
  0.3029181157253439  0.9168240747750135  0.4222107301842400
  0.3279181157253441  0.9168240747750135  0.4222107301842400
  0.3529181157253441  0.9168240747750135  0.4222107301842400
  0.3779181157253440  0.9168240747750135  0.4222107301842400
  0.4029181157253440  0.9168240747750135  0.4222107301842400
  0.4279181157253441  0.9168240747750135  0.4222107301842400
  0.4529181157253441  0.9168240747750135  0.4222107301842400
  0.4779181157253440  0.9168240747750135  0.4222107301842400
  0.5029181157253441  0.9168240747750135  0.4222107301842400
  0.5279181157253440  0.9168240747750135  0.4222107301842400
  0.5529181157253441  0.9168240747750135  0.4222107301842400
  0.5779181157253440  0.9168240747750135  0.4222107301842400
  0.6029181157253442  0.9168240747750135  0.4222107301842400
  0.6279181157253438  0.9168240747750135  0.4222107301842400
  0.6529181157253440  0.9168240747750135  0.4222107301842400
  0.6779181157253439  0.9168240747750135  0.4222107301842400
  0.7029181157253440  0.9168240747750135  0.4222107301842400
  0.7279181157253439  0.9168240747750135  0.4222107301842400
  0.7529181157253441  0.9168240747750135  0.4222107301842400
  0.7779181157253442  0.9168240747750135  0.4222107301842400
  0.8029181157253441  0.9168240747750135  0.4222107301842400
  0.8279181157253438  0.9168240747750135  0.4222107301842400
  0.8529181157253439  0.9168240747750135  0.4222107301842400
  0.8779181157253441  0.9168240747750135  0.4222107301842400
  0.9029181157253440  0.9168240747750135  0.4222107301842400
  0.9279181157253439  0.9168240747750135  0.4222107301842400
  0.9529181157253440  0.9168240747750135  0.4222107301842400
  0.9779181157253439  0.9168240747750135  0.4222107301842400
  0.0029181157253441  0.9418240747750134  0.4222107301842400
  0.0279181157253441  0.9418240747750134  0.4222107301842400
  0.0529181157253441  0.9418240747750134  0.4222107301842400
  0.0779181157253441  0.9418240747750134  0.4222107301842400
  0.1029181157253441  0.9418240747750134  0.4222107301842400
  0.1279181157253440  0.9418240747750134  0.4222107301842400
  0.1529181157253440  0.9418240747750134  0.4222107301842400
  0.1779181157253441  0.9418240747750134  0.4222107301842400
  0.2029181157253441  0.9418240747750134  0.4222107301842400
  0.2279181157253440  0.9418240747750134  0.4222107301842400
  0.2529181157253440  0.9418240747750134  0.4222107301842400
  0.2779181157253440  0.9418240747750134  0.4222107301842400
  0.3029181157253441  0.9418240747750134  0.4222107301842400
  0.3279181157253440  0.9418240747750134  0.4222107301842400
  0.3529181157253440  0.9418240747750134  0.4222107301842400
  0.3779181157253440  0.9418240747750134  0.4222107301842400
  0.4029181157253440  0.9418240747750134  0.4222107301842400
  0.4279181157253439  0.9418240747750134  0.4222107301842400
  0.4529181157253440  0.9418240747750134  0.4222107301842400
  0.4779181157253440  0.9418240747750134  0.4222107301842400
  0.5029181157253442  0.9418240747750134  0.4222107301842400
  0.5279181157253440  0.9418240747750134  0.4222107301842400
  0.5529181157253441  0.9418240747750134  0.4222107301842400
  0.5779181157253440  0.9418240747750134  0.4222107301842400
  0.6029181157253442  0.9418240747750134  0.4222107301842400
  0.6279181157253441  0.9418240747750134  0.4222107301842400
  0.6529181157253442  0.9418240747750134  0.4222107301842400
  0.6779181157253439  0.9418240747750134  0.4222107301842400
  0.7029181157253440  0.9418240747750134  0.4222107301842400
  0.7279181157253439  0.9418240747750134  0.4222107301842400
  0.7529181157253441  0.9418240747750134  0.4222107301842400
  0.7779181157253442  0.9418240747750134  0.4222107301842400
  0.8029181157253441  0.9418240747750134  0.4222107301842400
  0.8279181157253440  0.9418240747750134  0.4222107301842400
  0.8529181157253442  0.9418240747750134  0.4222107301842400
  0.8779181157253441  0.9418240747750134  0.4222107301842400
  0.9029181157253440  0.9418240747750134  0.4222107301842400
  0.9279181157253439  0.9418240747750134  0.4222107301842400
  0.9529181157253440  0.9418240747750134  0.4222107301842400
  0.9779181157253439  0.9418240747750134  0.4222107301842400
  0.0029181157253441  0.9668240747750133  0.4222107301842400
  0.0279181157253441  0.9668240747750133  0.4222107301842400
  0.0529181157253441  0.9668240747750133  0.4222107301842400
  0.0779181157253440  0.9668240747750133  0.4222107301842400
  0.1029181157253440  0.9668240747750133  0.4222107301842400
  0.1279181157253441  0.9668240747750133  0.4222107301842400
  0.1529181157253441  0.9668240747750133  0.4222107301842400
  0.1779181157253440  0.9668240747750133  0.4222107301842400
  0.2029181157253440  0.9668240747750133  0.4222107301842400
  0.2279181157253440  0.9668240747750133  0.4222107301842400
  0.2529181157253441  0.9668240747750133  0.4222107301842400
  0.2779181157253441  0.9668240747750133  0.4222107301842400
  0.3029181157253440  0.9668240747750133  0.4222107301842400
  0.3279181157253441  0.9668240747750133  0.4222107301842400
  0.3529181157253442  0.9668240747750133  0.4222107301842400
  0.3779181157253441  0.9668240747750133  0.4222107301842400
  0.4029181157253441  0.9668240747750133  0.4222107301842400
  0.4279181157253441  0.9668240747750133  0.4222107301842400
  0.4529181157253440  0.9668240747750133  0.4222107301842400
  0.4779181157253440  0.9668240747750133  0.4222107301842400
  0.5029181157253442  0.9668240747750133  0.4222107301842400
  0.5279181157253440  0.9668240747750133  0.4222107301842400
  0.5529181157253441  0.9668240747750133  0.4222107301842400
  0.5779181157253440  0.9668240747750133  0.4222107301842400
  0.6029181157253442  0.9668240747750133  0.4222107301842400
  0.6279181157253441  0.9668240747750133  0.4222107301842400
  0.6529181157253442  0.9668240747750133  0.4222107301842400
  0.6779181157253441  0.9668240747750133  0.4222107301842400
  0.7029181157253440  0.9668240747750133  0.4222107301842400
  0.7279181157253439  0.9668240747750133  0.4222107301842400
  0.7529181157253441  0.9668240747750133  0.4222107301842400
  0.7779181157253442  0.9668240747750133  0.4222107301842400
  0.8029181157253441  0.9668240747750133  0.4222107301842400
  0.8279181157253440  0.9668240747750133  0.4222107301842400
  0.8529181157253442  0.9668240747750133  0.4222107301842400
  0.8779181157253443  0.9668240747750133  0.4222107301842400
  0.9029181157253440  0.9668240747750133  0.4222107301842400
  0.9279181157253439  0.9668240747750133  0.4222107301842400
  0.9529181157253440  0.9668240747750133  0.4222107301842400
  0.9779181157253439  0.9668240747750133  0.4222107301842400
  0.0029181157253441  0.9918240747750133  0.4222107301842400
  0.0279181157253440  0.9918240747750133  0.4222107301842400
  0.0529181157253441  0.9918240747750133  0.4222107301842400
  0.0779181157253441  0.9918240747750133  0.4222107301842400
  0.1029181157253440  0.9918240747750133  0.4222107301842400
  0.1279181157253440  0.9918240747750133  0.4222107301842400
  0.1529181157253440  0.9918240747750133  0.4222107301842400
  0.1779181157253441  0.9918240747750133  0.4222107301842400
  0.2029181157253441  0.9918240747750133  0.4222107301842400
  0.2279181157253441  0.9918240747750133  0.4222107301842400
  0.2529181157253440  0.9918240747750133  0.4222107301842400
  0.2779181157253441  0.9918240747750133  0.4222107301842400
  0.3029181157253439  0.9918240747750133  0.4222107301842400
  0.3279181157253441  0.9918240747750133  0.4222107301842400
  0.3529181157253441  0.9918240747750133  0.4222107301842400
  0.3779181157253441  0.9918240747750133  0.4222107301842400
  0.4029181157253440  0.9918240747750133  0.4222107301842400
  0.4279181157253441  0.9918240747750133  0.4222107301842400
  0.4529181157253441  0.9918240747750133  0.4222107301842400
  0.4779181157253442  0.9918240747750133  0.4222107301842400
  0.5029181157253441  0.9918240747750133  0.4222107301842400
  0.5279181157253441  0.9918240747750133  0.4222107301842400
  0.5529181157253440  0.9918240747750133  0.4222107301842400
  0.5779181157253441  0.9918240747750133  0.4222107301842400
  0.6029181157253440  0.9918240747750133  0.4222107301842400
  0.6279181157253442  0.9918240747750133  0.4222107301842400
  0.6529181157253443  0.9918240747750133  0.4222107301842400
  0.6779181157253442  0.9918240747750133  0.4222107301842400
  0.7029181157253441  0.9918240747750133  0.4222107301842400
  0.7279181157253443  0.9918240747750133  0.4222107301842400
  0.7529181157253442  0.9918240747750133  0.4222107301842400
  0.7779181157253441  0.9918240747750133  0.4222107301842400
  0.8029181157253440  0.9918240747750133  0.4222107301842400
  0.8279181157253441  0.9918240747750133  0.4222107301842400
  0.8529181157253443  0.9918240747750133  0.4222107301842400
  0.8779181157253442  0.9918240747750133  0.4222107301842400
  0.9029181157253443  0.9918240747750133  0.4222107301842400
  0.9279181157253442  0.9918240747750133  0.4222107301842400
  0.9529181157253441  0.9918240747750133  0.4222107301842400
  0.9779181157253440  0.9918240747750133  0.4222107301842400
  0.0097636809874687  0.0031329045607368  0.4075733843043099
  0.0347636809874688  0.0031329045607368  0.4075733843043099
  0.0597636809874687  0.0031329045607368  0.4075733843043099
  0.0847636809874688  0.0031329045607368  0.4075733843043099
  0.1097636809874687  0.0031329045607368  0.4075733843043099
  0.1347636809874688  0.0031329045607368  0.4075733843043099
  0.1597636809874688  0.0031329045607368  0.4075733843043099
  0.1847636809874688  0.0031329045607368  0.4075733843043099
  0.2097636809874688  0.0031329045607368  0.4075733843043099
  0.2347636809874688  0.0031329045607368  0.4075733843043099
  0.2597636809874688  0.0031329045607368  0.4075733843043099
  0.2847636809874688  0.0031329045607368  0.4075733843043099
  0.3097636809874688  0.0031329045607368  0.4075733843043099
  0.3347636809874688  0.0031329045607368  0.4075733843043099
  0.3597636809874687  0.0031329045607368  0.4075733843043099
  0.3847636809874688  0.0031329045607368  0.4075733843043099
  0.4097636809874688  0.0031329045607368  0.4075733843043099
  0.4347636809874688  0.0031329045607368  0.4075733843043099
  0.4597636809874688  0.0031329045607368  0.4075733843043099
  0.4847636809874687  0.0031329045607368  0.4075733843043099
  0.5097636809874687  0.0031329045607368  0.4075733843043099
  0.5347636809874687  0.0031329045607368  0.4075733843043099
  0.5597636809874686  0.0031329045607368  0.4075733843043099
  0.5847636809874687  0.0031329045607368  0.4075733843043099
  0.6097636809874687  0.0031329045607368  0.4075733843043099
  0.6347636809874687  0.0031329045607368  0.4075733843043099
  0.6597636809874687  0.0031329045607368  0.4075733843043099
  0.6847636809874688  0.0031329045607368  0.4075733843043099
  0.7097636809874687  0.0031329045607368  0.4075733843043099
  0.7347636809874687  0.0031329045607368  0.4075733843043099
  0.7597636809874687  0.0031329045607368  0.4075733843043099
  0.7847636809874687  0.0031329045607368  0.4075733843043099
  0.8097636809874688  0.0031329045607368  0.4075733843043099
  0.8347636809874687  0.0031329045607368  0.4075733843043099
  0.8597636809874687  0.0031329045607368  0.4075733843043099
  0.8847636809874687  0.0031329045607368  0.4075733843043099
  0.9097636809874687  0.0031329045607368  0.4075733843043099
  0.9347636809874688  0.0031329045607368  0.4075733843043099
  0.9597636809874689  0.0031329045607368  0.4075733843043099
  0.9847636809874688  0.0031329045607368  0.4075733843043099
  0.0097636809874688  0.0281329045607368  0.4075733843043099
  0.0347636809874688  0.0281329045607368  0.4075733843043099
  0.0597636809874688  0.0281329045607368  0.4075733843043099
  0.0847636809874688  0.0281329045607368  0.4075733843043099
  0.1097636809874688  0.0281329045607368  0.4075733843043099
  0.1347636809874688  0.0281329045607368  0.4075733843043099
  0.1597636809874688  0.0281329045607368  0.4075733843043099
  0.1847636809874688  0.0281329045607368  0.4075733843043099
  0.2097636809874688  0.0281329045607368  0.4075733843043099
  0.2347636809874688  0.0281329045607368  0.4075733843043099
  0.2597636809874688  0.0281329045607368  0.4075733843043099
  0.2847636809874687  0.0281329045607368  0.4075733843043099
  0.3097636809874688  0.0281329045607368  0.4075733843043099
  0.3347636809874688  0.0281329045607368  0.4075733843043099
  0.3597636809874687  0.0281329045607368  0.4075733843043099
  0.3847636809874688  0.0281329045607368  0.4075733843043099
  0.4097636809874688  0.0281329045607368  0.4075733843043099
  0.4347636809874688  0.0281329045607368  0.4075733843043099
  0.4597636809874687  0.0281329045607368  0.4075733843043099
  0.4847636809874687  0.0281329045607368  0.4075733843043099
  0.5097636809874688  0.0281329045607368  0.4075733843043099
  0.5347636809874688  0.0281329045607368  0.4075733843043099
  0.5597636809874686  0.0281329045607368  0.4075733843043099
  0.5847636809874687  0.0281329045607368  0.4075733843043099
  0.6097636809874688  0.0281329045607368  0.4075733843043099
  0.6347636809874688  0.0281329045607368  0.4075733843043099
  0.6597636809874687  0.0281329045607368  0.4075733843043099
  0.6847636809874688  0.0281329045607368  0.4075733843043099
  0.7097636809874688  0.0281329045607368  0.4075733843043099
  0.7347636809874688  0.0281329045607368  0.4075733843043099
  0.7597636809874687  0.0281329045607368  0.4075733843043099
  0.7847636809874687  0.0281329045607368  0.4075733843043099
  0.8097636809874689  0.0281329045607368  0.4075733843043099
  0.8347636809874688  0.0281329045607368  0.4075733843043099
  0.8597636809874687  0.0281329045607368  0.4075733843043099
  0.8847636809874687  0.0281329045607368  0.4075733843043099
  0.9097636809874688  0.0281329045607368  0.4075733843043099
  0.9347636809874688  0.0281329045607368  0.4075733843043099
  0.9597636809874688  0.0281329045607368  0.4075733843043099
  0.9847636809874687  0.0281329045607368  0.4075733843043099
  0.0097636809874688  0.0531329045607368  0.4075733843043099
  0.0347636809874688  0.0531329045607368  0.4075733843043099
  0.0597636809874688  0.0531329045607368  0.4075733843043099
  0.0847636809874688  0.0531329045607368  0.4075733843043099
  0.1097636809874687  0.0531329045607368  0.4075733843043099
  0.1347636809874687  0.0531329045607368  0.4075733843043099
  0.1597636809874687  0.0531329045607368  0.4075733843043099
  0.1847636809874687  0.0531329045607368  0.4075733843043099
  0.2097636809874688  0.0531329045607368  0.4075733843043099
  0.2347636809874687  0.0531329045607368  0.4075733843043099
  0.2597636809874688  0.0531329045607368  0.4075733843043099
  0.2847636809874687  0.0531329045607368  0.4075733843043099
  0.3097636809874688  0.0531329045607368  0.4075733843043099
  0.3347636809874688  0.0531329045607368  0.4075733843043099
  0.3597636809874687  0.0531329045607368  0.4075733843043099
  0.3847636809874688  0.0531329045607368  0.4075733843043099
  0.4097636809874688  0.0531329045607368  0.4075733843043099
  0.4347636809874688  0.0531329045607368  0.4075733843043099
  0.4597636809874688  0.0531329045607368  0.4075733843043099
  0.4847636809874687  0.0531329045607368  0.4075733843043099
  0.5097636809874689  0.0531329045607368  0.4075733843043099
  0.5347636809874690  0.0531329045607368  0.4075733843043099
  0.5597636809874689  0.0531329045607368  0.4075733843043099
  0.5847636809874688  0.0531329045607368  0.4075733843043099
  0.6097636809874689  0.0531329045607368  0.4075733843043099
  0.6347636809874689  0.0531329045607368  0.4075733843043099
  0.6597636809874690  0.0531329045607368  0.4075733843043099
  0.6847636809874689  0.0531329045607368  0.4075733843043099
  0.7097636809874689  0.0531329045607368  0.4075733843043099
  0.7347636809874689  0.0531329045607368  0.4075733843043099
  0.7597636809874689  0.0531329045607368  0.4075733843043099
  0.7847636809874688  0.0531329045607368  0.4075733843043099
  0.8097636809874690  0.0531329045607368  0.4075733843043099
  0.8347636809874689  0.0531329045607368  0.4075733843043099
  0.8597636809874689  0.0531329045607368  0.4075733843043099
  0.8847636809874688  0.0531329045607368  0.4075733843043099
  0.9097636809874690  0.0531329045607368  0.4075733843043099
  0.9347636809874689  0.0531329045607368  0.4075733843043099
  0.9597636809874690  0.0531329045607368  0.4075733843043099
  0.9847636809874688  0.0531329045607368  0.4075733843043099
  0.0097636809874688  0.0781329045607368  0.4075733843043099
  0.0347636809874688  0.0781329045607368  0.4075733843043099
  0.0597636809874688  0.0781329045607368  0.4075733843043099
  0.0847636809874688  0.0781329045607368  0.4075733843043099
  0.1097636809874688  0.0781329045607368  0.4075733843043099
  0.1347636809874688  0.0781329045607368  0.4075733843043099
  0.1597636809874688  0.0781329045607368  0.4075733843043099
  0.1847636809874688  0.0781329045607368  0.4075733843043099
  0.2097636809874688  0.0781329045607368  0.4075733843043099
  0.2347636809874688  0.0781329045607368  0.4075733843043099
  0.2597636809874687  0.0781329045607368  0.4075733843043099
  0.2847636809874687  0.0781329045607368  0.4075733843043099
  0.3097636809874687  0.0781329045607368  0.4075733843043099
  0.3347636809874688  0.0781329045607368  0.4075733843043099
  0.3597636809874687  0.0781329045607368  0.4075733843043099
  0.3847636809874688  0.0781329045607368  0.4075733843043099
  0.4097636809874687  0.0781329045607368  0.4075733843043099
  0.4347636809874688  0.0781329045607368  0.4075733843043099
  0.4597636809874688  0.0781329045607368  0.4075733843043099
  0.4847636809874688  0.0781329045607368  0.4075733843043099
  0.5097636809874689  0.0781329045607368  0.4075733843043099
  0.5347636809874688  0.0781329045607368  0.4075733843043099
  0.5597636809874688  0.0781329045607368  0.4075733843043099
  0.5847636809874688  0.0781329045607368  0.4075733843043099
  0.6097636809874689  0.0781329045607368  0.4075733843043099
  0.6347636809874688  0.0781329045607368  0.4075733843043099
  0.6597636809874688  0.0781329045607368  0.4075733843043099
  0.6847636809874689  0.0781329045607368  0.4075733843043099
  0.7097636809874689  0.0781329045607368  0.4075733843043099
  0.7347636809874688  0.0781329045607368  0.4075733843043099
  0.7597636809874688  0.0781329045607368  0.4075733843043099
  0.7847636809874688  0.0781329045607368  0.4075733843043099
  0.8097636809874689  0.0781329045607368  0.4075733843043099
  0.8347636809874688  0.0781329045607368  0.4075733843043099
  0.8597636809874688  0.0781329045607368  0.4075733843043099
  0.8847636809874688  0.0781329045607368  0.4075733843043099
  0.9097636809874687  0.0781329045607368  0.4075733843043099
  0.9347636809874686  0.0781329045607368  0.4075733843043099
  0.9597636809874688  0.0781329045607368  0.4075733843043099
  0.9847636809874686  0.0781329045607368  0.4075733843043099
  0.0097636809874688  0.1031329045607368  0.4075733843043099
  0.0347636809874688  0.1031329045607368  0.4075733843043099
  0.0597636809874688  0.1031329045607368  0.4075733843043099
  0.0847636809874688  0.1031329045607368  0.4075733843043099
  0.1097636809874688  0.1031329045607368  0.4075733843043099
  0.1347636809874688  0.1031329045607368  0.4075733843043099
  0.1597636809874688  0.1031329045607368  0.4075733843043099
  0.1847636809874688  0.1031329045607368  0.4075733843043099
  0.2097636809874688  0.1031329045607368  0.4075733843043099
  0.2347636809874688  0.1031329045607368  0.4075733843043099
  0.2597636809874687  0.1031329045607368  0.4075733843043099
  0.2847636809874687  0.1031329045607368  0.4075733843043099
  0.3097636809874687  0.1031329045607368  0.4075733843043099
  0.3347636809874688  0.1031329045607368  0.4075733843043099
  0.3597636809874687  0.1031329045607368  0.4075733843043099
  0.3847636809874688  0.1031329045607368  0.4075733843043099
  0.4097636809874687  0.1031329045607368  0.4075733843043099
  0.4347636809874688  0.1031329045607368  0.4075733843043099
  0.4597636809874687  0.1031329045607368  0.4075733843043099
  0.4847636809874687  0.1031329045607368  0.4075733843043099
  0.5097636809874689  0.1031329045607368  0.4075733843043099
  0.5347636809874690  0.1031329045607368  0.4075733843043099
  0.5597636809874688  0.1031329045607368  0.4075733843043099
  0.5847636809874688  0.1031329045607368  0.4075733843043099
  0.6097636809874689  0.1031329045607368  0.4075733843043099
  0.6347636809874689  0.1031329045607368  0.4075733843043099
  0.6597636809874688  0.1031329045607368  0.4075733843043099
  0.6847636809874689  0.1031329045607368  0.4075733843043099
  0.7097636809874689  0.1031329045607368  0.4075733843043099
  0.7347636809874689  0.1031329045607368  0.4075733843043099
  0.7597636809874688  0.1031329045607368  0.4075733843043099
  0.7847636809874688  0.1031329045607368  0.4075733843043099
  0.8097636809874690  0.1031329045607368  0.4075733843043099
  0.8347636809874689  0.1031329045607368  0.4075733843043099
  0.8597636809874688  0.1031329045607368  0.4075733843043099
  0.8847636809874688  0.1031329045607368  0.4075733843043099
  0.9097636809874690  0.1031329045607368  0.4075733843043099
  0.9347636809874689  0.1031329045607368  0.4075733843043099
  0.9597636809874690  0.1031329045607368  0.4075733843043099
  0.9847636809874689  0.1031329045607368  0.4075733843043099
  0.0097636809874688  0.1281329045607368  0.4075733843043099
  0.0347636809874688  0.1281329045607368  0.4075733843043099
  0.0597636809874688  0.1281329045607368  0.4075733843043099
  0.0847636809874688  0.1281329045607368  0.4075733843043099
  0.1097636809874688  0.1281329045607368  0.4075733843043099
  0.1347636809874688  0.1281329045607368  0.4075733843043099
  0.1597636809874688  0.1281329045607368  0.4075733843043099
  0.1847636809874688  0.1281329045607368  0.4075733843043099
  0.2097636809874688  0.1281329045607368  0.4075733843043099
  0.2347636809874687  0.1281329045607368  0.4075733843043099
  0.2597636809874687  0.1281329045607368  0.4075733843043099
  0.2847636809874687  0.1281329045607368  0.4075733843043099
  0.3097636809874687  0.1281329045607368  0.4075733843043099
  0.3347636809874687  0.1281329045607368  0.4075733843043099
  0.3597636809874687  0.1281329045607368  0.4075733843043099
  0.3847636809874687  0.1281329045607368  0.4075733843043099
  0.4097636809874688  0.1281329045607368  0.4075733843043099
  0.4347636809874688  0.1281329045607368  0.4075733843043099
  0.4597636809874688  0.1281329045607368  0.4075733843043099
  0.4847636809874688  0.1281329045607368  0.4075733843043099
  0.5097636809874688  0.1281329045607368  0.4075733843043099
  0.5347636809874688  0.1281329045607368  0.4075733843043099
  0.5597636809874688  0.1281329045607368  0.4075733843043099
  0.5847636809874688  0.1281329045607368  0.4075733843043099
  0.6097636809874688  0.1281329045607368  0.4075733843043099
  0.6347636809874688  0.1281329045607368  0.4075733843043099
  0.6597636809874688  0.1281329045607368  0.4075733843043099
  0.6847636809874689  0.1281329045607368  0.4075733843043099
  0.7097636809874688  0.1281329045607368  0.4075733843043099
  0.7347636809874688  0.1281329045607368  0.4075733843043099
  0.7597636809874688  0.1281329045607368  0.4075733843043099
  0.7847636809874688  0.1281329045607368  0.4075733843043099
  0.8097636809874689  0.1281329045607368  0.4075733843043099
  0.8347636809874688  0.1281329045607368  0.4075733843043099
  0.8597636809874688  0.1281329045607368  0.4075733843043099
  0.8847636809874687  0.1281329045607368  0.4075733843043099
  0.9097636809874687  0.1281329045607368  0.4075733843043099
  0.9347636809874686  0.1281329045607368  0.4075733843043099
  0.9597636809874688  0.1281329045607368  0.4075733843043099
  0.9847636809874687  0.1281329045607368  0.4075733843043099
  0.0097636809874688  0.1531329045607368  0.4075733843043099
  0.0347636809874688  0.1531329045607368  0.4075733843043099
  0.0597636809874688  0.1531329045607368  0.4075733843043099
  0.0847636809874688  0.1531329045607368  0.4075733843043099
  0.1097636809874687  0.1531329045607368  0.4075733843043099
  0.1347636809874687  0.1531329045607368  0.4075733843043099
  0.1597636809874687  0.1531329045607368  0.4075733843043099
  0.1847636809874687  0.1531329045607368  0.4075733843043099
  0.2097636809874688  0.1531329045607368  0.4075733843043099
  0.2347636809874688  0.1531329045607368  0.4075733843043099
  0.2597636809874688  0.1531329045607368  0.4075733843043099
  0.2847636809874687  0.1531329045607368  0.4075733843043099
  0.3097636809874688  0.1531329045607368  0.4075733843043099
  0.3347636809874688  0.1531329045607368  0.4075733843043099
  0.3597636809874687  0.1531329045607368  0.4075733843043099
  0.3847636809874688  0.1531329045607368  0.4075733843043099
  0.4097636809874688  0.1531329045607368  0.4075733843043099
  0.4347636809874688  0.1531329045607368  0.4075733843043099
  0.4597636809874687  0.1531329045607368  0.4075733843043099
  0.4847636809874687  0.1531329045607368  0.4075733843043099
  0.5097636809874689  0.1531329045607368  0.4075733843043099
  0.5347636809874688  0.1531329045607368  0.4075733843043099
  0.5597636809874688  0.1531329045607368  0.4075733843043099
  0.5847636809874688  0.1531329045607368  0.4075733843043099
  0.6097636809874689  0.1531329045607368  0.4075733843043099
  0.6347636809874688  0.1531329045607368  0.4075733843043099
  0.6597636809874688  0.1531329045607368  0.4075733843043099
  0.6847636809874689  0.1531329045607368  0.4075733843043099
  0.7097636809874689  0.1531329045607368  0.4075733843043099
  0.7347636809874688  0.1531329045607368  0.4075733843043099
  0.7597636809874688  0.1531329045607368  0.4075733843043099
  0.7847636809874688  0.1531329045607368  0.4075733843043099
  0.8097636809874690  0.1531329045607368  0.4075733843043099
  0.8347636809874688  0.1531329045607368  0.4075733843043099
  0.8597636809874687  0.1531329045607368  0.4075733843043099
  0.8847636809874688  0.1531329045607368  0.4075733843043099
  0.9097636809874690  0.1531329045607368  0.4075733843043099
  0.9347636809874688  0.1531329045607368  0.4075733843043099
  0.9597636809874689  0.1531329045607368  0.4075733843043099
  0.9847636809874688  0.1531329045607368  0.4075733843043099
  0.0097636809874688  0.1781329045607368  0.4075733843043099
  0.0347636809874688  0.1781329045607368  0.4075733843043099
  0.0597636809874687  0.1781329045607368  0.4075733843043099
  0.0847636809874688  0.1781329045607368  0.4075733843043099
  0.1097636809874688  0.1781329045607368  0.4075733843043099
  0.1347636809874688  0.1781329045607368  0.4075733843043099
  0.1597636809874688  0.1781329045607368  0.4075733843043099
  0.1847636809874688  0.1781329045607368  0.4075733843043099
  0.2097636809874687  0.1781329045607368  0.4075733843043099
  0.2347636809874688  0.1781329045607368  0.4075733843043099
  0.2597636809874688  0.1781329045607368  0.4075733843043099
  0.2847636809874688  0.1781329045607368  0.4075733843043099
  0.3097636809874688  0.1781329045607368  0.4075733843043099
  0.3347636809874688  0.1781329045607368  0.4075733843043099
  0.3597636809874687  0.1781329045607368  0.4075733843043099
  0.3847636809874688  0.1781329045607368  0.4075733843043099
  0.4097636809874688  0.1781329045607368  0.4075733843043099
  0.4347636809874688  0.1781329045607368  0.4075733843043099
  0.4597636809874688  0.1781329045607368  0.4075733843043099
  0.4847636809874687  0.1781329045607368  0.4075733843043099
  0.5097636809874688  0.1781329045607368  0.4075733843043099
  0.5347636809874688  0.1781329045607368  0.4075733843043099
  0.5597636809874688  0.1781329045607368  0.4075733843043099
  0.5847636809874687  0.1781329045607368  0.4075733843043099
  0.6097636809874688  0.1781329045607368  0.4075733843043099
  0.6347636809874688  0.1781329045607368  0.4075733843043099
  0.6597636809874688  0.1781329045607368  0.4075733843043099
  0.6847636809874688  0.1781329045607368  0.4075733843043099
  0.7097636809874688  0.1781329045607368  0.4075733843043099
  0.7347636809874688  0.1781329045607368  0.4075733843043099
  0.7597636809874688  0.1781329045607368  0.4075733843043099
  0.7847636809874687  0.1781329045607368  0.4075733843043099
  0.8097636809874689  0.1781329045607368  0.4075733843043099
  0.8347636809874688  0.1781329045607368  0.4075733843043099
  0.8597636809874688  0.1781329045607368  0.4075733843043099
  0.8847636809874686  0.1781329045607368  0.4075733843043099
  0.9097636809874687  0.1781329045607368  0.4075733843043099
  0.9347636809874685  0.1781329045607368  0.4075733843043099
  0.9597636809874687  0.1781329045607368  0.4075733843043099
  0.9847636809874686  0.1781329045607368  0.4075733843043099
  0.0097636809874688  0.2031329045607368  0.4075733843043099
  0.0347636809874688  0.2031329045607368  0.4075733843043099
  0.0597636809874688  0.2031329045607368  0.4075733843043099
  0.0847636809874688  0.2031329045607368  0.4075733843043099
  0.1097636809874688  0.2031329045607368  0.4075733843043099
  0.1347636809874688  0.2031329045607368  0.4075733843043099
  0.1597636809874687  0.2031329045607368  0.4075733843043099
  0.1847636809874688  0.2031329045607368  0.4075733843043099
  0.2097636809874687  0.2031329045607368  0.4075733843043099
  0.2347636809874688  0.2031329045607368  0.4075733843043099
  0.2597636809874688  0.2031329045607368  0.4075733843043099
  0.2847636809874688  0.2031329045607368  0.4075733843043099
  0.3097636809874688  0.2031329045607368  0.4075733843043099
  0.3347636809874688  0.2031329045607368  0.4075733843043099
  0.3597636809874687  0.2031329045607368  0.4075733843043099
  0.3847636809874688  0.2031329045607368  0.4075733843043099
  0.4097636809874688  0.2031329045607368  0.4075733843043099
  0.4347636809874688  0.2031329045607368  0.4075733843043099
  0.4597636809874688  0.2031329045607368  0.4075733843043099
  0.4847636809874688  0.2031329045607368  0.4075733843043099
  0.5097636809874688  0.2031329045607368  0.4075733843043099
  0.5347636809874688  0.2031329045607368  0.4075733843043099
  0.5597636809874688  0.2031329045607368  0.4075733843043099
  0.5847636809874688  0.2031329045607368  0.4075733843043099
  0.6097636809874688  0.2031329045607368  0.4075733843043099
  0.6347636809874688  0.2031329045607368  0.4075733843043099
  0.6597636809874688  0.2031329045607368  0.4075733843043099
  0.6847636809874689  0.2031329045607368  0.4075733843043099
  0.7097636809874688  0.2031329045607368  0.4075733843043099
  0.7347636809874688  0.2031329045607368  0.4075733843043099
  0.7597636809874688  0.2031329045607368  0.4075733843043099
  0.7847636809874688  0.2031329045607368  0.4075733843043099
  0.8097636809874689  0.2031329045607368  0.4075733843043099
  0.8347636809874688  0.2031329045607368  0.4075733843043099
  0.8597636809874687  0.2031329045607368  0.4075733843043099
  0.8847636809874688  0.2031329045607368  0.4075733843043099
  0.9097636809874690  0.2031329045607368  0.4075733843043099
  0.9347636809874689  0.2031329045607368  0.4075733843043099
  0.9597636809874688  0.2031329045607368  0.4075733843043099
  0.9847636809874687  0.2031329045607368  0.4075733843043099
  0.0097636809874687  0.2281329045607368  0.4075733843043099
  0.0347636809874688  0.2281329045607368  0.4075733843043099
  0.0597636809874688  0.2281329045607368  0.4075733843043099
  0.0847636809874688  0.2281329045607368  0.4075733843043099
  0.1097636809874688  0.2281329045607368  0.4075733843043099
  0.1347636809874687  0.2281329045607368  0.4075733843043099
  0.1597636809874687  0.2281329045607368  0.4075733843043099
  0.1847636809874688  0.2281329045607368  0.4075733843043099
  0.2097636809874687  0.2281329045607368  0.4075733843043099
  0.2347636809874687  0.2281329045607368  0.4075733843043099
  0.2597636809874688  0.2281329045607368  0.4075733843043099
  0.2847636809874687  0.2281329045607368  0.4075733843043099
  0.3097636809874688  0.2281329045607368  0.4075733843043099
  0.3347636809874688  0.2281329045607368  0.4075733843043099
  0.3597636809874687  0.2281329045607368  0.4075733843043099
  0.3847636809874688  0.2281329045607368  0.4075733843043099
  0.4097636809874688  0.2281329045607368  0.4075733843043099
  0.4347636809874688  0.2281329045607368  0.4075733843043099
  0.4597636809874687  0.2281329045607368  0.4075733843043099
  0.4847636809874687  0.2281329045607368  0.4075733843043099
  0.5097636809874688  0.2281329045607368  0.4075733843043099
  0.5347636809874688  0.2281329045607368  0.4075733843043099
  0.5597636809874686  0.2281329045607368  0.4075733843043099
  0.5847636809874687  0.2281329045607368  0.4075733843043099
  0.6097636809874688  0.2281329045607368  0.4075733843043099
  0.6347636809874688  0.2281329045607368  0.4075733843043099
  0.6597636809874687  0.2281329045607368  0.4075733843043099
  0.6847636809874688  0.2281329045607368  0.4075733843043099
  0.7097636809874688  0.2281329045607368  0.4075733843043099
  0.7347636809874688  0.2281329045607368  0.4075733843043099
  0.7597636809874687  0.2281329045607368  0.4075733843043099
  0.7847636809874687  0.2281329045607368  0.4075733843043099
  0.8097636809874689  0.2281329045607368  0.4075733843043099
  0.8347636809874687  0.2281329045607368  0.4075733843043099
  0.8597636809874687  0.2281329045607368  0.4075733843043099
  0.8847636809874686  0.2281329045607368  0.4075733843043099
  0.9097636809874687  0.2281329045607368  0.4075733843043099
  0.9347636809874686  0.2281329045607368  0.4075733843043099
  0.9597636809874688  0.2281329045607368  0.4075733843043099
  0.9847636809874687  0.2281329045607368  0.4075733843043099
  0.0097636809874688  0.2531329045607368  0.4075733843043099
  0.0347636809874688  0.2531329045607368  0.4075733843043099
  0.0597636809874688  0.2531329045607368  0.4075733843043099
  0.0847636809874688  0.2531329045607368  0.4075733843043099
  0.1097636809874688  0.2531329045607368  0.4075733843043099
  0.1347636809874688  0.2531329045607368  0.4075733843043099
  0.1597636809874688  0.2531329045607368  0.4075733843043099
  0.1847636809874688  0.2531329045607368  0.4075733843043099
  0.2097636809874688  0.2531329045607368  0.4075733843043099
  0.2347636809874687  0.2531329045607368  0.4075733843043099
  0.2597636809874688  0.2531329045607368  0.4075733843043099
  0.2847636809874687  0.2531329045607368  0.4075733843043099
  0.3097636809874688  0.2531329045607368  0.4075733843043099
  0.3347636809874688  0.2531329045607368  0.4075733843043099
  0.3597636809874688  0.2531329045607368  0.4075733843043099
  0.3847636809874688  0.2531329045607368  0.4075733843043099
  0.4097636809874687  0.2531329045607368  0.4075733843043099
  0.4347636809874689  0.2531329045607368  0.4075733843043099
  0.4597636809874688  0.2531329045607368  0.4075733843043099
  0.4847636809874688  0.2531329045607368  0.4075733843043099
  0.5097636809874688  0.2531329045607368  0.4075733843043099
  0.5347636809874688  0.2531329045607368  0.4075733843043099
  0.5597636809874688  0.2531329045607368  0.4075733843043099
  0.5847636809874688  0.2531329045607368  0.4075733843043099
  0.6097636809874688  0.2531329045607368  0.4075733843043099
  0.6347636809874688  0.2531329045607368  0.4075733843043099
  0.6597636809874688  0.2531329045607368  0.4075733843043099
  0.6847636809874688  0.2531329045607368  0.4075733843043099
  0.7097636809874688  0.2531329045607368  0.4075733843043099
  0.7347636809874688  0.2531329045607368  0.4075733843043099
  0.7597636809874688  0.2531329045607368  0.4075733843043099
  0.7847636809874687  0.2531329045607368  0.4075733843043099
  0.8097636809874689  0.2531329045607368  0.4075733843043099
  0.8347636809874688  0.2531329045607368  0.4075733843043099
  0.8597636809874689  0.2531329045607368  0.4075733843043099
  0.8847636809874687  0.2531329045607368  0.4075733843043099
  0.9097636809874688  0.2531329045607368  0.4075733843043099
  0.9347636809874688  0.2531329045607368  0.4075733843043099
  0.9597636809874689  0.2531329045607368  0.4075733843043099
  0.9847636809874688  0.2531329045607368  0.4075733843043099
  0.0097636809874687  0.2781329045607367  0.4075733843043099
  0.0347636809874688  0.2781329045607367  0.4075733843043099
  0.0597636809874688  0.2781329045607367  0.4075733843043099
  0.0847636809874688  0.2781329045607367  0.4075733843043099
  0.1097636809874687  0.2781329045607367  0.4075733843043099
  0.1347636809874687  0.2781329045607367  0.4075733843043099
  0.1597636809874688  0.2781329045607367  0.4075733843043099
  0.1847636809874687  0.2781329045607367  0.4075733843043099
  0.2097636809874688  0.2781329045607367  0.4075733843043099
  0.2347636809874688  0.2781329045607367  0.4075733843043099
  0.2597636809874688  0.2781329045607367  0.4075733843043099
  0.2847636809874687  0.2781329045607367  0.4075733843043099
  0.3097636809874688  0.2781329045607367  0.4075733843043099
  0.3347636809874688  0.2781329045607367  0.4075733843043099
  0.3597636809874687  0.2781329045607367  0.4075733843043099
  0.3847636809874688  0.2781329045607367  0.4075733843043099
  0.4097636809874688  0.2781329045607367  0.4075733843043099
  0.4347636809874687  0.2781329045607367  0.4075733843043099
  0.4597636809874687  0.2781329045607367  0.4075733843043099
  0.4847636809874687  0.2781329045607367  0.4075733843043099
  0.5097636809874689  0.2781329045607367  0.4075733843043099
  0.5347636809874688  0.2781329045607367  0.4075733843043099
  0.5597636809874688  0.2781329045607367  0.4075733843043099
  0.5847636809874688  0.2781329045607367  0.4075733843043099
  0.6097636809874689  0.2781329045607367  0.4075733843043099
  0.6347636809874688  0.2781329045607367  0.4075733843043099
  0.6597636809874688  0.2781329045607367  0.4075733843043099
  0.6847636809874689  0.2781329045607367  0.4075733843043099
  0.7097636809874689  0.2781329045607367  0.4075733843043099
  0.7347636809874688  0.2781329045607367  0.4075733843043099
  0.7597636809874688  0.2781329045607367  0.4075733843043099
  0.7847636809874688  0.2781329045607367  0.4075733843043099
  0.8097636809874689  0.2781329045607367  0.4075733843043099
  0.8347636809874687  0.2781329045607367  0.4075733843043099
  0.8597636809874688  0.2781329045607367  0.4075733843043099
  0.8847636809874686  0.2781329045607367  0.4075733843043099
  0.9097636809874687  0.2781329045607367  0.4075733843043099
  0.9347636809874686  0.2781329045607367  0.4075733843043099
  0.9597636809874688  0.2781329045607367  0.4075733843043099
  0.9847636809874687  0.2781329045607367  0.4075733843043099
  0.0097636809874688  0.3031329045607368  0.4075733843043099
  0.0347636809874688  0.3031329045607368  0.4075733843043099
  0.0597636809874687  0.3031329045607368  0.4075733843043099
  0.0847636809874687  0.3031329045607368  0.4075733843043099
  0.1097636809874688  0.3031329045607368  0.4075733843043099
  0.1347636809874688  0.3031329045607368  0.4075733843043099
  0.1597636809874688  0.3031329045607368  0.4075733843043099
  0.1847636809874688  0.3031329045607368  0.4075733843043099
  0.2097636809874688  0.3031329045607368  0.4075733843043099
  0.2347636809874688  0.3031329045607368  0.4075733843043099
  0.2597636809874687  0.3031329045607368  0.4075733843043099
  0.2847636809874687  0.3031329045607368  0.4075733843043099
  0.3097636809874687  0.3031329045607368  0.4075733843043099
  0.3347636809874688  0.3031329045607368  0.4075733843043099
  0.3597636809874688  0.3031329045607368  0.4075733843043099
  0.3847636809874687  0.3031329045607368  0.4075733843043099
  0.4097636809874687  0.3031329045607368  0.4075733843043099
  0.4347636809874689  0.3031329045607368  0.4075733843043099
  0.4597636809874688  0.3031329045607368  0.4075733843043099
  0.4847636809874687  0.3031329045607368  0.4075733843043099
  0.5097636809874688  0.3031329045607368  0.4075733843043099
  0.5347636809874688  0.3031329045607368  0.4075733843043099
  0.5597636809874688  0.3031329045607368  0.4075733843043099
  0.5847636809874687  0.3031329045607368  0.4075733843043099
  0.6097636809874688  0.3031329045607368  0.4075733843043099
  0.6347636809874688  0.3031329045607368  0.4075733843043099
  0.6597636809874688  0.3031329045607368  0.4075733843043099
  0.6847636809874688  0.3031329045607368  0.4075733843043099
  0.7097636809874688  0.3031329045607368  0.4075733843043099
  0.7347636809874688  0.3031329045607368  0.4075733843043099
  0.7597636809874688  0.3031329045607368  0.4075733843043099
  0.7847636809874687  0.3031329045607368  0.4075733843043099
  0.8097636809874689  0.3031329045607368  0.4075733843043099
  0.8347636809874688  0.3031329045607368  0.4075733843043099
  0.8597636809874689  0.3031329045607368  0.4075733843043099
  0.8847636809874688  0.3031329045607368  0.4075733843043099
  0.9097636809874687  0.3031329045607368  0.4075733843043099
  0.9347636809874686  0.3031329045607368  0.4075733843043099
  0.9597636809874688  0.3031329045607368  0.4075733843043099
  0.9847636809874687  0.3031329045607368  0.4075733843043099
  0.0097636809874688  0.3281329045607368  0.4075733843043099
  0.0347636809874688  0.3281329045607368  0.4075733843043099
  0.0597636809874688  0.3281329045607368  0.4075733843043099
  0.0847636809874688  0.3281329045607368  0.4075733843043099
  0.1097636809874688  0.3281329045607368  0.4075733843043099
  0.1347636809874688  0.3281329045607368  0.4075733843043099
  0.1597636809874688  0.3281329045607368  0.4075733843043099
  0.1847636809874688  0.3281329045607368  0.4075733843043099
  0.2097636809874688  0.3281329045607368  0.4075733843043099
  0.2347636809874688  0.3281329045607368  0.4075733843043099
  0.2597636809874688  0.3281329045607368  0.4075733843043099
  0.2847636809874688  0.3281329045607368  0.4075733843043099
  0.3097636809874688  0.3281329045607368  0.4075733843043099
  0.3347636809874687  0.3281329045607368  0.4075733843043099
  0.3597636809874687  0.3281329045607368  0.4075733843043099
  0.3847636809874688  0.3281329045607368  0.4075733843043099
  0.4097636809874687  0.3281329045607368  0.4075733843043099
  0.4347636809874688  0.3281329045607368  0.4075733843043099
  0.4597636809874687  0.3281329045607368  0.4075733843043099
  0.4847636809874687  0.3281329045607368  0.4075733843043099
  0.5097636809874688  0.3281329045607368  0.4075733843043099
  0.5347636809874688  0.3281329045607368  0.4075733843043099
  0.5597636809874688  0.3281329045607368  0.4075733843043099
  0.5847636809874688  0.3281329045607368  0.4075733843043099
  0.6097636809874688  0.3281329045607368  0.4075733843043099
  0.6347636809874688  0.3281329045607368  0.4075733843043099
  0.6597636809874688  0.3281329045607368  0.4075733843043099
  0.6847636809874689  0.3281329045607368  0.4075733843043099
  0.7097636809874688  0.3281329045607368  0.4075733843043099
  0.7347636809874688  0.3281329045607368  0.4075733843043099
  0.7597636809874688  0.3281329045607368  0.4075733843043099
  0.7847636809874690  0.3281329045607368  0.4075733843043099
  0.8097636809874690  0.3281329045607368  0.4075733843043099
  0.8347636809874689  0.3281329045607368  0.4075733843043099
  0.8597636809874688  0.3281329045607368  0.4075733843043099
  0.8847636809874689  0.3281329045607368  0.4075733843043099
  0.9097636809874691  0.3281329045607368  0.4075733843043099
  0.9347636809874690  0.3281329045607368  0.4075733843043099
  0.9597636809874689  0.3281329045607368  0.4075733843043099
  0.9847636809874688  0.3281329045607368  0.4075733843043099
  0.0097636809874688  0.3531329045607368  0.4075733843043099
  0.0347636809874688  0.3531329045607368  0.4075733843043099
  0.0597636809874688  0.3531329045607368  0.4075733843043099
  0.0847636809874688  0.3531329045607368  0.4075733843043099
  0.1097636809874688  0.3531329045607368  0.4075733843043099
  0.1347636809874688  0.3531329045607368  0.4075733843043099
  0.1597636809874688  0.3531329045607368  0.4075733843043099
  0.1847636809874688  0.3531329045607368  0.4075733843043099
  0.2097636809874688  0.3531329045607368  0.4075733843043099
  0.2347636809874687  0.3531329045607368  0.4075733843043099
  0.2597636809874688  0.3531329045607368  0.4075733843043099
  0.2847636809874687  0.3531329045607368  0.4075733843043099
  0.3097636809874688  0.3531329045607368  0.4075733843043099
  0.3347636809874688  0.3531329045607368  0.4075733843043099
  0.3597636809874687  0.3531329045607368  0.4075733843043099
  0.3847636809874688  0.3531329045607368  0.4075733843043099
  0.4097636809874688  0.3531329045607368  0.4075733843043099
  0.4347636809874689  0.3531329045607368  0.4075733843043099
  0.4597636809874687  0.3531329045607368  0.4075733843043099
  0.4847636809874687  0.3531329045607368  0.4075733843043099
  0.5097636809874689  0.3531329045607368  0.4075733843043099
  0.5347636809874690  0.3531329045607368  0.4075733843043099
  0.5597636809874688  0.3531329045607368  0.4075733843043099
  0.5847636809874688  0.3531329045607368  0.4075733843043099
  0.6097636809874689  0.3531329045607368  0.4075733843043099
  0.6347636809874689  0.3531329045607368  0.4075733843043099
  0.6597636809874688  0.3531329045607368  0.4075733843043099
  0.6847636809874689  0.3531329045607368  0.4075733843043099
  0.7097636809874689  0.3531329045607368  0.4075733843043099
  0.7347636809874689  0.3531329045607368  0.4075733843043099
  0.7597636809874689  0.3531329045607368  0.4075733843043099
  0.7847636809874688  0.3531329045607368  0.4075733843043099
  0.8097636809874690  0.3531329045607368  0.4075733843043099
  0.8347636809874688  0.3531329045607368  0.4075733843043099
  0.8597636809874689  0.3531329045607368  0.4075733843043099
  0.8847636809874688  0.3531329045607368  0.4075733843043099
  0.9097636809874690  0.3531329045607368  0.4075733843043099
  0.9347636809874689  0.3531329045607368  0.4075733843043099
  0.9597636809874690  0.3531329045607368  0.4075733843043099
  0.9847636809874689  0.3531329045607368  0.4075733843043099
  0.0097636809874687  0.3781329045607368  0.4075733843043099
  0.0347636809874687  0.3781329045607368  0.4075733843043099
  0.0597636809874688  0.3781329045607368  0.4075733843043099
  0.0847636809874688  0.3781329045607368  0.4075733843043099
  0.1097636809874688  0.3781329045607368  0.4075733843043099
  0.1347636809874687  0.3781329045607368  0.4075733843043099
  0.1597636809874688  0.3781329045607368  0.4075733843043099
  0.1847636809874687  0.3781329045607368  0.4075733843043099
  0.2097636809874688  0.3781329045607368  0.4075733843043099
  0.2347636809874688  0.3781329045607368  0.4075733843043099
  0.2597636809874688  0.3781329045607368  0.4075733843043099
  0.2847636809874688  0.3781329045607368  0.4075733843043099
  0.3097636809874688  0.3781329045607368  0.4075733843043099
  0.3347636809874688  0.3781329045607368  0.4075733843043099
  0.3597636809874688  0.3781329045607368  0.4075733843043099
  0.3847636809874688  0.3781329045607368  0.4075733843043099
  0.4097636809874687  0.3781329045607368  0.4075733843043099
  0.4347636809874689  0.3781329045607368  0.4075733843043099
  0.4597636809874688  0.3781329045607368  0.4075733843043099
  0.4847636809874688  0.3781329045607368  0.4075733843043099
  0.5097636809874688  0.3781329045607368  0.4075733843043099
  0.5347636809874688  0.3781329045607368  0.4075733843043099
  0.5597636809874688  0.3781329045607368  0.4075733843043099
  0.5847636809874688  0.3781329045607368  0.4075733843043099
  0.6097636809874688  0.3781329045607368  0.4075733843043099
  0.6347636809874688  0.3781329045607368  0.4075733843043099
  0.6597636809874688  0.3781329045607368  0.4075733843043099
  0.6847636809874688  0.3781329045607368  0.4075733843043099
  0.7097636809874688  0.3781329045607368  0.4075733843043099
  0.7347636809874688  0.3781329045607368  0.4075733843043099
  0.7597636809874688  0.3781329045607368  0.4075733843043099
  0.7847636809874688  0.3781329045607368  0.4075733843043099
  0.8097636809874690  0.3781329045607368  0.4075733843043099
  0.8347636809874688  0.3781329045607368  0.4075733843043099
  0.8597636809874687  0.3781329045607368  0.4075733843043099
  0.8847636809874688  0.3781329045607368  0.4075733843043099
  0.9097636809874690  0.3781329045607368  0.4075733843043099
  0.9347636809874689  0.3781329045607368  0.4075733843043099
  0.9597636809874690  0.3781329045607368  0.4075733843043099
  0.9847636809874689  0.3781329045607368  0.4075733843043099
  0.0097636809874688  0.4031329045607367  0.4075733843043099
  0.0347636809874688  0.4031329045607367  0.4075733843043099
  0.0597636809874688  0.4031329045607367  0.4075733843043099
  0.0847636809874688  0.4031329045607367  0.4075733843043099
  0.1097636809874688  0.4031329045607367  0.4075733843043099
  0.1347636809874688  0.4031329045607367  0.4075733843043099
  0.1597636809874687  0.4031329045607367  0.4075733843043099
  0.1847636809874688  0.4031329045607367  0.4075733843043099
  0.2097636809874687  0.4031329045607367  0.4075733843043099
  0.2347636809874687  0.4031329045607367  0.4075733843043099
  0.2597636809874687  0.4031329045607367  0.4075733843043099
  0.2847636809874688  0.4031329045607367  0.4075733843043099
  0.3097636809874688  0.4031329045607367  0.4075733843043099
  0.3347636809874687  0.4031329045607367  0.4075733843043099
  0.3597636809874687  0.4031329045607367  0.4075733843043099
  0.3847636809874688  0.4031329045607367  0.4075733843043099
  0.4097636809874688  0.4031329045607367  0.4075733843043099
  0.4347636809874688  0.4031329045607367  0.4075733843043099
  0.4597636809874687  0.4031329045607367  0.4075733843043099
  0.4847636809874687  0.4031329045607367  0.4075733843043099
  0.5097636809874689  0.4031329045607367  0.4075733843043099
  0.5347636809874688  0.4031329045607367  0.4075733843043099
  0.5597636809874688  0.4031329045607367  0.4075733843043099
  0.5847636809874688  0.4031329045607367  0.4075733843043099
  0.6097636809874689  0.4031329045607367  0.4075733843043099
  0.6347636809874688  0.4031329045607367  0.4075733843043099
  0.6597636809874688  0.4031329045607367  0.4075733843043099
  0.6847636809874689  0.4031329045607367  0.4075733843043099
  0.7097636809874689  0.4031329045607367  0.4075733843043099
  0.7347636809874688  0.4031329045607367  0.4075733843043099
  0.7597636809874689  0.4031329045607367  0.4075733843043099
  0.7847636809874688  0.4031329045607367  0.4075733843043099
  0.8097636809874690  0.4031329045607367  0.4075733843043099
  0.8347636809874689  0.4031329045607367  0.4075733843043099
  0.8597636809874688  0.4031329045607367  0.4075733843043099
  0.8847636809874687  0.4031329045607367  0.4075733843043099
  0.9097636809874688  0.4031329045607367  0.4075733843043099
  0.9347636809874688  0.4031329045607367  0.4075733843043099
  0.9597636809874689  0.4031329045607367  0.4075733843043099
  0.9847636809874688  0.4031329045607367  0.4075733843043099
  0.0097636809874688  0.4281329045607367  0.4075733843043099
  0.0347636809874688  0.4281329045607367  0.4075733843043099
  0.0597636809874688  0.4281329045607367  0.4075733843043099
  0.0847636809874688  0.4281329045607367  0.4075733843043099
  0.1097636809874688  0.4281329045607367  0.4075733843043099
  0.1347636809874688  0.4281329045607367  0.4075733843043099
  0.1597636809874688  0.4281329045607367  0.4075733843043099
  0.1847636809874688  0.4281329045607367  0.4075733843043099
  0.2097636809874688  0.4281329045607367  0.4075733843043099
  0.2347636809874688  0.4281329045607367  0.4075733843043099
  0.2597636809874688  0.4281329045607367  0.4075733843043099
  0.2847636809874688  0.4281329045607367  0.4075733843043099
  0.3097636809874688  0.4281329045607367  0.4075733843043099
  0.3347636809874688  0.4281329045607367  0.4075733843043099
  0.3597636809874689  0.4281329045607367  0.4075733843043099
  0.3847636809874688  0.4281329045607367  0.4075733843043099
  0.4097636809874688  0.4281329045607367  0.4075733843043099
  0.4347636809874689  0.4281329045607367  0.4075733843043099
  0.4597636809874688  0.4281329045607367  0.4075733843043099
  0.4847636809874687  0.4281329045607367  0.4075733843043099
  0.5097636809874688  0.4281329045607367  0.4075733843043099
  0.5347636809874688  0.4281329045607367  0.4075733843043099
  0.5597636809874688  0.4281329045607367  0.4075733843043099
  0.5847636809874687  0.4281329045607367  0.4075733843043099
  0.6097636809874688  0.4281329045607367  0.4075733843043099
  0.6347636809874688  0.4281329045607367  0.4075733843043099
  0.6597636809874687  0.4281329045607367  0.4075733843043099
  0.6847636809874688  0.4281329045607367  0.4075733843043099
  0.7097636809874688  0.4281329045607367  0.4075733843043099
  0.7347636809874689  0.4281329045607367  0.4075733843043099
  0.7597636809874687  0.4281329045607367  0.4075733843043099
  0.7847636809874688  0.4281329045607367  0.4075733843043099
  0.8097636809874690  0.4281329045607367  0.4075733843043099
  0.8347636809874689  0.4281329045607367  0.4075733843043099
  0.8597636809874688  0.4281329045607367  0.4075733843043099
  0.8847636809874689  0.4281329045607367  0.4075733843043099
  0.9097636809874688  0.4281329045607367  0.4075733843043099
  0.9347636809874688  0.4281329045607367  0.4075733843043099
  0.9597636809874689  0.4281329045607367  0.4075733843043099
  0.9847636809874688  0.4281329045607367  0.4075733843043099
  0.0097636809874687  0.4531329045607368  0.4075733843043099
  0.0347636809874688  0.4531329045607368  0.4075733843043099
  0.0597636809874687  0.4531329045607368  0.4075733843043099
  0.0847636809874688  0.4531329045607368  0.4075733843043099
  0.1097636809874688  0.4531329045607368  0.4075733843043099
  0.1347636809874687  0.4531329045607368  0.4075733843043099
  0.1597636809874688  0.4531329045607368  0.4075733843043099
  0.1847636809874687  0.4531329045607368  0.4075733843043099
  0.2097636809874688  0.4531329045607368  0.4075733843043099
  0.2347636809874687  0.4531329045607368  0.4075733843043099
  0.2597636809874688  0.4531329045607368  0.4075733843043099
  0.2847636809874688  0.4531329045607368  0.4075733843043099
  0.3097636809874687  0.4531329045607368  0.4075733843043099
  0.3347636809874687  0.4531329045607368  0.4075733843043099
  0.3597636809874687  0.4531329045607368  0.4075733843043099
  0.3847636809874688  0.4531329045607368  0.4075733843043099
  0.4097636809874687  0.4531329045607368  0.4075733843043099
  0.4347636809874688  0.4531329045607368  0.4075733843043099
  0.4597636809874687  0.4531329045607368  0.4075733843043099
  0.4847636809874687  0.4531329045607368  0.4075733843043099
  0.5097636809874688  0.4531329045607368  0.4075733843043099
  0.5347636809874688  0.4531329045607368  0.4075733843043099
  0.5597636809874688  0.4531329045607368  0.4075733843043099
  0.5847636809874688  0.4531329045607368  0.4075733843043099
  0.6097636809874688  0.4531329045607368  0.4075733843043099
  0.6347636809874688  0.4531329045607368  0.4075733843043099
  0.6597636809874688  0.4531329045607368  0.4075733843043099
  0.6847636809874689  0.4531329045607368  0.4075733843043099
  0.7097636809874689  0.4531329045607368  0.4075733843043099
  0.7347636809874688  0.4531329045607368  0.4075733843043099
  0.7597636809874689  0.4531329045607368  0.4075733843043099
  0.7847636809874687  0.4531329045607368  0.4075733843043099
  0.8097636809874689  0.4531329045607368  0.4075733843043099
  0.8347636809874688  0.4531329045607368  0.4075733843043099
  0.8597636809874689  0.4531329045607368  0.4075733843043099
  0.8847636809874688  0.4531329045607368  0.4075733843043099
  0.9097636809874690  0.4531329045607368  0.4075733843043099
  0.9347636809874689  0.4531329045607368  0.4075733843043099
  0.9597636809874688  0.4531329045607368  0.4075733843043099
  0.9847636809874687  0.4531329045607368  0.4075733843043099
  0.0097636809874688  0.4781329045607368  0.4075733843043099
  0.0347636809874688  0.4781329045607368  0.4075733843043099
  0.0597636809874688  0.4781329045607368  0.4075733843043099
  0.0847636809874688  0.4781329045607368  0.4075733843043099
  0.1097636809874688  0.4781329045607368  0.4075733843043099
  0.1347636809874687  0.4781329045607368  0.4075733843043099
  0.1597636809874688  0.4781329045607368  0.4075733843043099
  0.1847636809874687  0.4781329045607368  0.4075733843043099
  0.2097636809874688  0.4781329045607368  0.4075733843043099
  0.2347636809874688  0.4781329045607368  0.4075733843043099
  0.2597636809874688  0.4781329045607368  0.4075733843043099
  0.2847636809874687  0.4781329045607368  0.4075733843043099
  0.3097636809874688  0.4781329045607368  0.4075733843043099
  0.3347636809874688  0.4781329045607368  0.4075733843043099
  0.3597636809874687  0.4781329045607368  0.4075733843043099
  0.3847636809874687  0.4781329045607368  0.4075733843043099
  0.4097636809874687  0.4781329045607368  0.4075733843043099
  0.4347636809874689  0.4781329045607368  0.4075733843043099
  0.4597636809874687  0.4781329045607368  0.4075733843043099
  0.4847636809874687  0.4781329045607368  0.4075733843043099
  0.5097636809874688  0.4781329045607368  0.4075733843043099
  0.5347636809874687  0.4781329045607368  0.4075733843043099
  0.5597636809874686  0.4781329045607368  0.4075733843043099
  0.5847636809874687  0.4781329045607368  0.4075733843043099
  0.6097636809874688  0.4781329045607368  0.4075733843043099
  0.6347636809874687  0.4781329045607368  0.4075733843043099
  0.6597636809874687  0.4781329045607368  0.4075733843043099
  0.6847636809874688  0.4781329045607368  0.4075733843043099
  0.7097636809874688  0.4781329045607368  0.4075733843043099
  0.7347636809874688  0.4781329045607368  0.4075733843043099
  0.7597636809874687  0.4781329045607368  0.4075733843043099
  0.7847636809874687  0.4781329045607368  0.4075733843043099
  0.8097636809874689  0.4781329045607368  0.4075733843043099
  0.8347636809874688  0.4781329045607368  0.4075733843043099
  0.8597636809874687  0.4781329045607368  0.4075733843043099
  0.8847636809874688  0.4781329045607368  0.4075733843043099
  0.9097636809874690  0.4781329045607368  0.4075733843043099
  0.9347636809874689  0.4781329045607368  0.4075733843043099
  0.9597636809874690  0.4781329045607368  0.4075733843043099
  0.9847636809874687  0.4781329045607368  0.4075733843043099
  0.0097636809874688  0.5031329045607368  0.4075733843043099
  0.0347636809874688  0.5031329045607368  0.4075733843043099
  0.0597636809874688  0.5031329045607368  0.4075733843043099
  0.0847636809874688  0.5031329045607368  0.4075733843043099
  0.1097636809874688  0.5031329045607368  0.4075733843043099
  0.1347636809874688  0.5031329045607368  0.4075733843043099
  0.1597636809874688  0.5031329045607368  0.4075733843043099
  0.1847636809874688  0.5031329045607368  0.4075733843043099
  0.2097636809874688  0.5031329045607368  0.4075733843043099
  0.2347636809874688  0.5031329045607368  0.4075733843043099
  0.2597636809874688  0.5031329045607368  0.4075733843043099
  0.2847636809874687  0.5031329045607368  0.4075733843043099
  0.3097636809874688  0.5031329045607368  0.4075733843043099
  0.3347636809874689  0.5031329045607368  0.4075733843043099
  0.3597636809874688  0.5031329045607368  0.4075733843043099
  0.3847636809874688  0.5031329045607368  0.4075733843043099
  0.4097636809874688  0.5031329045607368  0.4075733843043099
  0.4347636809874689  0.5031329045607368  0.4075733843043099
  0.4597636809874689  0.5031329045607368  0.4075733843043099
  0.4847636809874688  0.5031329045607368  0.4075733843043099
  0.5097636809874689  0.5031329045607368  0.4075733843043099
  0.5347636809874690  0.5031329045607368  0.4075733843043099
  0.5597636809874689  0.5031329045607368  0.4075733843043099
  0.5847636809874688  0.5031329045607368  0.4075733843043099
  0.6097636809874689  0.5031329045607368  0.4075733843043099
  0.6347636809874689  0.5031329045607368  0.4075733843043099
  0.6597636809874690  0.5031329045607368  0.4075733843043099
  0.6847636809874688  0.5031329045607368  0.4075733843043099
  0.7097636809874689  0.5031329045607368  0.4075733843043099
  0.7347636809874688  0.5031329045607368  0.4075733843043099
  0.7597636809874689  0.5031329045607368  0.4075733843043099
  0.7847636809874688  0.5031329045607368  0.4075733843043099
  0.8097636809874690  0.5031329045607368  0.4075733843043099
  0.8347636809874687  0.5031329045607368  0.4075733843043099
  0.8597636809874688  0.5031329045607368  0.4075733843043099
  0.8847636809874687  0.5031329045607368  0.4075733843043099
  0.9097636809874688  0.5031329045607368  0.4075733843043099
  0.9347636809874688  0.5031329045607368  0.4075733843043099
  0.9597636809874689  0.5031329045607368  0.4075733843043099
  0.9847636809874688  0.5031329045607368  0.4075733843043099
  0.0097636809874687  0.5281329045607367  0.4075733843043099
  0.0347636809874688  0.5281329045607367  0.4075733843043099
  0.0597636809874687  0.5281329045607367  0.4075733843043099
  0.0847636809874688  0.5281329045607367  0.4075733843043099
  0.1097636809874688  0.5281329045607367  0.4075733843043099
  0.1347636809874688  0.5281329045607367  0.4075733843043099
  0.1597636809874688  0.5281329045607367  0.4075733843043099
  0.1847636809874688  0.5281329045607367  0.4075733843043099
  0.2097636809874687  0.5281329045607367  0.4075733843043099
  0.2347636809874688  0.5281329045607367  0.4075733843043099
  0.2597636809874688  0.5281329045607367  0.4075733843043099
  0.2847636809874688  0.5281329045607367  0.4075733843043099
  0.3097636809874688  0.5281329045607367  0.4075733843043099
  0.3347636809874687  0.5281329045607367  0.4075733843043099
  0.3597636809874687  0.5281329045607367  0.4075733843043099
  0.3847636809874688  0.5281329045607367  0.4075733843043099
  0.4097636809874688  0.5281329045607367  0.4075733843043099
  0.4347636809874688  0.5281329045607367  0.4075733843043099
  0.4597636809874687  0.5281329045607367  0.4075733843043099
  0.4847636809874687  0.5281329045607367  0.4075733843043099
  0.5097636809874689  0.5281329045607367  0.4075733843043099
  0.5347636809874688  0.5281329045607367  0.4075733843043099
  0.5597636809874688  0.5281329045607367  0.4075733843043099
  0.5847636809874688  0.5281329045607367  0.4075733843043099
  0.6097636809874689  0.5281329045607367  0.4075733843043099
  0.6347636809874688  0.5281329045607367  0.4075733843043099
  0.6597636809874688  0.5281329045607367  0.4075733843043099
  0.6847636809874690  0.5281329045607367  0.4075733843043099
  0.7097636809874689  0.5281329045607367  0.4075733843043099
  0.7347636809874689  0.5281329045607367  0.4075733843043099
  0.7597636809874688  0.5281329045607367  0.4075733843043099
  0.7847636809874690  0.5281329045607367  0.4075733843043099
  0.8097636809874691  0.5281329045607367  0.4075733843043099
  0.8347636809874690  0.5281329045607367  0.4075733843043099
  0.8597636809874689  0.5281329045607367  0.4075733843043099
  0.8847636809874688  0.5281329045607367  0.4075733843043099
  0.9097636809874690  0.5281329045607367  0.4075733843043099
  0.9347636809874689  0.5281329045607367  0.4075733843043099
  0.9597636809874690  0.5281329045607367  0.4075733843043099
  0.9847636809874689  0.5281329045607367  0.4075733843043099
  0.0097636809874687  0.5531329045607367  0.4075733843043099
  0.0347636809874688  0.5531329045607367  0.4075733843043099
  0.0597636809874688  0.5531329045607367  0.4075733843043099
  0.0847636809874688  0.5531329045607367  0.4075733843043099
  0.1097636809874688  0.5531329045607367  0.4075733843043099
  0.1347636809874688  0.5531329045607367  0.4075733843043099
  0.1597636809874688  0.5531329045607367  0.4075733843043099
  0.1847636809874688  0.5531329045607367  0.4075733843043099
  0.2097636809874688  0.5531329045607367  0.4075733843043099
  0.2347636809874688  0.5531329045607367  0.4075733843043099
  0.2597636809874688  0.5531329045607367  0.4075733843043099
  0.2847636809874687  0.5531329045607367  0.4075733843043099
  0.3097636809874688  0.5531329045607367  0.4075733843043099
  0.3347636809874688  0.5531329045607367  0.4075733843043099
  0.3597636809874687  0.5531329045607367  0.4075733843043099
  0.3847636809874687  0.5531329045607367  0.4075733843043099
  0.4097636809874687  0.5531329045607367  0.4075733843043099
  0.4347636809874689  0.5531329045607367  0.4075733843043099
  0.4597636809874687  0.5531329045607367  0.4075733843043099
  0.4847636809874687  0.5531329045607367  0.4075733843043099
  0.5097636809874688  0.5531329045607367  0.4075733843043099
  0.5347636809874688  0.5531329045607367  0.4075733843043099
  0.5597636809874686  0.5531329045607367  0.4075733843043099
  0.5847636809874687  0.5531329045607367  0.4075733843043099
  0.6097636809874688  0.5531329045607367  0.4075733843043099
  0.6347636809874688  0.5531329045607367  0.4075733843043099
  0.6597636809874688  0.5531329045607367  0.4075733843043099
  0.6847636809874688  0.5531329045607367  0.4075733843043099
  0.7097636809874689  0.5531329045607367  0.4075733843043099
  0.7347636809874687  0.5531329045607367  0.4075733843043099
  0.7597636809874688  0.5531329045607367  0.4075733843043099
  0.7847636809874687  0.5531329045607367  0.4075733843043099
  0.8097636809874689  0.5531329045607367  0.4075733843043099
  0.8347636809874688  0.5531329045607367  0.4075733843043099
  0.8597636809874689  0.5531329045607367  0.4075733843043099
  0.8847636809874688  0.5531329045607367  0.4075733843043099
  0.9097636809874687  0.5531329045607367  0.4075733843043099
  0.9347636809874686  0.5531329045607367  0.4075733843043099
  0.9597636809874688  0.5531329045607367  0.4075733843043099
  0.9847636809874687  0.5531329045607367  0.4075733843043099
  0.0097636809874688  0.5781329045607367  0.4075733843043099
  0.0347636809874688  0.5781329045607367  0.4075733843043099
  0.0597636809874688  0.5781329045607367  0.4075733843043099
  0.0847636809874688  0.5781329045607367  0.4075733843043099
  0.1097636809874688  0.5781329045607367  0.4075733843043099
  0.1347636809874687  0.5781329045607367  0.4075733843043099
  0.1597636809874688  0.5781329045607367  0.4075733843043099
  0.1847636809874688  0.5781329045607367  0.4075733843043099
  0.2097636809874688  0.5781329045607367  0.4075733843043099
  0.2347636809874688  0.5781329045607367  0.4075733843043099
  0.2597636809874688  0.5781329045607367  0.4075733843043099
  0.2847636809874688  0.5781329045607367  0.4075733843043099
  0.3097636809874687  0.5781329045607367  0.4075733843043099
  0.3347636809874687  0.5781329045607367  0.4075733843043099
  0.3597636809874687  0.5781329045607367  0.4075733843043099
  0.3847636809874688  0.5781329045607367  0.4075733843043099
  0.4097636809874687  0.5781329045607367  0.4075733843043099
  0.4347636809874688  0.5781329045607367  0.4075733843043099
  0.4597636809874687  0.5781329045607367  0.4075733843043099
  0.4847636809874687  0.5781329045607367  0.4075733843043099
  0.5097636809874688  0.5781329045607367  0.4075733843043099
  0.5347636809874688  0.5781329045607367  0.4075733843043099
  0.5597636809874688  0.5781329045607367  0.4075733843043099
  0.5847636809874688  0.5781329045607367  0.4075733843043099
  0.6097636809874688  0.5781329045607367  0.4075733843043099
  0.6347636809874688  0.5781329045607367  0.4075733843043099
  0.6597636809874688  0.5781329045607367  0.4075733843043099
  0.6847636809874689  0.5781329045607367  0.4075733843043099
  0.7097636809874688  0.5781329045607367  0.4075733843043099
  0.7347636809874688  0.5781329045607367  0.4075733843043099
  0.7597636809874687  0.5781329045607367  0.4075733843043099
  0.7847636809874688  0.5781329045607367  0.4075733843043099
  0.8097636809874690  0.5781329045607367  0.4075733843043099
  0.8347636809874689  0.5781329045607367  0.4075733843043099
  0.8597636809874688  0.5781329045607367  0.4075733843043099
  0.8847636809874689  0.5781329045607367  0.4075733843043099
  0.9097636809874691  0.5781329045607367  0.4075733843043099
  0.9347636809874688  0.5781329045607367  0.4075733843043099
  0.9597636809874689  0.5781329045607367  0.4075733843043099
  0.9847636809874688  0.5781329045607367  0.4075733843043099
  0.0097636809874688  0.6031329045607369  0.4075733843043099
  0.0347636809874687  0.6031329045607369  0.4075733843043099
  0.0597636809874688  0.6031329045607369  0.4075733843043099
  0.0847636809874688  0.6031329045607369  0.4075733843043099
  0.1097636809874688  0.6031329045607369  0.4075733843043099
  0.1347636809874688  0.6031329045607369  0.4075733843043099
  0.1597636809874688  0.6031329045607369  0.4075733843043099
  0.1847636809874688  0.6031329045607369  0.4075733843043099
  0.2097636809874688  0.6031329045607369  0.4075733843043099
  0.2347636809874688  0.6031329045607369  0.4075733843043099
  0.2597636809874687  0.6031329045607369  0.4075733843043099
  0.2847636809874687  0.6031329045607369  0.4075733843043099
  0.3097636809874688  0.6031329045607369  0.4075733843043099
  0.3347636809874688  0.6031329045607369  0.4075733843043099
  0.3597636809874687  0.6031329045607369  0.4075733843043099
  0.3847636809874688  0.6031329045607369  0.4075733843043099
  0.4097636809874688  0.6031329045607369  0.4075733843043099
  0.4347636809874688  0.6031329045607369  0.4075733843043099
  0.4597636809874688  0.6031329045607369  0.4075733843043099
  0.4847636809874688  0.6031329045607369  0.4075733843043099
  0.5097636809874689  0.6031329045607369  0.4075733843043099
  0.5347636809874688  0.6031329045607369  0.4075733843043099
  0.5597636809874688  0.6031329045607369  0.4075733843043099
  0.5847636809874688  0.6031329045607369  0.4075733843043099
  0.6097636809874689  0.6031329045607369  0.4075733843043099
  0.6347636809874687  0.6031329045607369  0.4075733843043099
  0.6597636809874688  0.6031329045607369  0.4075733843043099
  0.6847636809874688  0.6031329045607369  0.4075733843043099
  0.7097636809874689  0.6031329045607369  0.4075733843043099
  0.7347636809874688  0.6031329045607369  0.4075733843043099
  0.7597636809874689  0.6031329045607369  0.4075733843043099
  0.7847636809874686  0.6031329045607369  0.4075733843043099
  0.8097636809874688  0.6031329045607369  0.4075733843043099
  0.8347636809874687  0.6031329045607369  0.4075733843043099
  0.8597636809874688  0.6031329045607369  0.4075733843043099
  0.8847636809874687  0.6031329045607369  0.4075733843043099
  0.9097636809874688  0.6031329045607369  0.4075733843043099
  0.9347636809874688  0.6031329045607369  0.4075733843043099
  0.9597636809874689  0.6031329045607369  0.4075733843043099
  0.9847636809874686  0.6031329045607369  0.4075733843043099
  0.0097636809874687  0.6281329045607369  0.4075733843043099
  0.0347636809874688  0.6281329045607369  0.4075733843043099
  0.0597636809874688  0.6281329045607369  0.4075733843043099
  0.0847636809874688  0.6281329045607369  0.4075733843043099
  0.1097636809874687  0.6281329045607369  0.4075733843043099
  0.1347636809874688  0.6281329045607369  0.4075733843043099
  0.1597636809874687  0.6281329045607369  0.4075733843043099
  0.1847636809874688  0.6281329045607369  0.4075733843043099
  0.2097636809874687  0.6281329045607369  0.4075733843043099
  0.2347636809874687  0.6281329045607369  0.4075733843043099
  0.2597636809874688  0.6281329045607369  0.4075733843043099
  0.2847636809874687  0.6281329045607369  0.4075733843043099
  0.3097636809874687  0.6281329045607369  0.4075733843043099
  0.3347636809874688  0.6281329045607369  0.4075733843043099
  0.3597636809874687  0.6281329045607369  0.4075733843043099
  0.3847636809874688  0.6281329045607369  0.4075733843043099
  0.4097636809874688  0.6281329045607369  0.4075733843043099
  0.4347636809874688  0.6281329045607369  0.4075733843043099
  0.4597636809874688  0.6281329045607369  0.4075733843043099
  0.4847636809874687  0.6281329045607369  0.4075733843043099
  0.5097636809874689  0.6281329045607369  0.4075733843043099
  0.5347636809874690  0.6281329045607369  0.4075733843043099
  0.5597636809874689  0.6281329045607369  0.4075733843043099
  0.5847636809874688  0.6281329045607369  0.4075733843043099
  0.6097636809874689  0.6281329045607369  0.4075733843043099
  0.6347636809874689  0.6281329045607369  0.4075733843043099
  0.6597636809874688  0.6281329045607369  0.4075733843043099
  0.6847636809874689  0.6281329045607369  0.4075733843043099
  0.7097636809874688  0.6281329045607369  0.4075733843043099
  0.7347636809874689  0.6281329045607369  0.4075733843043099
  0.7597636809874688  0.6281329045607369  0.4075733843043099
  0.7847636809874690  0.6281329045607369  0.4075733843043099
  0.8097636809874689  0.6281329045607369  0.4075733843043099
  0.8347636809874688  0.6281329045607369  0.4075733843043099
  0.8597636809874687  0.6281329045607369  0.4075733843043099
  0.8847636809874688  0.6281329045607369  0.4075733843043099
  0.9097636809874690  0.6281329045607369  0.4075733843043099
  0.9347636809874689  0.6281329045607369  0.4075733843043099
  0.9597636809874690  0.6281329045607369  0.4075733843043099
  0.9847636809874689  0.6281329045607369  0.4075733843043099
  0.0097636809874688  0.6531329045607368  0.4075733843043099
  0.0347636809874688  0.6531329045607368  0.4075733843043099
  0.0597636809874688  0.6531329045607368  0.4075733843043099
  0.0847636809874688  0.6531329045607368  0.4075733843043099
  0.1097636809874688  0.6531329045607368  0.4075733843043099
  0.1347636809874688  0.6531329045607368  0.4075733843043099
  0.1597636809874687  0.6531329045607368  0.4075733843043099
  0.1847636809874688  0.6531329045607368  0.4075733843043099
  0.2097636809874688  0.6531329045607368  0.4075733843043099
  0.2347636809874687  0.6531329045607368  0.4075733843043099
  0.2597636809874687  0.6531329045607368  0.4075733843043099
  0.2847636809874687  0.6531329045607368  0.4075733843043099
  0.3097636809874688  0.6531329045607368  0.4075733843043099
  0.3347636809874688  0.6531329045607368  0.4075733843043099
  0.3597636809874687  0.6531329045607368  0.4075733843043099
  0.3847636809874688  0.6531329045607368  0.4075733843043099
  0.4097636809874687  0.6531329045607368  0.4075733843043099
  0.4347636809874688  0.6531329045607368  0.4075733843043099
  0.4597636809874688  0.6531329045607368  0.4075733843043099
  0.4847636809874688  0.6531329045607368  0.4075733843043099
  0.5097636809874688  0.6531329045607368  0.4075733843043099
  0.5347636809874688  0.6531329045607368  0.4075733843043099
  0.5597636809874688  0.6531329045607368  0.4075733843043099
  0.5847636809874688  0.6531329045607368  0.4075733843043099
  0.6097636809874688  0.6531329045607368  0.4075733843043099
  0.6347636809874687  0.6531329045607368  0.4075733843043099
  0.6597636809874688  0.6531329045607368  0.4075733843043099
  0.6847636809874686  0.6531329045607368  0.4075733843043099
  0.7097636809874688  0.6531329045607368  0.4075733843043099
  0.7347636809874687  0.6531329045607368  0.4075733843043099
  0.7597636809874688  0.6531329045607368  0.4075733843043099
  0.7847636809874687  0.6531329045607368  0.4075733843043099
  0.8097636809874689  0.6531329045607368  0.4075733843043099
  0.8347636809874688  0.6531329045607368  0.4075733843043099
  0.8597636809874687  0.6531329045607368  0.4075733843043099
  0.8847636809874686  0.6531329045607368  0.4075733843043099
  0.9097636809874687  0.6531329045607368  0.4075733843043099
  0.9347636809874686  0.6531329045607368  0.4075733843043099
  0.9597636809874688  0.6531329045607368  0.4075733843043099
  0.9847636809874687  0.6531329045607368  0.4075733843043099
  0.0097636809874688  0.6781329045607367  0.4075733843043099
  0.0347636809874688  0.6781329045607367  0.4075733843043099
  0.0597636809874688  0.6781329045607367  0.4075733843043099
  0.0847636809874688  0.6781329045607367  0.4075733843043099
  0.1097636809874688  0.6781329045607367  0.4075733843043099
  0.1347636809874688  0.6781329045607367  0.4075733843043099
  0.1597636809874688  0.6781329045607367  0.4075733843043099
  0.1847636809874688  0.6781329045607367  0.4075733843043099
  0.2097636809874688  0.6781329045607367  0.4075733843043099
  0.2347636809874688  0.6781329045607367  0.4075733843043099
  0.2597636809874687  0.6781329045607367  0.4075733843043099
  0.2847636809874687  0.6781329045607367  0.4075733843043099
  0.3097636809874688  0.6781329045607367  0.4075733843043099
  0.3347636809874689  0.6781329045607367  0.4075733843043099
  0.3597636809874687  0.6781329045607367  0.4075733843043099
  0.3847636809874688  0.6781329045607367  0.4075733843043099
  0.4097636809874688  0.6781329045607367  0.4075733843043099
  0.4347636809874689  0.6781329045607367  0.4075733843043099
  0.4597636809874688  0.6781329045607367  0.4075733843043099
  0.4847636809874688  0.6781329045607367  0.4075733843043099
  0.5097636809874689  0.6781329045607367  0.4075733843043099
  0.5347636809874690  0.6781329045607367  0.4075733843043099
  0.5597636809874688  0.6781329045607367  0.4075733843043099
  0.5847636809874688  0.6781329045607367  0.4075733843043099
  0.6097636809874688  0.6781329045607367  0.4075733843043099
  0.6347636809874689  0.6781329045607367  0.4075733843043099
  0.6597636809874687  0.6781329045607367  0.4075733843043099
  0.6847636809874690  0.6781329045607367  0.4075733843043099
  0.7097636809874687  0.6781329045607367  0.4075733843043099
  0.7347636809874688  0.6781329045607367  0.4075733843043099
  0.7597636809874687  0.6781329045607367  0.4075733843043099
  0.7847636809874688  0.6781329045607367  0.4075733843043099
  0.8097636809874690  0.6781329045607367  0.4075733843043099
  0.8347636809874689  0.6781329045607367  0.4075733843043099
  0.8597636809874688  0.6781329045607367  0.4075733843043099
  0.8847636809874689  0.6781329045607367  0.4075733843043099
  0.9097636809874688  0.6781329045607367  0.4075733843043099
  0.9347636809874688  0.6781329045607367  0.4075733843043099
  0.9597636809874689  0.6781329045607367  0.4075733843043099
  0.9847636809874688  0.6781329045607367  0.4075733843043099
  0.0097636809874688  0.7031329045607367  0.4075733843043099
  0.0347636809874688  0.7031329045607367  0.4075733843043099
  0.0597636809874688  0.7031329045607367  0.4075733843043099
  0.0847636809874688  0.7031329045607367  0.4075733843043099
  0.1097636809874688  0.7031329045607367  0.4075733843043099
  0.1347636809874688  0.7031329045607367  0.4075733843043099
  0.1597636809874688  0.7031329045607367  0.4075733843043099
  0.1847636809874688  0.7031329045607367  0.4075733843043099
  0.2097636809874688  0.7031329045607367  0.4075733843043099
  0.2347636809874688  0.7031329045607367  0.4075733843043099
  0.2597636809874688  0.7031329045607367  0.4075733843043099
  0.2847636809874688  0.7031329045607367  0.4075733843043099
  0.3097636809874688  0.7031329045607367  0.4075733843043099
  0.3347636809874689  0.7031329045607367  0.4075733843043099
  0.3597636809874688  0.7031329045607367  0.4075733843043099
  0.3847636809874689  0.7031329045607367  0.4075733843043099
  0.4097636809874688  0.7031329045607367  0.4075733843043099
  0.4347636809874689  0.7031329045607367  0.4075733843043099
  0.4597636809874689  0.7031329045607367  0.4075733843043099
  0.4847636809874689  0.7031329045607367  0.4075733843043099
  0.5097636809874689  0.7031329045607367  0.4075733843043099
  0.5347636809874690  0.7031329045607367  0.4075733843043099
  0.5597636809874689  0.7031329045607367  0.4075733843043099
  0.5847636809874688  0.7031329045607367  0.4075733843043099
  0.6097636809874689  0.7031329045607367  0.4075733843043099
  0.6347636809874688  0.7031329045607367  0.4075733843043099
  0.6597636809874690  0.7031329045607367  0.4075733843043099
  0.6847636809874689  0.7031329045607367  0.4075733843043099
  0.7097636809874690  0.7031329045607367  0.4075733843043099
  0.7347636809874687  0.7031329045607367  0.4075733843043099
  0.7597636809874688  0.7031329045607367  0.4075733843043099
  0.7847636809874687  0.7031329045607367  0.4075733843043099
  0.8097636809874689  0.7031329045607367  0.4075733843043099
  0.8347636809874688  0.7031329045607367  0.4075733843043099
  0.8597636809874689  0.7031329045607367  0.4075733843043099
  0.8847636809874688  0.7031329045607367  0.4075733843043099
  0.9097636809874690  0.7031329045607367  0.4075733843043099
  0.9347636809874686  0.7031329045607367  0.4075733843043099
  0.9597636809874688  0.7031329045607367  0.4075733843043099
  0.9847636809874687  0.7031329045607367  0.4075733843043099
  0.0097636809874688  0.7281329045607368  0.4075733843043099
  0.0347636809874688  0.7281329045607368  0.4075733843043099
  0.0597636809874688  0.7281329045607368  0.4075733843043099
  0.0847636809874688  0.7281329045607368  0.4075733843043099
  0.1097636809874688  0.7281329045607368  0.4075733843043099
  0.1347636809874688  0.7281329045607368  0.4075733843043099
  0.1597636809874688  0.7281329045607368  0.4075733843043099
  0.1847636809874688  0.7281329045607368  0.4075733843043099
  0.2097636809874688  0.7281329045607368  0.4075733843043099
  0.2347636809874687  0.7281329045607368  0.4075733843043099
  0.2597636809874688  0.7281329045607368  0.4075733843043099
  0.2847636809874688  0.7281329045607368  0.4075733843043099
  0.3097636809874688  0.7281329045607368  0.4075733843043099
  0.3347636809874688  0.7281329045607368  0.4075733843043099
  0.3597636809874687  0.7281329045607368  0.4075733843043099
  0.3847636809874689  0.7281329045607368  0.4075733843043099
  0.4097636809874689  0.7281329045607368  0.4075733843043099
  0.4347636809874688  0.7281329045607368  0.4075733843043099
  0.4597636809874688  0.7281329045607368  0.4075733843043099
  0.4847636809874689  0.7281329045607368  0.4075733843043099
  0.5097636809874689  0.7281329045607368  0.4075733843043099
  0.5347636809874688  0.7281329045607368  0.4075733843043099
  0.5597636809874688  0.7281329045607368  0.4075733843043099
  0.5847636809874687  0.7281329045607368  0.4075733843043099
  0.6097636809874688  0.7281329045607368  0.4075733843043099
  0.6347636809874688  0.7281329045607368  0.4075733843043099
  0.6597636809874687  0.7281329045607368  0.4075733843043099
  0.6847636809874689  0.7281329045607368  0.4075733843043099
  0.7097636809874688  0.7281329045607368  0.4075733843043099
  0.7347636809874689  0.7281329045607368  0.4075733843043099
  0.7597636809874688  0.7281329045607368  0.4075733843043099
  0.7847636809874687  0.7281329045607368  0.4075733843043099
  0.8097636809874689  0.7281329045607368  0.4075733843043099
  0.8347636809874688  0.7281329045607368  0.4075733843043099
  0.8597636809874687  0.7281329045607368  0.4075733843043099
  0.8847636809874688  0.7281329045607368  0.4075733843043099
  0.9097636809874690  0.7281329045607368  0.4075733843043099
  0.9347636809874689  0.7281329045607368  0.4075733843043099
  0.9597636809874688  0.7281329045607368  0.4075733843043099
  0.9847636809874687  0.7281329045607368  0.4075733843043099
  0.0097636809874687  0.7531329045607369  0.4075733843043099
  0.0347636809874688  0.7531329045607369  0.4075733843043099
  0.0597636809874687  0.7531329045607369  0.4075733843043099
  0.0847636809874688  0.7531329045607369  0.4075733843043099
  0.1097636809874687  0.7531329045607369  0.4075733843043099
  0.1347636809874687  0.7531329045607369  0.4075733843043099
  0.1597636809874688  0.7531329045607369  0.4075733843043099
  0.1847636809874687  0.7531329045607369  0.4075733843043099
  0.2097636809874687  0.7531329045607369  0.4075733843043099
  0.2347636809874688  0.7531329045607369  0.4075733843043099
  0.2597636809874689  0.7531329045607369  0.4075733843043099
  0.2847636809874688  0.7531329045607369  0.4075733843043099
  0.3097636809874688  0.7531329045607369  0.4075733843043099
  0.3347636809874688  0.7531329045607369  0.4075733843043099
  0.3597636809874689  0.7531329045607369  0.4075733843043099
  0.3847636809874688  0.7531329045607369  0.4075733843043099
  0.4097636809874688  0.7531329045607369  0.4075733843043099
  0.4347636809874689  0.7531329045607369  0.4075733843043099
  0.4597636809874688  0.7531329045607369  0.4075733843043099
  0.4847636809874687  0.7531329045607369  0.4075733843043099
  0.5097636809874688  0.7531329045607369  0.4075733843043099
  0.5347636809874688  0.7531329045607369  0.4075733843043099
  0.5597636809874688  0.7531329045607369  0.4075733843043099
  0.5847636809874687  0.7531329045607369  0.4075733843043099
  0.6097636809874688  0.7531329045607369  0.4075733843043099
  0.6347636809874688  0.7531329045607369  0.4075733843043099
  0.6597636809874687  0.7531329045607369  0.4075733843043099
  0.6847636809874689  0.7531329045607369  0.4075733843043099
  0.7097636809874688  0.7531329045607369  0.4075733843043099
  0.7347636809874689  0.7531329045607369  0.4075733843043099
  0.7597636809874688  0.7531329045607369  0.4075733843043099
  0.7847636809874690  0.7531329045607369  0.4075733843043099
  0.8097636809874689  0.7531329045607369  0.4075733843043099
  0.8347636809874688  0.7531329045607369  0.4075733843043099
  0.8597636809874687  0.7531329045607369  0.4075733843043099
  0.8847636809874688  0.7531329045607369  0.4075733843043099
  0.9097636809874690  0.7531329045607369  0.4075733843043099
  0.9347636809874689  0.7531329045607369  0.4075733843043099
  0.9597636809874690  0.7531329045607369  0.4075733843043099
  0.9847636809874689  0.7531329045607369  0.4075733843043099
  0.0097636809874687  0.7781329045607369  0.4075733843043099
  0.0347636809874688  0.7781329045607369  0.4075733843043099
  0.0597636809874687  0.7781329045607369  0.4075733843043099
  0.0847636809874688  0.7781329045607369  0.4075733843043099
  0.1097636809874687  0.7781329045607369  0.4075733843043099
  0.1347636809874687  0.7781329045607369  0.4075733843043099
  0.1597636809874687  0.7781329045607369  0.4075733843043099
  0.1847636809874687  0.7781329045607369  0.4075733843043099
  0.2097636809874688  0.7781329045607369  0.4075733843043099
  0.2347636809874688  0.7781329045607369  0.4075733843043099
  0.2597636809874688  0.7781329045607369  0.4075733843043099
  0.2847636809874688  0.7781329045607369  0.4075733843043099
  0.3097636809874688  0.7781329045607369  0.4075733843043099
  0.3347636809874688  0.7781329045607369  0.4075733843043099
  0.3597636809874688  0.7781329045607369  0.4075733843043099
  0.3847636809874688  0.7781329045607369  0.4075733843043099
  0.4097636809874687  0.7781329045607369  0.4075733843043099
  0.4347636809874689  0.7781329045607369  0.4075733843043099
  0.4597636809874688  0.7781329045607369  0.4075733843043099
  0.4847636809874688  0.7781329045607369  0.4075733843043099
  0.5097636809874688  0.7781329045607369  0.4075733843043099
  0.5347636809874688  0.7781329045607369  0.4075733843043099
  0.5597636809874688  0.7781329045607369  0.4075733843043099
  0.5847636809874689  0.7781329045607369  0.4075733843043099
  0.6097636809874689  0.7781329045607369  0.4075733843043099
  0.6347636809874689  0.7781329045607369  0.4075733843043099
  0.6597636809874688  0.7781329045607369  0.4075733843043099
  0.6847636809874688  0.7781329045607369  0.4075733843043099
  0.7097636809874689  0.7781329045607369  0.4075733843043099
  0.7347636809874688  0.7781329045607369  0.4075733843043099
  0.7597636809874689  0.7781329045607369  0.4075733843043099
  0.7847636809874688  0.7781329045607369  0.4075733843043099
  0.8097636809874690  0.7781329045607369  0.4075733843043099
  0.8347636809874689  0.7781329045607369  0.4075733843043099
  0.8597636809874688  0.7781329045607369  0.4075733843043099
  0.8847636809874687  0.7781329045607369  0.4075733843043099
  0.9097636809874688  0.7781329045607369  0.4075733843043099
  0.9347636809874688  0.7781329045607369  0.4075733843043099
  0.9597636809874689  0.7781329045607369  0.4075733843043099
  0.9847636809874688  0.7781329045607369  0.4075733843043099
  0.0097636809874688  0.8031329045607369  0.4075733843043099
  0.0347636809874688  0.8031329045607369  0.4075733843043099
  0.0597636809874688  0.8031329045607369  0.4075733843043099
  0.0847636809874688  0.8031329045607369  0.4075733843043099
  0.1097636809874688  0.8031329045607369  0.4075733843043099
  0.1347636809874689  0.8031329045607369  0.4075733843043099
  0.1597636809874688  0.8031329045607369  0.4075733843043099
  0.1847636809874688  0.8031329045607369  0.4075733843043099
  0.2097636809874688  0.8031329045607369  0.4075733843043099
  0.2347636809874688  0.8031329045607369  0.4075733843043099
  0.2597636809874688  0.8031329045607369  0.4075733843043099
  0.2847636809874688  0.8031329045607369  0.4075733843043099
  0.3097636809874688  0.8031329045607369  0.4075733843043099
  0.3347636809874688  0.8031329045607369  0.4075733843043099
  0.3597636809874687  0.8031329045607369  0.4075733843043099
  0.3847636809874688  0.8031329045607369  0.4075733843043099
  0.4097636809874688  0.8031329045607369  0.4075733843043099
  0.4347636809874688  0.8031329045607369  0.4075733843043099
  0.4597636809874687  0.8031329045607369  0.4075733843043099
  0.4847636809874687  0.8031329045607369  0.4075733843043099
  0.5097636809874688  0.8031329045607369  0.4075733843043099
  0.5347636809874688  0.8031329045607369  0.4075733843043099
  0.5597636809874688  0.8031329045607369  0.4075733843043099
  0.5847636809874687  0.8031329045607369  0.4075733843043099
  0.6097636809874688  0.8031329045607369  0.4075733843043099
  0.6347636809874689  0.8031329045607369  0.4075733843043099
  0.6597636809874688  0.8031329045607369  0.4075733843043099
  0.6847636809874688  0.8031329045607369  0.4075733843043099
  0.7097636809874687  0.8031329045607369  0.4075733843043099
  0.7347636809874688  0.8031329045607369  0.4075733843043099
  0.7597636809874687  0.8031329045607369  0.4075733843043099
  0.7847636809874688  0.8031329045607369  0.4075733843043099
  0.8097636809874690  0.8031329045607369  0.4075733843043099
  0.8347636809874689  0.8031329045607369  0.4075733843043099
  0.8597636809874688  0.8031329045607369  0.4075733843043099
  0.8847636809874687  0.8031329045607369  0.4075733843043099
  0.9097636809874688  0.8031329045607369  0.4075733843043099
  0.9347636809874688  0.8031329045607369  0.4075733843043099
  0.9597636809874689  0.8031329045607369  0.4075733843043099
  0.9847636809874688  0.8031329045607369  0.4075733843043099
  0.0097636809874688  0.8281329045607370  0.4075733843043099
  0.0347636809874688  0.8281329045607370  0.4075733843043099
  0.0597636809874688  0.8281329045607370  0.4075733843043099
  0.0847636809874688  0.8281329045607370  0.4075733843043099
  0.1097636809874688  0.8281329045607370  0.4075733843043099
  0.1347636809874688  0.8281329045607370  0.4075733843043099
  0.1597636809874688  0.8281329045607370  0.4075733843043099
  0.1847636809874688  0.8281329045607370  0.4075733843043099
  0.2097636809874688  0.8281329045607370  0.4075733843043099
  0.2347636809874688  0.8281329045607370  0.4075733843043099
  0.2597636809874688  0.8281329045607370  0.4075733843043099
  0.2847636809874687  0.8281329045607370  0.4075733843043099
  0.3097636809874688  0.8281329045607370  0.4075733843043099
  0.3347636809874689  0.8281329045607370  0.4075733843043099
  0.3597636809874688  0.8281329045607370  0.4075733843043099
  0.3847636809874688  0.8281329045607370  0.4075733843043099
  0.4097636809874688  0.8281329045607370  0.4075733843043099
  0.4347636809874689  0.8281329045607370  0.4075733843043099
  0.4597636809874689  0.8281329045607370  0.4075733843043099
  0.4847636809874688  0.8281329045607370  0.4075733843043099
  0.5097636809874689  0.8281329045607370  0.4075733843043099
  0.5347636809874688  0.8281329045607370  0.4075733843043099
  0.5597636809874688  0.8281329045607370  0.4075733843043099
  0.5847636809874688  0.8281329045607370  0.4075733843043099
  0.6097636809874689  0.8281329045607370  0.4075733843043099
  0.6347636809874688  0.8281329045607370  0.4075733843043099
  0.6597636809874690  0.8281329045607370  0.4075733843043099
  0.6847636809874689  0.8281329045607370  0.4075733843043099
  0.7097636809874690  0.8281329045607370  0.4075733843043099
  0.7347636809874687  0.8281329045607370  0.4075733843043099
  0.7597636809874688  0.8281329045607370  0.4075733843043099
  0.7847636809874687  0.8281329045607370  0.4075733843043099
  0.8097636809874689  0.8281329045607370  0.4075733843043099
  0.8347636809874688  0.8281329045607370  0.4075733843043099
  0.8597636809874689  0.8281329045607370  0.4075733843043099
  0.8847636809874688  0.8281329045607370  0.4075733843043099
  0.9097636809874690  0.8281329045607370  0.4075733843043099
  0.9347636809874686  0.8281329045607370  0.4075733843043099
  0.9597636809874688  0.8281329045607370  0.4075733843043099
  0.9847636809874687  0.8281329045607370  0.4075733843043099
  0.0097636809874688  0.8531329045607369  0.4075733843043099
  0.0347636809874688  0.8531329045607369  0.4075733843043099
  0.0597636809874688  0.8531329045607369  0.4075733843043099
  0.0847636809874688  0.8531329045607369  0.4075733843043099
  0.1097636809874689  0.8531329045607369  0.4075733843043099
  0.1347636809874688  0.8531329045607369  0.4075733843043099
  0.1597636809874688  0.8531329045607369  0.4075733843043099
  0.1847636809874688  0.8531329045607369  0.4075733843043099
  0.2097636809874688  0.8531329045607369  0.4075733843043099
  0.2347636809874687  0.8531329045607369  0.4075733843043099
  0.2597636809874688  0.8531329045607369  0.4075733843043099
  0.2847636809874688  0.8531329045607369  0.4075733843043099
  0.3097636809874688  0.8531329045607369  0.4075733843043099
  0.3347636809874688  0.8531329045607369  0.4075733843043099
  0.3597636809874687  0.8531329045607369  0.4075733843043099
  0.3847636809874689  0.8531329045607369  0.4075733843043099
  0.4097636809874689  0.8531329045607369  0.4075733843043099
  0.4347636809874688  0.8531329045607369  0.4075733843043099
  0.4597636809874688  0.8531329045607369  0.4075733843043099
  0.4847636809874689  0.8531329045607369  0.4075733843043099
  0.5097636809874688  0.8531329045607369  0.4075733843043099
  0.5347636809874688  0.8531329045607369  0.4075733843043099
  0.5597636809874688  0.8531329045607369  0.4075733843043099
  0.5847636809874686  0.8531329045607369  0.4075733843043099
  0.6097636809874687  0.8531329045607369  0.4075733843043099
  0.6347636809874688  0.8531329045607369  0.4075733843043099
  0.6597636809874687  0.8531329045607369  0.4075733843043099
  0.6847636809874689  0.8531329045607369  0.4075733843043099
  0.7097636809874688  0.8531329045607369  0.4075733843043099
  0.7347636809874689  0.8531329045607369  0.4075733843043099
  0.7597636809874686  0.8531329045607369  0.4075733843043099
  0.7847636809874687  0.8531329045607369  0.4075733843043099
  0.8097636809874689  0.8531329045607369  0.4075733843043099
  0.8347636809874688  0.8531329045607369  0.4075733843043099
  0.8597636809874687  0.8531329045607369  0.4075733843043099
  0.8847636809874688  0.8531329045607369  0.4075733843043099
  0.9097636809874690  0.8531329045607369  0.4075733843043099
  0.9347636809874689  0.8531329045607369  0.4075733843043099
  0.9597636809874688  0.8531329045607369  0.4075733843043099
  0.9847636809874687  0.8531329045607369  0.4075733843043099
  0.0097636809874688  0.8781329045607369  0.4075733843043099
  0.0347636809874688  0.8781329045607369  0.4075733843043099
  0.0597636809874688  0.8781329045607369  0.4075733843043099
  0.0847636809874688  0.8781329045607369  0.4075733843043099
  0.1097636809874688  0.8781329045607369  0.4075733843043099
  0.1347636809874688  0.8781329045607369  0.4075733843043099
  0.1597636809874687  0.8781329045607369  0.4075733843043099
  0.1847636809874688  0.8781329045607369  0.4075733843043099
  0.2097636809874688  0.8781329045607369  0.4075733843043099
  0.2347636809874688  0.8781329045607369  0.4075733843043099
  0.2597636809874687  0.8781329045607369  0.4075733843043099
  0.2847636809874687  0.8781329045607369  0.4075733843043099
  0.3097636809874688  0.8781329045607369  0.4075733843043099
  0.3347636809874689  0.8781329045607369  0.4075733843043099
  0.3597636809874687  0.8781329045607369  0.4075733843043099
  0.3847636809874688  0.8781329045607369  0.4075733843043099
  0.4097636809874688  0.8781329045607369  0.4075733843043099
  0.4347636809874689  0.8781329045607369  0.4075733843043099
  0.4597636809874688  0.8781329045607369  0.4075733843043099
  0.4847636809874688  0.8781329045607369  0.4075733843043099
  0.5097636809874689  0.8781329045607369  0.4075733843043099
  0.5347636809874688  0.8781329045607369  0.4075733843043099
  0.5597636809874686  0.8781329045607369  0.4075733843043099
  0.5847636809874689  0.8781329045607369  0.4075733843043099
  0.6097636809874688  0.8781329045607369  0.4075733843043099
  0.6347636809874687  0.8781329045607369  0.4075733843043099
  0.6597636809874688  0.8781329045607369  0.4075733843043099
  0.6847636809874688  0.8781329045607369  0.4075733843043099
  0.7097636809874689  0.8781329045607369  0.4075733843043099
  0.7347636809874688  0.8781329045607369  0.4075733843043099
  0.7597636809874689  0.8781329045607369  0.4075733843043099
  0.7847636809874688  0.8781329045607369  0.4075733843043099
  0.8097636809874688  0.8781329045607369  0.4075733843043099
  0.8347636809874687  0.8781329045607369  0.4075733843043099
  0.8597636809874688  0.8781329045607369  0.4075733843043099
  0.8847636809874687  0.8781329045607369  0.4075733843043099
  0.9097636809874688  0.8781329045607369  0.4075733843043099
  0.9347636809874688  0.8781329045607369  0.4075733843043099
  0.9597636809874689  0.8781329045607369  0.4075733843043099
  0.9847636809874688  0.8781329045607369  0.4075733843043099
  0.0097636809874688  0.9031329045607368  0.4075733843043099
  0.0347636809874688  0.9031329045607368  0.4075733843043099
  0.0597636809874688  0.9031329045607368  0.4075733843043099
  0.0847636809874689  0.9031329045607368  0.4075733843043099
  0.1097636809874688  0.9031329045607368  0.4075733843043099
  0.1347636809874688  0.9031329045607368  0.4075733843043099
  0.1597636809874688  0.9031329045607368  0.4075733843043099
  0.1847636809874689  0.9031329045607368  0.4075733843043099
  0.2097636809874688  0.9031329045607368  0.4075733843043099
  0.2347636809874688  0.9031329045607368  0.4075733843043099
  0.2597636809874688  0.9031329045607368  0.4075733843043099
  0.2847636809874688  0.9031329045607368  0.4075733843043099
  0.3097636809874688  0.9031329045607368  0.4075733843043099
  0.3347636809874688  0.9031329045607368  0.4075733843043099
  0.3597636809874688  0.9031329045607368  0.4075733843043099
  0.3847636809874688  0.9031329045607368  0.4075733843043099
  0.4097636809874687  0.9031329045607368  0.4075733843043099
  0.4347636809874689  0.9031329045607368  0.4075733843043099
  0.4597636809874688  0.9031329045607368  0.4075733843043099
  0.4847636809874688  0.9031329045607368  0.4075733843043099
  0.5097636809874688  0.9031329045607368  0.4075733843043099
  0.5347636809874690  0.9031329045607368  0.4075733843043099
  0.5597636809874689  0.9031329045607368  0.4075733843043099
  0.5847636809874688  0.9031329045607368  0.4075733843043099
  0.6097636809874689  0.9031329045607368  0.4075733843043099
  0.6347636809874688  0.9031329045607368  0.4075733843043099
  0.6597636809874687  0.9031329045607368  0.4075733843043099
  0.6847636809874689  0.9031329045607368  0.4075733843043099
  0.7097636809874688  0.9031329045607368  0.4075733843043099
  0.7347636809874689  0.9031329045607368  0.4075733843043099
  0.7597636809874688  0.9031329045607368  0.4075733843043099
  0.7847636809874690  0.9031329045607368  0.4075733843043099
  0.8097636809874691  0.9031329045607368  0.4075733843043099
  0.8347636809874688  0.9031329045607368  0.4075733843043099
  0.8597636809874687  0.9031329045607368  0.4075733843043099
  0.8847636809874688  0.9031329045607368  0.4075733843043099
  0.9097636809874690  0.9031329045607368  0.4075733843043099
  0.9347636809874689  0.9031329045607368  0.4075733843043099
  0.9597636809874690  0.9031329045607368  0.4075733843043099
  0.9847636809874689  0.9031329045607368  0.4075733843043099
  0.0097636809874688  0.9281329045607369  0.4075733843043099
  0.0347636809874688  0.9281329045607369  0.4075733843043099
  0.0597636809874688  0.9281329045607369  0.4075733843043099
  0.0847636809874688  0.9281329045607369  0.4075733843043099
  0.1097636809874688  0.9281329045607369  0.4075733843043099
  0.1347636809874688  0.9281329045607369  0.4075733843043099
  0.1597636809874687  0.9281329045607369  0.4075733843043099
  0.1847636809874688  0.9281329045607369  0.4075733843043099
  0.2097636809874688  0.9281329045607369  0.4075733843043099
  0.2347636809874688  0.9281329045607369  0.4075733843043099
  0.2597636809874687  0.9281329045607369  0.4075733843043099
  0.2847636809874687  0.9281329045607369  0.4075733843043099
  0.3097636809874688  0.9281329045607369  0.4075733843043099
  0.3347636809874688  0.9281329045607369  0.4075733843043099
  0.3597636809874687  0.9281329045607369  0.4075733843043099
  0.3847636809874688  0.9281329045607369  0.4075733843043099
  0.4097636809874688  0.9281329045607369  0.4075733843043099
  0.4347636809874688  0.9281329045607369  0.4075733843043099
  0.4597636809874688  0.9281329045607369  0.4075733843043099
  0.4847636809874688  0.9281329045607369  0.4075733843043099
  0.5097636809874689  0.9281329045607369  0.4075733843043099
  0.5347636809874687  0.9281329045607369  0.4075733843043099
  0.5597636809874686  0.9281329045607369  0.4075733843043099
  0.5847636809874688  0.9281329045607369  0.4075733843043099
  0.6097636809874689  0.9281329045607369  0.4075733843043099
  0.6347636809874688  0.9281329045607369  0.4075733843043099
  0.6597636809874690  0.9281329045607369  0.4075733843043099
  0.6847636809874686  0.9281329045607369  0.4075733843043099
  0.7097636809874688  0.9281329045607369  0.4075733843043099
  0.7347636809874687  0.9281329045607369  0.4075733843043099
  0.7597636809874688  0.9281329045607369  0.4075733843043099
  0.7847636809874687  0.9281329045607369  0.4075733843043099
  0.8097636809874689  0.9281329045607369  0.4075733843043099
  0.8347636809874688  0.9281329045607369  0.4075733843043099
  0.8597636809874689  0.9281329045607369  0.4075733843043099
  0.8847636809874686  0.9281329045607369  0.4075733843043099
  0.9097636809874687  0.9281329045607369  0.4075733843043099
  0.9347636809874686  0.9281329045607369  0.4075733843043099
  0.9597636809874688  0.9281329045607369  0.4075733843043099
  0.9847636809874687  0.9281329045607369  0.4075733843043099
  0.0097636809874688  0.9531329045607370  0.4075733843043099
  0.0347636809874688  0.9531329045607370  0.4075733843043099
  0.0597636809874688  0.9531329045607370  0.4075733843043099
  0.0847636809874687  0.9531329045607370  0.4075733843043099
  0.1097636809874688  0.9531329045607370  0.4075733843043099
  0.1347636809874688  0.9531329045607370  0.4075733843043099
  0.1597636809874688  0.9531329045607370  0.4075733843043099
  0.1847636809874687  0.9531329045607370  0.4075733843043099
  0.2097636809874687  0.9531329045607370  0.4075733843043099
  0.2347636809874687  0.9531329045607370  0.4075733843043099
  0.2597636809874688  0.9531329045607370  0.4075733843043099
  0.2847636809874687  0.9531329045607370  0.4075733843043099
  0.3097636809874687  0.9531329045607370  0.4075733843043099
  0.3347636809874688  0.9531329045607370  0.4075733843043099
  0.3597636809874687  0.9531329045607370  0.4075733843043099
  0.3847636809874688  0.9531329045607370  0.4075733843043099
  0.4097636809874688  0.9531329045607370  0.4075733843043099
  0.4347636809874688  0.9531329045607370  0.4075733843043099
  0.4597636809874688  0.9531329045607370  0.4075733843043099
  0.4847636809874686  0.9531329045607370  0.4075733843043099
  0.5097636809874688  0.9531329045607370  0.4075733843043099
  0.5347636809874688  0.9531329045607370  0.4075733843043099
  0.5597636809874688  0.9531329045607370  0.4075733843043099
  0.5847636809874687  0.9531329045607370  0.4075733843043099
  0.6097636809874688  0.9531329045607370  0.4075733843043099
  0.6347636809874689  0.9531329045607370  0.4075733843043099
  0.6597636809874688  0.9531329045607370  0.4075733843043099
  0.6847636809874690  0.9531329045607370  0.4075733843043099
  0.7097636809874689  0.9531329045607370  0.4075733843043099
  0.7347636809874688  0.9531329045607370  0.4075733843043099
  0.7597636809874687  0.9531329045607370  0.4075733843043099
  0.7847636809874688  0.9531329045607370  0.4075733843043099
  0.8097636809874690  0.9531329045607370  0.4075733843043099
  0.8347636809874689  0.9531329045607370  0.4075733843043099
  0.8597636809874688  0.9531329045607370  0.4075733843043099
  0.8847636809874689  0.9531329045607370  0.4075733843043099
  0.9097636809874688  0.9531329045607370  0.4075733843043099
  0.9347636809874688  0.9531329045607370  0.4075733843043099
  0.9597636809874689  0.9531329045607370  0.4075733843043099
  0.9847636809874688  0.9531329045607370  0.4075733843043099
  0.0097636809874688  0.9781329045607370  0.4075733843043099
  0.0347636809874688  0.9781329045607370  0.4075733843043099
  0.0597636809874688  0.9781329045607370  0.4075733843043099
  0.0847636809874688  0.9781329045607370  0.4075733843043099
  0.1097636809874688  0.9781329045607370  0.4075733843043099
  0.1347636809874687  0.9781329045607370  0.4075733843043099
  0.1597636809874688  0.9781329045607370  0.4075733843043099
  0.1847636809874688  0.9781329045607370  0.4075733843043099
  0.2097636809874688  0.9781329045607370  0.4075733843043099
  0.2347636809874687  0.9781329045607370  0.4075733843043099
  0.2597636809874687  0.9781329045607370  0.4075733843043099
  0.2847636809874687  0.9781329045607370  0.4075733843043099
  0.3097636809874688  0.9781329045607370  0.4075733843043099
  0.3347636809874688  0.9781329045607370  0.4075733843043099
  0.3597636809874687  0.9781329045607370  0.4075733843043099
  0.3847636809874688  0.9781329045607370  0.4075733843043099
  0.4097636809874687  0.9781329045607370  0.4075733843043099
  0.4347636809874688  0.9781329045607370  0.4075733843043099
  0.4597636809874687  0.9781329045607370  0.4075733843043099
  0.4847636809874688  0.9781329045607370  0.4075733843043099
  0.5097636809874688  0.9781329045607370  0.4075733843043099
  0.5347636809874688  0.9781329045607370  0.4075733843043099
  0.5597636809874688  0.9781329045607370  0.4075733843043099
  0.5847636809874687  0.9781329045607370  0.4075733843043099
  0.6097636809874688  0.9781329045607370  0.4075733843043099
  0.6347636809874687  0.9781329045607370  0.4075733843043099
  0.6597636809874688  0.9781329045607370  0.4075733843043099
  0.6847636809874688  0.9781329045607370  0.4075733843043099
  0.7097636809874689  0.9781329045607370  0.4075733843043099
  0.7347636809874688  0.9781329045607370  0.4075733843043099
  0.7597636809874687  0.9781329045607370  0.4075733843043099
  0.7847636809874686  0.9781329045607370  0.4075733843043099
  0.8097636809874688  0.9781329045607370  0.4075733843043099
  0.8347636809874687  0.9781329045607370  0.4075733843043099
  0.8597636809874688  0.9781329045607370  0.4075733843043099
  0.8847636809874687  0.9781329045607370  0.4075733843043099
  0.9097636809874688  0.9781329045607370  0.4075733843043099
  0.9347636809874688  0.9781329045607370  0.4075733843043099
  0.9597636809874687  0.9781329045607370  0.4075733843043099
  0.9847636809874686  0.9781329045607370  0.4075733843043099
  0.0171022932455688  0.0134557238809730  0.3563998703220700
  0.0421022932455688  0.0134557238809730  0.3563998703220700
  0.0671022932455688  0.0134557238809730  0.3563998703220700
  0.0921022932455688  0.0134557238809730  0.3563998703220700
  0.1171022932455688  0.0134557238809730  0.3563998703220700
  0.1421022932455688  0.0134557238809730  0.3563998703220700
  0.1671022932455688  0.0134557238809730  0.3563998703220700
  0.1921022932455688  0.0134557238809730  0.3563998703220700
  0.2171022932455688  0.0134557238809730  0.3563998703220700
  0.2421022932455688  0.0134557238809730  0.3563998703220700
  0.2671022932455688  0.0134557238809730  0.3563998703220700
  0.2921022932455687  0.0134557238809730  0.3563998703220700
  0.3171022932455687  0.0134557238809730  0.3563998703220700
  0.3421022932455688  0.0134557238809730  0.3563998703220700
  0.3671022932455687  0.0134557238809730  0.3563998703220700
  0.3921022932455688  0.0134557238809730  0.3563998703220700
  0.4171022932455688  0.0134557238809730  0.3563998703220700
  0.4421022932455688  0.0134557238809730  0.3563998703220700
  0.4671022932455688  0.0134557238809730  0.3563998703220700
  0.4921022932455688  0.0134557238809730  0.3563998703220700
  0.5171022932455688  0.0134557238809730  0.3563998703220700
  0.5421022932455689  0.0134557238809730  0.3563998703220700
  0.5671022932455689  0.0134557238809730  0.3563998703220700
  0.5921022932455687  0.0134557238809730  0.3563998703220700
  0.6171022932455688  0.0134557238809730  0.3563998703220700
  0.6421022932455689  0.0134557238809730  0.3563998703220700
  0.6671022932455689  0.0134557238809730  0.3563998703220700
  0.6921022932455688  0.0134557238809730  0.3563998703220700
  0.7171022932455688  0.0134557238809730  0.3563998703220700
  0.7421022932455688  0.0134557238809730  0.3563998703220700
  0.7671022932455689  0.0134557238809730  0.3563998703220700
  0.7921022932455688  0.0134557238809730  0.3563998703220700
  0.8171022932455687  0.0134557238809730  0.3563998703220700
  0.8421022932455687  0.0134557238809730  0.3563998703220700
  0.8671022932455689  0.0134557238809730  0.3563998703220700
  0.8921022932455687  0.0134557238809730  0.3563998703220700
  0.9171022932455687  0.0134557238809730  0.3563998703220700
  0.9421022932455687  0.0134557238809730  0.3563998703220700
  0.9671022932455688  0.0134557238809730  0.3563998703220700
  0.9921022932455686  0.0134557238809730  0.3563998703220700
  0.0171022932455687  0.0384557238809730  0.3563998703220700
  0.0421022932455688  0.0384557238809730  0.3563998703220700
  0.0671022932455688  0.0384557238809730  0.3563998703220700
  0.0921022932455688  0.0384557238809730  0.3563998703220700
  0.1171022932455687  0.0384557238809730  0.3563998703220700
  0.1421022932455687  0.0384557238809730  0.3563998703220700
  0.1671022932455687  0.0384557238809730  0.3563998703220700
  0.1921022932455687  0.0384557238809730  0.3563998703220700
  0.2171022932455687  0.0384557238809730  0.3563998703220700
  0.2421022932455688  0.0384557238809730  0.3563998703220700
  0.2671022932455688  0.0384557238809730  0.3563998703220700
  0.2921022932455687  0.0384557238809730  0.3563998703220700
  0.3171022932455687  0.0384557238809730  0.3563998703220700
  0.3421022932455688  0.0384557238809730  0.3563998703220700
  0.3671022932455687  0.0384557238809730  0.3563998703220700
  0.3921022932455688  0.0384557238809730  0.3563998703220700
  0.4171022932455688  0.0384557238809730  0.3563998703220700
  0.4421022932455688  0.0384557238809730  0.3563998703220700
  0.4671022932455688  0.0384557238809730  0.3563998703220700
  0.4921022932455688  0.0384557238809730  0.3563998703220700
  0.5171022932455689  0.0384557238809730  0.3563998703220700
  0.5421022932455689  0.0384557238809730  0.3563998703220700
  0.5671022932455689  0.0384557238809730  0.3563998703220700
  0.5921022932455688  0.0384557238809730  0.3563998703220700
  0.6171022932455688  0.0384557238809730  0.3563998703220700
  0.6421022932455689  0.0384557238809730  0.3563998703220700
  0.6671022932455689  0.0384557238809730  0.3563998703220700
  0.6921022932455689  0.0384557238809730  0.3563998703220700
  0.7171022932455688  0.0384557238809730  0.3563998703220700
  0.7421022932455688  0.0384557238809730  0.3563998703220700
  0.7671022932455689  0.0384557238809730  0.3563998703220700
  0.7921022932455689  0.0384557238809730  0.3563998703220700
  0.8171022932455687  0.0384557238809730  0.3563998703220700
  0.8421022932455687  0.0384557238809730  0.3563998703220700
  0.8671022932455689  0.0384557238809730  0.3563998703220700
  0.8921022932455688  0.0384557238809730  0.3563998703220700
  0.9171022932455687  0.0384557238809730  0.3563998703220700
  0.9421022932455686  0.0384557238809730  0.3563998703220700
  0.9671022932455687  0.0384557238809730  0.3563998703220700
  0.9921022932455686  0.0384557238809730  0.3563998703220700
  0.0171022932455688  0.0634557238809730  0.3563998703220700
  0.0421022932455688  0.0634557238809730  0.3563998703220700
  0.0671022932455688  0.0634557238809730  0.3563998703220700
  0.0921022932455688  0.0634557238809730  0.3563998703220700
  0.1171022932455688  0.0634557238809730  0.3563998703220700
  0.1421022932455688  0.0634557238809730  0.3563998703220700
  0.1671022932455688  0.0634557238809730  0.3563998703220700
  0.1921022932455688  0.0634557238809730  0.3563998703220700
  0.2171022932455687  0.0634557238809730  0.3563998703220700
  0.2421022932455687  0.0634557238809730  0.3563998703220700
  0.2671022932455688  0.0634557238809730  0.3563998703220700
  0.2921022932455687  0.0634557238809730  0.3563998703220700
  0.3171022932455687  0.0634557238809730  0.3563998703220700
  0.3421022932455687  0.0634557238809730  0.3563998703220700
  0.3671022932455687  0.0634557238809730  0.3563998703220700
  0.3921022932455687  0.0634557238809730  0.3563998703220700
  0.4171022932455688  0.0634557238809730  0.3563998703220700
  0.4421022932455688  0.0634557238809730  0.3563998703220700
  0.4671022932455688  0.0634557238809730  0.3563998703220700
  0.4921022932455688  0.0634557238809730  0.3563998703220700
  0.5171022932455688  0.0634557238809730  0.3563998703220700
  0.5421022932455689  0.0634557238809730  0.3563998703220700
  0.5671022932455688  0.0634557238809730  0.3563998703220700
  0.5921022932455687  0.0634557238809730  0.3563998703220700
  0.6171022932455688  0.0634557238809730  0.3563998703220700
  0.6421022932455689  0.0634557238809730  0.3563998703220700
  0.6671022932455688  0.0634557238809730  0.3563998703220700
  0.6921022932455688  0.0634557238809730  0.3563998703220700
  0.7171022932455688  0.0634557238809730  0.3563998703220700
  0.7421022932455688  0.0634557238809730  0.3563998703220700
  0.7671022932455688  0.0634557238809730  0.3563998703220700
  0.7921022932455688  0.0634557238809730  0.3563998703220700
  0.8171022932455687  0.0634557238809730  0.3563998703220700
  0.8421022932455687  0.0634557238809730  0.3563998703220700
  0.8671022932455688  0.0634557238809730  0.3563998703220700
  0.8921022932455687  0.0634557238809730  0.3563998703220700
  0.9171022932455686  0.0634557238809730  0.3563998703220700
  0.9421022932455687  0.0634557238809730  0.3563998703220700
  0.9671022932455687  0.0634557238809730  0.3563998703220700
  0.9921022932455686  0.0634557238809730  0.3563998703220700
  0.0171022932455688  0.0884557238809730  0.3563998703220700
  0.0421022932455688  0.0884557238809730  0.3563998703220700
  0.0671022932455688  0.0884557238809730  0.3563998703220700
  0.0921022932455688  0.0884557238809730  0.3563998703220700
  0.1171022932455688  0.0884557238809730  0.3563998703220700
  0.1421022932455688  0.0884557238809730  0.3563998703220700
  0.1671022932455688  0.0884557238809730  0.3563998703220700
  0.1921022932455687  0.0884557238809730  0.3563998703220700
  0.2171022932455688  0.0884557238809730  0.3563998703220700
  0.2421022932455687  0.0884557238809730  0.3563998703220700
  0.2671022932455688  0.0884557238809730  0.3563998703220700
  0.2921022932455687  0.0884557238809730  0.3563998703220700
  0.3171022932455687  0.0884557238809730  0.3563998703220700
  0.3421022932455687  0.0884557238809730  0.3563998703220700
  0.3671022932455687  0.0884557238809730  0.3563998703220700
  0.3921022932455687  0.0884557238809730  0.3563998703220700
  0.4171022932455688  0.0884557238809730  0.3563998703220700
  0.4421022932455688  0.0884557238809730  0.3563998703220700
  0.4671022932455688  0.0884557238809730  0.3563998703220700
  0.4921022932455688  0.0884557238809730  0.3563998703220700
  0.5171022932455688  0.0884557238809730  0.3563998703220700
  0.5421022932455689  0.0884557238809730  0.3563998703220700
  0.5671022932455689  0.0884557238809730  0.3563998703220700
  0.5921022932455688  0.0884557238809730  0.3563998703220700
  0.6171022932455688  0.0884557238809730  0.3563998703220700
  0.6421022932455689  0.0884557238809730  0.3563998703220700
  0.6671022932455689  0.0884557238809730  0.3563998703220700
  0.6921022932455688  0.0884557238809730  0.3563998703220700
  0.7171022932455688  0.0884557238809730  0.3563998703220700
  0.7421022932455688  0.0884557238809730  0.3563998703220700
  0.7671022932455689  0.0884557238809730  0.3563998703220700
  0.7921022932455688  0.0884557238809730  0.3563998703220700
  0.8171022932455687  0.0884557238809730  0.3563998703220700
  0.8421022932455687  0.0884557238809730  0.3563998703220700
  0.8671022932455689  0.0884557238809730  0.3563998703220700
  0.8921022932455687  0.0884557238809730  0.3563998703220700
  0.9171022932455687  0.0884557238809730  0.3563998703220700
  0.9421022932455686  0.0884557238809730  0.3563998703220700
  0.9671022932455686  0.0884557238809730  0.3563998703220700
  0.9921022932455685  0.0884557238809730  0.3563998703220700
  0.0171022932455688  0.1134557238809730  0.3563998703220700
  0.0421022932455688  0.1134557238809730  0.3563998703220700
  0.0671022932455688  0.1134557238809730  0.3563998703220700
  0.0921022932455688  0.1134557238809730  0.3563998703220700
  0.1171022932455688  0.1134557238809730  0.3563998703220700
  0.1421022932455688  0.1134557238809730  0.3563998703220700
  0.1671022932455688  0.1134557238809730  0.3563998703220700
  0.1921022932455688  0.1134557238809730  0.3563998703220700
  0.2171022932455688  0.1134557238809730  0.3563998703220700
  0.2421022932455688  0.1134557238809730  0.3563998703220700
  0.2671022932455688  0.1134557238809730  0.3563998703220700
  0.2921022932455687  0.1134557238809730  0.3563998703220700
  0.3171022932455687  0.1134557238809730  0.3563998703220700
  0.3421022932455688  0.1134557238809730  0.3563998703220700
  0.3671022932455687  0.1134557238809730  0.3563998703220700
  0.3921022932455688  0.1134557238809730  0.3563998703220700
  0.4171022932455687  0.1134557238809730  0.3563998703220700
  0.4421022932455688  0.1134557238809730  0.3563998703220700
  0.4671022932455687  0.1134557238809730  0.3563998703220700
  0.4921022932455688  0.1134557238809730  0.3563998703220700
  0.5171022932455688  0.1134557238809730  0.3563998703220700
  0.5421022932455688  0.1134557238809730  0.3563998703220700
  0.5671022932455688  0.1134557238809730  0.3563998703220700
  0.5921022932455687  0.1134557238809730  0.3563998703220700
  0.6171022932455688  0.1134557238809730  0.3563998703220700
  0.6421022932455688  0.1134557238809730  0.3563998703220700
  0.6671022932455688  0.1134557238809730  0.3563998703220700
  0.6921022932455688  0.1134557238809730  0.3563998703220700
  0.7171022932455688  0.1134557238809730  0.3563998703220700
  0.7421022932455686  0.1134557238809730  0.3563998703220700
  0.7671022932455688  0.1134557238809730  0.3563998703220700
  0.7921022932455688  0.1134557238809730  0.3563998703220700
  0.8171022932455687  0.1134557238809730  0.3563998703220700
  0.8421022932455686  0.1134557238809730  0.3563998703220700
  0.8671022932455688  0.1134557238809730  0.3563998703220700
  0.8921022932455687  0.1134557238809730  0.3563998703220700
  0.9171022932455686  0.1134557238809730  0.3563998703220700
  0.9421022932455686  0.1134557238809730  0.3563998703220700
  0.9671022932455688  0.1134557238809730  0.3563998703220700
  0.9921022932455685  0.1134557238809730  0.3563998703220700
  0.0171022932455688  0.1384557238809730  0.3563998703220700
  0.0421022932455688  0.1384557238809730  0.3563998703220700
  0.0671022932455688  0.1384557238809730  0.3563998703220700
  0.0921022932455688  0.1384557238809730  0.3563998703220700
  0.1171022932455688  0.1384557238809730  0.3563998703220700
  0.1421022932455688  0.1384557238809730  0.3563998703220700
  0.1671022932455688  0.1384557238809730  0.3563998703220700
  0.1921022932455688  0.1384557238809730  0.3563998703220700
  0.2171022932455688  0.1384557238809730  0.3563998703220700
  0.2421022932455688  0.1384557238809730  0.3563998703220700
  0.2671022932455688  0.1384557238809730  0.3563998703220700
  0.2921022932455688  0.1384557238809730  0.3563998703220700
  0.3171022932455688  0.1384557238809730  0.3563998703220700
  0.3421022932455688  0.1384557238809730  0.3563998703220700
  0.3671022932455688  0.1384557238809730  0.3563998703220700
  0.3921022932455688  0.1384557238809730  0.3563998703220700
  0.4171022932455688  0.1384557238809730  0.3563998703220700
  0.4421022932455688  0.1384557238809730  0.3563998703220700
  0.4671022932455688  0.1384557238809730  0.3563998703220700
  0.4921022932455688  0.1384557238809730  0.3563998703220700
  0.5171022932455688  0.1384557238809730  0.3563998703220700
  0.5421022932455689  0.1384557238809730  0.3563998703220700
  0.5671022932455688  0.1384557238809730  0.3563998703220700
  0.5921022932455687  0.1384557238809730  0.3563998703220700
  0.6171022932455688  0.1384557238809730  0.3563998703220700
  0.6421022932455689  0.1384557238809730  0.3563998703220700
  0.6671022932455688  0.1384557238809730  0.3563998703220700
  0.6921022932455688  0.1384557238809730  0.3563998703220700
  0.7171022932455688  0.1384557238809730  0.3563998703220700
  0.7421022932455688  0.1384557238809730  0.3563998703220700
  0.7671022932455688  0.1384557238809730  0.3563998703220700
  0.7921022932455688  0.1384557238809730  0.3563998703220700
  0.8171022932455687  0.1384557238809730  0.3563998703220700
  0.8421022932455687  0.1384557238809730  0.3563998703220700
  0.8671022932455688  0.1384557238809730  0.3563998703220700
  0.8921022932455686  0.1384557238809730  0.3563998703220700
  0.9171022932455687  0.1384557238809730  0.3563998703220700
  0.9421022932455686  0.1384557238809730  0.3563998703220700
  0.9671022932455687  0.1384557238809730  0.3563998703220700
  0.9921022932455686  0.1384557238809730  0.3563998703220700
  0.0171022932455687  0.1634557238809730  0.3563998703220700
  0.0421022932455688  0.1634557238809730  0.3563998703220700
  0.0671022932455688  0.1634557238809730  0.3563998703220700
  0.0921022932455688  0.1634557238809730  0.3563998703220700
  0.1171022932455688  0.1634557238809730  0.3563998703220700
  0.1421022932455688  0.1634557238809730  0.3563998703220700
  0.1671022932455688  0.1634557238809730  0.3563998703220700
  0.1921022932455688  0.1634557238809730  0.3563998703220700
  0.2171022932455688  0.1634557238809730  0.3563998703220700
  0.2421022932455688  0.1634557238809730  0.3563998703220700
  0.2671022932455688  0.1634557238809730  0.3563998703220700
  0.2921022932455687  0.1634557238809730  0.3563998703220700
  0.3171022932455688  0.1634557238809730  0.3563998703220700
  0.3421022932455688  0.1634557238809730  0.3563998703220700
  0.3671022932455688  0.1634557238809730  0.3563998703220700
  0.3921022932455688  0.1634557238809730  0.3563998703220700
  0.4171022932455688  0.1634557238809730  0.3563998703220700
  0.4421022932455688  0.1634557238809730  0.3563998703220700
  0.4671022932455688  0.1634557238809730  0.3563998703220700
  0.4921022932455688  0.1634557238809730  0.3563998703220700
  0.5171022932455687  0.1634557238809730  0.3563998703220700
  0.5421022932455688  0.1634557238809730  0.3563998703220700
  0.5671022932455688  0.1634557238809730  0.3563998703220700
  0.5921022932455687  0.1634557238809730  0.3563998703220700
  0.6171022932455686  0.1634557238809730  0.3563998703220700
  0.6421022932455688  0.1634557238809730  0.3563998703220700
  0.6671022932455688  0.1634557238809730  0.3563998703220700
  0.6921022932455688  0.1634557238809730  0.3563998703220700
  0.7171022932455687  0.1634557238809730  0.3563998703220700
  0.7421022932455686  0.1634557238809730  0.3563998703220700
  0.7671022932455688  0.1634557238809730  0.3563998703220700
  0.7921022932455688  0.1634557238809730  0.3563998703220700
  0.8171022932455686  0.1634557238809730  0.3563998703220700
  0.8421022932455686  0.1634557238809730  0.3563998703220700
  0.8671022932455688  0.1634557238809730  0.3563998703220700
  0.8921022932455687  0.1634557238809730  0.3563998703220700
  0.9171022932455685  0.1634557238809730  0.3563998703220700
  0.9421022932455686  0.1634557238809730  0.3563998703220700
  0.9671022932455687  0.1634557238809730  0.3563998703220700
  0.9921022932455686  0.1634557238809730  0.3563998703220700
  0.0171022932455688  0.1884557238809730  0.3563998703220700
  0.0421022932455688  0.1884557238809730  0.3563998703220700
  0.0671022932455688  0.1884557238809730  0.3563998703220700
  0.0921022932455688  0.1884557238809730  0.3563998703220700
  0.1171022932455688  0.1884557238809730  0.3563998703220700
  0.1421022932455688  0.1884557238809730  0.3563998703220700
  0.1671022932455688  0.1884557238809730  0.3563998703220700
  0.1921022932455688  0.1884557238809730  0.3563998703220700
  0.2171022932455688  0.1884557238809730  0.3563998703220700
  0.2421022932455688  0.1884557238809730  0.3563998703220700
  0.2671022932455688  0.1884557238809730  0.3563998703220700
  0.2921022932455687  0.1884557238809730  0.3563998703220700
  0.3171022932455688  0.1884557238809730  0.3563998703220700
  0.3421022932455688  0.1884557238809730  0.3563998703220700
  0.3671022932455688  0.1884557238809730  0.3563998703220700
  0.3921022932455688  0.1884557238809730  0.3563998703220700
  0.4171022932455688  0.1884557238809730  0.3563998703220700
  0.4421022932455688  0.1884557238809730  0.3563998703220700
  0.4671022932455687  0.1884557238809730  0.3563998703220700
  0.4921022932455688  0.1884557238809730  0.3563998703220700
  0.5171022932455688  0.1884557238809730  0.3563998703220700
  0.5421022932455689  0.1884557238809730  0.3563998703220700
  0.5671022932455688  0.1884557238809730  0.3563998703220700
  0.5921022932455687  0.1884557238809730  0.3563998703220700
  0.6171022932455688  0.1884557238809730  0.3563998703220700
  0.6421022932455689  0.1884557238809730  0.3563998703220700
  0.6671022932455688  0.1884557238809730  0.3563998703220700
  0.6921022932455688  0.1884557238809730  0.3563998703220700
  0.7171022932455688  0.1884557238809730  0.3563998703220700
  0.7421022932455688  0.1884557238809730  0.3563998703220700
  0.7671022932455688  0.1884557238809730  0.3563998703220700
  0.7921022932455688  0.1884557238809730  0.3563998703220700
  0.8171022932455687  0.1884557238809730  0.3563998703220700
  0.8421022932455686  0.1884557238809730  0.3563998703220700
  0.8671022932455686  0.1884557238809730  0.3563998703220700
  0.8921022932455686  0.1884557238809730  0.3563998703220700
  0.9171022932455686  0.1884557238809730  0.3563998703220700
  0.9421022932455685  0.1884557238809730  0.3563998703220700
  0.9671022932455686  0.1884557238809730  0.3563998703220700
  0.9921022932455685  0.1884557238809730  0.3563998703220700
  0.0171022932455688  0.2134557238809730  0.3563998703220700
  0.0421022932455688  0.2134557238809730  0.3563998703220700
  0.0671022932455688  0.2134557238809730  0.3563998703220700
  0.0921022932455688  0.2134557238809730  0.3563998703220700
  0.1171022932455688  0.2134557238809730  0.3563998703220700
  0.1421022932455687  0.2134557238809730  0.3563998703220700
  0.1671022932455688  0.2134557238809730  0.3563998703220700
  0.1921022932455688  0.2134557238809730  0.3563998703220700
  0.2171022932455688  0.2134557238809730  0.3563998703220700
  0.2421022932455688  0.2134557238809730  0.3563998703220700
  0.2671022932455688  0.2134557238809730  0.3563998703220700
  0.2921022932455687  0.2134557238809730  0.3563998703220700
  0.3171022932455688  0.2134557238809730  0.3563998703220700
  0.3421022932455688  0.2134557238809730  0.3563998703220700
  0.3671022932455687  0.2134557238809730  0.3563998703220700
  0.3921022932455688  0.2134557238809730  0.3563998703220700
  0.4171022932455687  0.2134557238809730  0.3563998703220700
  0.4421022932455688  0.2134557238809730  0.3563998703220700
  0.4671022932455688  0.2134557238809730  0.3563998703220700
  0.4921022932455687  0.2134557238809730  0.3563998703220700
  0.5171022932455688  0.2134557238809730  0.3563998703220700
  0.5421022932455689  0.2134557238809730  0.3563998703220700
  0.5671022932455689  0.2134557238809730  0.3563998703220700
  0.5921022932455687  0.2134557238809730  0.3563998703220700
  0.6171022932455688  0.2134557238809730  0.3563998703220700
  0.6421022932455689  0.2134557238809730  0.3563998703220700
  0.6671022932455689  0.2134557238809730  0.3563998703220700
  0.6921022932455688  0.2134557238809730  0.3563998703220700
  0.7171022932455688  0.2134557238809730  0.3563998703220700
  0.7421022932455688  0.2134557238809730  0.3563998703220700
  0.7671022932455689  0.2134557238809730  0.3563998703220700
  0.7921022932455688  0.2134557238809730  0.3563998703220700
  0.8171022932455687  0.2134557238809730  0.3563998703220700
  0.8421022932455687  0.2134557238809730  0.3563998703220700
  0.8671022932455689  0.2134557238809730  0.3563998703220700
  0.8921022932455687  0.2134557238809730  0.3563998703220700
  0.9171022932455687  0.2134557238809730  0.3563998703220700
  0.9421022932455686  0.2134557238809730  0.3563998703220700
  0.9671022932455687  0.2134557238809730  0.3563998703220700
  0.9921022932455686  0.2134557238809730  0.3563998703220700
  0.0171022932455688  0.2384557238809730  0.3563998703220700
  0.0421022932455688  0.2384557238809730  0.3563998703220700
  0.0671022932455688  0.2384557238809730  0.3563998703220700
  0.0921022932455688  0.2384557238809730  0.3563998703220700
  0.1171022932455687  0.2384557238809730  0.3563998703220700
  0.1421022932455687  0.2384557238809730  0.3563998703220700
  0.1671022932455687  0.2384557238809730  0.3563998703220700
  0.1921022932455688  0.2384557238809730  0.3563998703220700
  0.2171022932455687  0.2384557238809730  0.3563998703220700
  0.2421022932455688  0.2384557238809730  0.3563998703220700
  0.2671022932455688  0.2384557238809730  0.3563998703220700
  0.2921022932455687  0.2384557238809730  0.3563998703220700
  0.3171022932455687  0.2384557238809730  0.3563998703220700
  0.3421022932455688  0.2384557238809730  0.3563998703220700
  0.3671022932455686  0.2384557238809730  0.3563998703220700
  0.3921022932455688  0.2384557238809730  0.3563998703220700
  0.4171022932455688  0.2384557238809730  0.3563998703220700
  0.4421022932455687  0.2384557238809730  0.3563998703220700
  0.4671022932455687  0.2384557238809730  0.3563998703220700
  0.4921022932455688  0.2384557238809730  0.3563998703220700
  0.5171022932455688  0.2384557238809730  0.3563998703220700
  0.5421022932455688  0.2384557238809730  0.3563998703220700
  0.5671022932455688  0.2384557238809730  0.3563998703220700
  0.5921022932455687  0.2384557238809730  0.3563998703220700
  0.6171022932455688  0.2384557238809730  0.3563998703220700
  0.6421022932455688  0.2384557238809730  0.3563998703220700
  0.6671022932455688  0.2384557238809730  0.3563998703220700
  0.6921022932455688  0.2384557238809730  0.3563998703220700
  0.7171022932455688  0.2384557238809730  0.3563998703220700
  0.7421022932455686  0.2384557238809730  0.3563998703220700
  0.7671022932455688  0.2384557238809730  0.3563998703220700
  0.7921022932455688  0.2384557238809730  0.3563998703220700
  0.8171022932455687  0.2384557238809730  0.3563998703220700
  0.8421022932455685  0.2384557238809730  0.3563998703220700
  0.8671022932455686  0.2384557238809730  0.3563998703220700
  0.8921022932455686  0.2384557238809730  0.3563998703220700
  0.9171022932455687  0.2384557238809730  0.3563998703220700
  0.9421022932455686  0.2384557238809730  0.3563998703220700
  0.9671022932455687  0.2384557238809730  0.3563998703220700
  0.9921022932455684  0.2384557238809730  0.3563998703220700
  0.0171022932455688  0.2634557238809730  0.3563998703220700
  0.0421022932455688  0.2634557238809730  0.3563998703220700
  0.0671022932455688  0.2634557238809730  0.3563998703220700
  0.0921022932455688  0.2634557238809730  0.3563998703220700
  0.1171022932455687  0.2634557238809730  0.3563998703220700
  0.1421022932455688  0.2634557238809730  0.3563998703220700
  0.1671022932455688  0.2634557238809730  0.3563998703220700
  0.1921022932455688  0.2634557238809730  0.3563998703220700
  0.2171022932455688  0.2634557238809730  0.3563998703220700
  0.2421022932455688  0.2634557238809730  0.3563998703220700
  0.2671022932455688  0.2634557238809730  0.3563998703220700
  0.2921022932455688  0.2634557238809730  0.3563998703220700
  0.3171022932455688  0.2634557238809730  0.3563998703220700
  0.3421022932455688  0.2634557238809730  0.3563998703220700
  0.3671022932455687  0.2634557238809730  0.3563998703220700
  0.3921022932455688  0.2634557238809730  0.3563998703220700
  0.4171022932455688  0.2634557238809730  0.3563998703220700
  0.4421022932455688  0.2634557238809730  0.3563998703220700
  0.4671022932455688  0.2634557238809730  0.3563998703220700
  0.4921022932455688  0.2634557238809730  0.3563998703220700
  0.5171022932455688  0.2634557238809730  0.3563998703220700
  0.5421022932455689  0.2634557238809730  0.3563998703220700
  0.5671022932455688  0.2634557238809730  0.3563998703220700
  0.5921022932455687  0.2634557238809730  0.3563998703220700
  0.6171022932455688  0.2634557238809730  0.3563998703220700
  0.6421022932455689  0.2634557238809730  0.3563998703220700
  0.6671022932455688  0.2634557238809730  0.3563998703220700
  0.6921022932455688  0.2634557238809730  0.3563998703220700
  0.7171022932455688  0.2634557238809730  0.3563998703220700
  0.7421022932455688  0.2634557238809730  0.3563998703220700
  0.7671022932455688  0.2634557238809730  0.3563998703220700
  0.7921022932455688  0.2634557238809730  0.3563998703220700
  0.8171022932455686  0.2634557238809730  0.3563998703220700
  0.8421022932455687  0.2634557238809730  0.3563998703220700
  0.8671022932455688  0.2634557238809730  0.3563998703220700
  0.8921022932455687  0.2634557238809730  0.3563998703220700
  0.9171022932455686  0.2634557238809730  0.3563998703220700
  0.9421022932455687  0.2634557238809730  0.3563998703220700
  0.9671022932455688  0.2634557238809730  0.3563998703220700
  0.9921022932455688  0.2634557238809730  0.3563998703220700
  0.0171022932455687  0.2884557238809730  0.3563998703220700
  0.0421022932455688  0.2884557238809730  0.3563998703220700
  0.0671022932455688  0.2884557238809730  0.3563998703220700
  0.0921022932455688  0.2884557238809730  0.3563998703220700
  0.1171022932455688  0.2884557238809730  0.3563998703220700
  0.1421022932455688  0.2884557238809730  0.3563998703220700
  0.1671022932455688  0.2884557238809730  0.3563998703220700
  0.1921022932455687  0.2884557238809730  0.3563998703220700
  0.2171022932455688  0.2884557238809730  0.3563998703220700
  0.2421022932455687  0.2884557238809730  0.3563998703220700
  0.2671022932455688  0.2884557238809730  0.3563998703220700
  0.2921022932455687  0.2884557238809730  0.3563998703220700
  0.3171022932455687  0.2884557238809730  0.3563998703220700
  0.3421022932455687  0.2884557238809730  0.3563998703220700
  0.3671022932455688  0.2884557238809730  0.3563998703220700
  0.3921022932455688  0.2884557238809730  0.3563998703220700
  0.4171022932455688  0.2884557238809730  0.3563998703220700
  0.4421022932455687  0.2884557238809730  0.3563998703220700
  0.4671022932455687  0.2884557238809730  0.3563998703220700
  0.4921022932455688  0.2884557238809730  0.3563998703220700
  0.5171022932455687  0.2884557238809730  0.3563998703220700
  0.5421022932455688  0.2884557238809730  0.3563998703220700
  0.5671022932455688  0.2884557238809730  0.3563998703220700
  0.5921022932455687  0.2884557238809730  0.3563998703220700
  0.6171022932455686  0.2884557238809730  0.3563998703220700
  0.6421022932455688  0.2884557238809730  0.3563998703220700
  0.6671022932455688  0.2884557238809730  0.3563998703220700
  0.6921022932455688  0.2884557238809730  0.3563998703220700
  0.7171022932455687  0.2884557238809730  0.3563998703220700
  0.7421022932455686  0.2884557238809730  0.3563998703220700
  0.7671022932455688  0.2884557238809730  0.3563998703220700
  0.7921022932455688  0.2884557238809730  0.3563998703220700
  0.8171022932455686  0.2884557238809730  0.3563998703220700
  0.8421022932455687  0.2884557238809730  0.3563998703220700
  0.8671022932455688  0.2884557238809730  0.3563998703220700
  0.8921022932455687  0.2884557238809730  0.3563998703220700
  0.9171022932455686  0.2884557238809730  0.3563998703220700
  0.9421022932455687  0.2884557238809730  0.3563998703220700
  0.9671022932455688  0.2884557238809730  0.3563998703220700
  0.9921022932455688  0.2884557238809730  0.3563998703220700
  0.0171022932455688  0.3134557238809730  0.3563998703220700
  0.0421022932455688  0.3134557238809730  0.3563998703220700
  0.0671022932455688  0.3134557238809730  0.3563998703220700
  0.0921022932455688  0.3134557238809730  0.3563998703220700
  0.1171022932455688  0.3134557238809730  0.3563998703220700
  0.1421022932455688  0.3134557238809730  0.3563998703220700
  0.1671022932455688  0.3134557238809730  0.3563998703220700
  0.1921022932455688  0.3134557238809730  0.3563998703220700
  0.2171022932455688  0.3134557238809730  0.3563998703220700
  0.2421022932455688  0.3134557238809730  0.3563998703220700
  0.2671022932455688  0.3134557238809730  0.3563998703220700
  0.2921022932455687  0.3134557238809730  0.3563998703220700
  0.3171022932455688  0.3134557238809730  0.3563998703220700
  0.3421022932455688  0.3134557238809730  0.3563998703220700
  0.3671022932455688  0.3134557238809730  0.3563998703220700
  0.3921022932455688  0.3134557238809730  0.3563998703220700
  0.4171022932455689  0.3134557238809730  0.3563998703220700
  0.4421022932455688  0.3134557238809730  0.3563998703220700
  0.4671022932455687  0.3134557238809730  0.3563998703220700
  0.4921022932455688  0.3134557238809730  0.3563998703220700
  0.5171022932455688  0.3134557238809730  0.3563998703220700
  0.5421022932455688  0.3134557238809730  0.3563998703220700
  0.5671022932455688  0.3134557238809730  0.3563998703220700
  0.5921022932455687  0.3134557238809730  0.3563998703220700
  0.6171022932455688  0.3134557238809730  0.3563998703220700
  0.6421022932455688  0.3134557238809730  0.3563998703220700
  0.6671022932455688  0.3134557238809730  0.3563998703220700
  0.6921022932455688  0.3134557238809730  0.3563998703220700
  0.7171022932455688  0.3134557238809730  0.3563998703220700
  0.7421022932455688  0.3134557238809730  0.3563998703220700
  0.7671022932455688  0.3134557238809730  0.3563998703220700
  0.7921022932455689  0.3134557238809730  0.3563998703220700
  0.8171022932455688  0.3134557238809730  0.3563998703220700
  0.8421022932455687  0.3134557238809730  0.3563998703220700
  0.8671022932455689  0.3134557238809730  0.3563998703220700
  0.8921022932455688  0.3134557238809730  0.3563998703220700
  0.9171022932455687  0.3134557238809730  0.3563998703220700
  0.9421022932455686  0.3134557238809730  0.3563998703220700
  0.9671022932455687  0.3134557238809730  0.3563998703220700
  0.9921022932455686  0.3134557238809730  0.3563998703220700
  0.0171022932455688  0.3384557238809730  0.3563998703220700
  0.0421022932455688  0.3384557238809730  0.3563998703220700
  0.0671022932455688  0.3384557238809730  0.3563998703220700
  0.0921022932455688  0.3384557238809730  0.3563998703220700
  0.1171022932455688  0.3384557238809730  0.3563998703220700
  0.1421022932455688  0.3384557238809730  0.3563998703220700
  0.1671022932455687  0.3384557238809730  0.3563998703220700
  0.1921022932455688  0.3384557238809730  0.3563998703220700
  0.2171022932455687  0.3384557238809730  0.3563998703220700
  0.2421022932455688  0.3384557238809730  0.3563998703220700
  0.2671022932455688  0.3384557238809730  0.3563998703220700
  0.2921022932455687  0.3384557238809730  0.3563998703220700
  0.3171022932455688  0.3384557238809730  0.3563998703220700
  0.3421022932455688  0.3384557238809730  0.3563998703220700
  0.3671022932455688  0.3384557238809730  0.3563998703220700
  0.3921022932455687  0.3384557238809730  0.3563998703220700
  0.4171022932455689  0.3384557238809730  0.3563998703220700
  0.4421022932455688  0.3384557238809730  0.3563998703220700
  0.4671022932455688  0.3384557238809730  0.3563998703220700
  0.4921022932455687  0.3384557238809730  0.3563998703220700
  0.5171022932455687  0.3384557238809730  0.3563998703220700
  0.5421022932455688  0.3384557238809730  0.3563998703220700
  0.5671022932455688  0.3384557238809730  0.3563998703220700
  0.5921022932455686  0.3384557238809730  0.3563998703220700
  0.6171022932455686  0.3384557238809730  0.3563998703220700
  0.6421022932455688  0.3384557238809730  0.3563998703220700
  0.6671022932455688  0.3384557238809730  0.3563998703220700
  0.6921022932455687  0.3384557238809730  0.3563998703220700
  0.7171022932455687  0.3384557238809730  0.3563998703220700
  0.7421022932455686  0.3384557238809730  0.3563998703220700
  0.7671022932455689  0.3384557238809730  0.3563998703220700
  0.7921022932455687  0.3384557238809730  0.3563998703220700
  0.8171022932455686  0.3384557238809730  0.3563998703220700
  0.8421022932455687  0.3384557238809730  0.3563998703220700
  0.8671022932455689  0.3384557238809730  0.3563998703220700
  0.8921022932455688  0.3384557238809730  0.3563998703220700
  0.9171022932455687  0.3384557238809730  0.3563998703220700
  0.9421022932455686  0.3384557238809730  0.3563998703220700
  0.9671022932455687  0.3384557238809730  0.3563998703220700
  0.9921022932455686  0.3384557238809730  0.3563998703220700
  0.0171022932455688  0.3634557238809730  0.3563998703220700
  0.0421022932455688  0.3634557238809730  0.3563998703220700
  0.0671022932455688  0.3634557238809730  0.3563998703220700
  0.0921022932455688  0.3634557238809730  0.3563998703220700
  0.1171022932455688  0.3634557238809730  0.3563998703220700
  0.1421022932455688  0.3634557238809730  0.3563998703220700
  0.1671022932455688  0.3634557238809730  0.3563998703220700
  0.1921022932455688  0.3634557238809730  0.3563998703220700
  0.2171022932455688  0.3634557238809730  0.3563998703220700
  0.2421022932455688  0.3634557238809730  0.3563998703220700
  0.2671022932455688  0.3634557238809730  0.3563998703220700
  0.2921022932455688  0.3634557238809730  0.3563998703220700
  0.3171022932455688  0.3634557238809730  0.3563998703220700
  0.3421022932455687  0.3634557238809730  0.3563998703220700
  0.3671022932455688  0.3634557238809730  0.3563998703220700
  0.3921022932455688  0.3634557238809730  0.3563998703220700
  0.4171022932455688  0.3634557238809730  0.3563998703220700
  0.4421022932455687  0.3634557238809730  0.3563998703220700
  0.4671022932455687  0.3634557238809730  0.3563998703220700
  0.4921022932455688  0.3634557238809730  0.3563998703220700
  0.5171022932455688  0.3634557238809730  0.3563998703220700
  0.5421022932455688  0.3634557238809730  0.3563998703220700
  0.5671022932455688  0.3634557238809730  0.3563998703220700
  0.5921022932455687  0.3634557238809730  0.3563998703220700
  0.6171022932455688  0.3634557238809730  0.3563998703220700
  0.6421022932455688  0.3634557238809730  0.3563998703220700
  0.6671022932455688  0.3634557238809730  0.3563998703220700
  0.6921022932455688  0.3634557238809730  0.3563998703220700
  0.7171022932455687  0.3634557238809730  0.3563998703220700
  0.7421022932455686  0.3634557238809730  0.3563998703220700
  0.7671022932455688  0.3634557238809730  0.3563998703220700
  0.7921022932455689  0.3634557238809730  0.3563998703220700
  0.8171022932455687  0.3634557238809730  0.3563998703220700
  0.8421022932455686  0.3634557238809730  0.3563998703220700
  0.8671022932455688  0.3634557238809730  0.3563998703220700
  0.8921022932455687  0.3634557238809730  0.3563998703220700
  0.9171022932455688  0.3634557238809730  0.3563998703220700
  0.9421022932455687  0.3634557238809730  0.3563998703220700
  0.9671022932455686  0.3634557238809730  0.3563998703220700
  0.9921022932455685  0.3634557238809730  0.3563998703220700
  0.0171022932455688  0.3884557238809730  0.3563998703220700
  0.0421022932455688  0.3884557238809730  0.3563998703220700
  0.0671022932455688  0.3884557238809730  0.3563998703220700
  0.0921022932455688  0.3884557238809730  0.3563998703220700
  0.1171022932455688  0.3884557238809730  0.3563998703220700
  0.1421022932455688  0.3884557238809730  0.3563998703220700
  0.1671022932455687  0.3884557238809730  0.3563998703220700
  0.1921022932455688  0.3884557238809730  0.3563998703220700
  0.2171022932455687  0.3884557238809730  0.3563998703220700
  0.2421022932455688  0.3884557238809730  0.3563998703220700
  0.2671022932455688  0.3884557238809730  0.3563998703220700
  0.2921022932455687  0.3884557238809730  0.3563998703220700
  0.3171022932455688  0.3884557238809730  0.3563998703220700
  0.3421022932455688  0.3884557238809730  0.3563998703220700
  0.3671022932455687  0.3884557238809730  0.3563998703220700
  0.3921022932455687  0.3884557238809730  0.3563998703220700
  0.4171022932455689  0.3884557238809730  0.3563998703220700
  0.4421022932455688  0.3884557238809730  0.3563998703220700
  0.4671022932455687  0.3884557238809730  0.3563998703220700
  0.4921022932455687  0.3884557238809730  0.3563998703220700
  0.5171022932455688  0.3884557238809730  0.3563998703220700
  0.5421022932455689  0.3884557238809730  0.3563998703220700
  0.5671022932455688  0.3884557238809730  0.3563998703220700
  0.5921022932455687  0.3884557238809730  0.3563998703220700
  0.6171022932455688  0.3884557238809730  0.3563998703220700
  0.6421022932455689  0.3884557238809730  0.3563998703220700
  0.6671022932455688  0.3884557238809730  0.3563998703220700
  0.6921022932455688  0.3884557238809730  0.3563998703220700
  0.7171022932455688  0.3884557238809730  0.3563998703220700
  0.7421022932455689  0.3884557238809730  0.3563998703220700
  0.7671022932455689  0.3884557238809730  0.3563998703220700
  0.7921022932455688  0.3884557238809730  0.3563998703220700
  0.8171022932455686  0.3884557238809730  0.3563998703220700
  0.8421022932455687  0.3884557238809730  0.3563998703220700
  0.8671022932455689  0.3884557238809730  0.3563998703220700
  0.8921022932455688  0.3884557238809730  0.3563998703220700
  0.9171022932455687  0.3884557238809730  0.3563998703220700
  0.9421022932455688  0.3884557238809730  0.3563998703220700
  0.9671022932455690  0.3884557238809730  0.3563998703220700
  0.9921022932455689  0.3884557238809730  0.3563998703220700
  0.0171022932455688  0.4134557238809731  0.3563998703220700
  0.0421022932455688  0.4134557238809731  0.3563998703220700
  0.0671022932455688  0.4134557238809731  0.3563998703220700
  0.0921022932455688  0.4134557238809731  0.3563998703220700
  0.1171022932455688  0.4134557238809731  0.3563998703220700
  0.1421022932455688  0.4134557238809731  0.3563998703220700
  0.1671022932455688  0.4134557238809731  0.3563998703220700
  0.1921022932455687  0.4134557238809731  0.3563998703220700
  0.2171022932455688  0.4134557238809731  0.3563998703220700
  0.2421022932455687  0.4134557238809731  0.3563998703220700
  0.2671022932455689  0.4134557238809731  0.3563998703220700
  0.2921022932455687  0.4134557238809731  0.3563998703220700
  0.3171022932455687  0.4134557238809731  0.3563998703220700
  0.3421022932455688  0.4134557238809731  0.3563998703220700
  0.3671022932455688  0.4134557238809731  0.3563998703220700
  0.3921022932455689  0.4134557238809731  0.3563998703220700
  0.4171022932455688  0.4134557238809731  0.3563998703220700
  0.4421022932455688  0.4134557238809731  0.3563998703220700
  0.4671022932455688  0.4134557238809731  0.3563998703220700
  0.4921022932455689  0.4134557238809731  0.3563998703220700
  0.5171022932455688  0.4134557238809731  0.3563998703220700
  0.5421022932455689  0.4134557238809731  0.3563998703220700
  0.5671022932455689  0.4134557238809731  0.3563998703220700
  0.5921022932455688  0.4134557238809731  0.3563998703220700
  0.6171022932455688  0.4134557238809731  0.3563998703220700
  0.6421022932455689  0.4134557238809731  0.3563998703220700
  0.6671022932455689  0.4134557238809731  0.3563998703220700
  0.6921022932455688  0.4134557238809731  0.3563998703220700
  0.7171022932455688  0.4134557238809731  0.3563998703220700
  0.7421022932455686  0.4134557238809731  0.3563998703220700
  0.7671022932455688  0.4134557238809731  0.3563998703220700
  0.7921022932455688  0.4134557238809731  0.3563998703220700
  0.8171022932455688  0.4134557238809731  0.3563998703220700
  0.8421022932455687  0.4134557238809731  0.3563998703220700
  0.8671022932455686  0.4134557238809731  0.3563998703220700
  0.8921022932455686  0.4134557238809731  0.3563998703220700
  0.9171022932455687  0.4134557238809731  0.3563998703220700
  0.9421022932455686  0.4134557238809731  0.3563998703220700
  0.9671022932455687  0.4134557238809731  0.3563998703220700
  0.9921022932455686  0.4134557238809731  0.3563998703220700
  0.0171022932455688  0.4384557238809730  0.3563998703220700
  0.0421022932455688  0.4384557238809730  0.3563998703220700
  0.0671022932455688  0.4384557238809730  0.3563998703220700
  0.0921022932455688  0.4384557238809730  0.3563998703220700
  0.1171022932455688  0.4384557238809730  0.3563998703220700
  0.1421022932455688  0.4384557238809730  0.3563998703220700
  0.1671022932455688  0.4384557238809730  0.3563998703220700
  0.1921022932455688  0.4384557238809730  0.3563998703220700
  0.2171022932455688  0.4384557238809730  0.3563998703220700
  0.2421022932455688  0.4384557238809730  0.3563998703220700
  0.2671022932455688  0.4384557238809730  0.3563998703220700
  0.2921022932455687  0.4384557238809730  0.3563998703220700
  0.3171022932455688  0.4384557238809730  0.3563998703220700
  0.3421022932455688  0.4384557238809730  0.3563998703220700
  0.3671022932455687  0.4384557238809730  0.3563998703220700
  0.3921022932455688  0.4384557238809730  0.3563998703220700
  0.4171022932455689  0.4384557238809730  0.3563998703220700
  0.4421022932455688  0.4384557238809730  0.3563998703220700
  0.4671022932455688  0.4384557238809730  0.3563998703220700
  0.4921022932455688  0.4384557238809730  0.3563998703220700
  0.5171022932455689  0.4384557238809730  0.3563998703220700
  0.5421022932455689  0.4384557238809730  0.3563998703220700
  0.5671022932455689  0.4384557238809730  0.3563998703220700
  0.5921022932455688  0.4384557238809730  0.3563998703220700
  0.6171022932455689  0.4384557238809730  0.3563998703220700
  0.6421022932455689  0.4384557238809730  0.3563998703220700
  0.6671022932455689  0.4384557238809730  0.3563998703220700
  0.6921022932455689  0.4384557238809730  0.3563998703220700
  0.7171022932455690  0.4384557238809730  0.3563998703220700
  0.7421022932455688  0.4384557238809730  0.3563998703220700
  0.7671022932455689  0.4384557238809730  0.3563998703220700
  0.7921022932455688  0.4384557238809730  0.3563998703220700
  0.8171022932455687  0.4384557238809730  0.3563998703220700
  0.8421022932455688  0.4384557238809730  0.3563998703220700
  0.8671022932455690  0.4384557238809730  0.3563998703220700
  0.8921022932455687  0.4384557238809730  0.3563998703220700
  0.9171022932455686  0.4384557238809730  0.3563998703220700
  0.9421022932455687  0.4384557238809730  0.3563998703220700
  0.9671022932455688  0.4384557238809730  0.3563998703220700
  0.9921022932455688  0.4384557238809730  0.3563998703220700
  0.0171022932455688  0.4634557238809731  0.3563998703220700
  0.0421022932455688  0.4634557238809731  0.3563998703220700
  0.0671022932455688  0.4634557238809731  0.3563998703220700
  0.0921022932455688  0.4634557238809731  0.3563998703220700
  0.1171022932455688  0.4634557238809731  0.3563998703220700
  0.1421022932455688  0.4634557238809731  0.3563998703220700
  0.1671022932455688  0.4634557238809731  0.3563998703220700
  0.1921022932455688  0.4634557238809731  0.3563998703220700
  0.2171022932455688  0.4634557238809731  0.3563998703220700
  0.2421022932455688  0.4634557238809731  0.3563998703220700
  0.2671022932455688  0.4634557238809731  0.3563998703220700
  0.2921022932455687  0.4634557238809731  0.3563998703220700
  0.3171022932455687  0.4634557238809731  0.3563998703220700
  0.3421022932455688  0.4634557238809731  0.3563998703220700
  0.3671022932455688  0.4634557238809731  0.3563998703220700
  0.3921022932455688  0.4634557238809731  0.3563998703220700
  0.4171022932455688  0.4634557238809731  0.3563998703220700
  0.4421022932455688  0.4634557238809731  0.3563998703220700
  0.4671022932455688  0.4634557238809731  0.3563998703220700
  0.4921022932455688  0.4634557238809731  0.3563998703220700
  0.5171022932455688  0.4634557238809731  0.3563998703220700
  0.5421022932455689  0.4634557238809731  0.3563998703220700
  0.5671022932455688  0.4634557238809731  0.3563998703220700
  0.5921022932455687  0.4634557238809731  0.3563998703220700
  0.6171022932455688  0.4634557238809731  0.3563998703220700
  0.6421022932455689  0.4634557238809731  0.3563998703220700
  0.6671022932455688  0.4634557238809731  0.3563998703220700
  0.6921022932455688  0.4634557238809731  0.3563998703220700
  0.7171022932455687  0.4634557238809731  0.3563998703220700
  0.7421022932455686  0.4634557238809731  0.3563998703220700
  0.7671022932455688  0.4634557238809731  0.3563998703220700
  0.7921022932455688  0.4634557238809731  0.3563998703220700
  0.8171022932455687  0.4634557238809731  0.3563998703220700
  0.8421022932455686  0.4634557238809731  0.3563998703220700
  0.8671022932455688  0.4634557238809731  0.3563998703220700
  0.8921022932455687  0.4634557238809731  0.3563998703220700
  0.9171022932455688  0.4634557238809731  0.3563998703220700
  0.9421022932455685  0.4634557238809731  0.3563998703220700
  0.9671022932455686  0.4634557238809731  0.3563998703220700
  0.9921022932455685  0.4634557238809731  0.3563998703220700
  0.0171022932455687  0.4884557238809731  0.3563998703220700
  0.0421022932455688  0.4884557238809731  0.3563998703220700
  0.0671022932455687  0.4884557238809731  0.3563998703220700
  0.0921022932455688  0.4884557238809731  0.3563998703220700
  0.1171022932455688  0.4884557238809731  0.3563998703220700
  0.1421022932455688  0.4884557238809731  0.3563998703220700
  0.1671022932455688  0.4884557238809731  0.3563998703220700
  0.1921022932455688  0.4884557238809731  0.3563998703220700
  0.2171022932455688  0.4884557238809731  0.3563998703220700
  0.2421022932455688  0.4884557238809731  0.3563998703220700
  0.2671022932455688  0.4884557238809731  0.3563998703220700
  0.2921022932455687  0.4884557238809731  0.3563998703220700
  0.3171022932455688  0.4884557238809731  0.3563998703220700
  0.3421022932455688  0.4884557238809731  0.3563998703220700
  0.3671022932455687  0.4884557238809731  0.3563998703220700
  0.3921022932455688  0.4884557238809731  0.3563998703220700
  0.4171022932455687  0.4884557238809731  0.3563998703220700
  0.4421022932455688  0.4884557238809731  0.3563998703220700
  0.4671022932455688  0.4884557238809731  0.3563998703220700
  0.4921022932455688  0.4884557238809731  0.3563998703220700
  0.5171022932455688  0.4884557238809731  0.3563998703220700
  0.5421022932455689  0.4884557238809731  0.3563998703220700
  0.5671022932455689  0.4884557238809731  0.3563998703220700
  0.5921022932455688  0.4884557238809731  0.3563998703220700
  0.6171022932455688  0.4884557238809731  0.3563998703220700
  0.6421022932455689  0.4884557238809731  0.3563998703220700
  0.6671022932455689  0.4884557238809731  0.3563998703220700
  0.6921022932455688  0.4884557238809731  0.3563998703220700
  0.7171022932455688  0.4884557238809731  0.3563998703220700
  0.7421022932455688  0.4884557238809731  0.3563998703220700
  0.7671022932455688  0.4884557238809731  0.3563998703220700
  0.7921022932455687  0.4884557238809731  0.3563998703220700
  0.8171022932455686  0.4884557238809731  0.3563998703220700
  0.8421022932455687  0.4884557238809731  0.3563998703220700
  0.8671022932455689  0.4884557238809731  0.3563998703220700
  0.8921022932455688  0.4884557238809731  0.3563998703220700
  0.9171022932455687  0.4884557238809731  0.3563998703220700
  0.9421022932455688  0.4884557238809731  0.3563998703220700
  0.9671022932455687  0.4884557238809731  0.3563998703220700
  0.9921022932455686  0.4884557238809731  0.3563998703220700
  0.0171022932455688  0.5134557238809730  0.3563998703220700
  0.0421022932455688  0.5134557238809730  0.3563998703220700
  0.0671022932455688  0.5134557238809730  0.3563998703220700
  0.0921022932455688  0.5134557238809730  0.3563998703220700
  0.1171022932455688  0.5134557238809730  0.3563998703220700
  0.1421022932455688  0.5134557238809730  0.3563998703220700
  0.1671022932455688  0.5134557238809730  0.3563998703220700
  0.1921022932455687  0.5134557238809730  0.3563998703220700
  0.2171022932455688  0.5134557238809730  0.3563998703220700
  0.2421022932455687  0.5134557238809730  0.3563998703220700
  0.2671022932455688  0.5134557238809730  0.3563998703220700
  0.2921022932455687  0.5134557238809730  0.3563998703220700
  0.3171022932455688  0.5134557238809730  0.3563998703220700
  0.3421022932455689  0.5134557238809730  0.3563998703220700
  0.3671022932455687  0.5134557238809730  0.3563998703220700
  0.3921022932455688  0.5134557238809730  0.3563998703220700
  0.4171022932455689  0.5134557238809730  0.3563998703220700
  0.4421022932455689  0.5134557238809730  0.3563998703220700
  0.4671022932455688  0.5134557238809730  0.3563998703220700
  0.4921022932455688  0.5134557238809730  0.3563998703220700
  0.5171022932455688  0.5134557238809730  0.3563998703220700
  0.5421022932455688  0.5134557238809730  0.3563998703220700
  0.5671022932455688  0.5134557238809730  0.3563998703220700
  0.5921022932455687  0.5134557238809730  0.3563998703220700
  0.6171022932455688  0.5134557238809730  0.3563998703220700
  0.6421022932455688  0.5134557238809730  0.3563998703220700
  0.6671022932455688  0.5134557238809730  0.3563998703220700
  0.6921022932455688  0.5134557238809730  0.3563998703220700
  0.7171022932455687  0.5134557238809730  0.3563998703220700
  0.7421022932455686  0.5134557238809730  0.3563998703220700
  0.7671022932455688  0.5134557238809730  0.3563998703220700
  0.7921022932455687  0.5134557238809730  0.3563998703220700
  0.8171022932455686  0.5134557238809730  0.3563998703220700
  0.8421022932455685  0.5134557238809730  0.3563998703220700
  0.8671022932455686  0.5134557238809730  0.3563998703220700
  0.8921022932455686  0.5134557238809730  0.3563998703220700
  0.9171022932455687  0.5134557238809730  0.3563998703220700
  0.9421022932455686  0.5134557238809730  0.3563998703220700
  0.9671022932455687  0.5134557238809730  0.3563998703220700
  0.9921022932455686  0.5134557238809730  0.3563998703220700
  0.0171022932455688  0.5384557238809731  0.3563998703220700
  0.0421022932455688  0.5384557238809731  0.3563998703220700
  0.0671022932455688  0.5384557238809731  0.3563998703220700
  0.0921022932455688  0.5384557238809731  0.3563998703220700
  0.1171022932455688  0.5384557238809731  0.3563998703220700
  0.1421022932455688  0.5384557238809731  0.3563998703220700
  0.1671022932455688  0.5384557238809731  0.3563998703220700
  0.1921022932455688  0.5384557238809731  0.3563998703220700
  0.2171022932455688  0.5384557238809731  0.3563998703220700
  0.2421022932455687  0.5384557238809731  0.3563998703220700
  0.2671022932455689  0.5384557238809731  0.3563998703220700
  0.2921022932455688  0.5384557238809731  0.3563998703220700
  0.3171022932455687  0.5384557238809731  0.3563998703220700
  0.3421022932455688  0.5384557238809731  0.3563998703220700
  0.3671022932455688  0.5384557238809731  0.3563998703220700
  0.3921022932455688  0.5384557238809731  0.3563998703220700
  0.4171022932455688  0.5384557238809731  0.3563998703220700
  0.4421022932455688  0.5384557238809731  0.3563998703220700
  0.4671022932455688  0.5384557238809731  0.3563998703220700
  0.4921022932455688  0.5384557238809731  0.3563998703220700
  0.5171022932455688  0.5384557238809731  0.3563998703220700
  0.5421022932455689  0.5384557238809731  0.3563998703220700
  0.5671022932455689  0.5384557238809731  0.3563998703220700
  0.5921022932455687  0.5384557238809731  0.3563998703220700
  0.6171022932455688  0.5384557238809731  0.3563998703220700
  0.6421022932455689  0.5384557238809731  0.3563998703220700
  0.6671022932455689  0.5384557238809731  0.3563998703220700
  0.6921022932455687  0.5384557238809731  0.3563998703220700
  0.7171022932455688  0.5384557238809731  0.3563998703220700
  0.7421022932455688  0.5384557238809731  0.3563998703220700
  0.7671022932455689  0.5384557238809731  0.3563998703220700
  0.7921022932455688  0.5384557238809731  0.3563998703220700
  0.8171022932455687  0.5384557238809731  0.3563998703220700
  0.8421022932455686  0.5384557238809731  0.3563998703220700
  0.8671022932455688  0.5384557238809731  0.3563998703220700
  0.8921022932455687  0.5384557238809731  0.3563998703220700
  0.9171022932455686  0.5384557238809731  0.3563998703220700
  0.9421022932455687  0.5384557238809731  0.3563998703220700
  0.9671022932455688  0.5384557238809731  0.3563998703220700
  0.9921022932455688  0.5384557238809731  0.3563998703220700
  0.0171022932455688  0.5634557238809731  0.3563998703220700
  0.0421022932455688  0.5634557238809731  0.3563998703220700
  0.0671022932455688  0.5634557238809731  0.3563998703220700
  0.0921022932455688  0.5634557238809731  0.3563998703220700
  0.1171022932455688  0.5634557238809731  0.3563998703220700
  0.1421022932455688  0.5634557238809731  0.3563998703220700
  0.1671022932455688  0.5634557238809731  0.3563998703220700
  0.1921022932455689  0.5634557238809731  0.3563998703220700
  0.2171022932455688  0.5634557238809731  0.3563998703220700
  0.2421022932455688  0.5634557238809731  0.3563998703220700
  0.2671022932455688  0.5634557238809731  0.3563998703220700
  0.2921022932455689  0.5634557238809731  0.3563998703220700
  0.3171022932455689  0.5634557238809731  0.3563998703220700
  0.3421022932455688  0.5634557238809731  0.3563998703220700
  0.3671022932455688  0.5634557238809731  0.3563998703220700
  0.3921022932455688  0.5634557238809731  0.3563998703220700
  0.4171022932455690  0.5634557238809731  0.3563998703220700
  0.4421022932455688  0.5634557238809731  0.3563998703220700
  0.4671022932455688  0.5634557238809731  0.3563998703220700
  0.4921022932455688  0.5634557238809731  0.3563998703220700
  0.5171022932455688  0.5634557238809731  0.3563998703220700
  0.5421022932455688  0.5634557238809731  0.3563998703220700
  0.5671022932455688  0.5634557238809731  0.3563998703220700
  0.5921022932455687  0.5634557238809731  0.3563998703220700
  0.6171022932455688  0.5634557238809731  0.3563998703220700
  0.6421022932455688  0.5634557238809731  0.3563998703220700
  0.6671022932455689  0.5634557238809731  0.3563998703220700
  0.6921022932455688  0.5634557238809731  0.3563998703220700
  0.7171022932455688  0.5634557238809731  0.3563998703220700
  0.7421022932455688  0.5634557238809731  0.3563998703220700
  0.7671022932455689  0.5634557238809731  0.3563998703220700
  0.7921022932455688  0.5634557238809731  0.3563998703220700
  0.8171022932455687  0.5634557238809731  0.3563998703220700
  0.8421022932455688  0.5634557238809731  0.3563998703220700
  0.8671022932455688  0.5634557238809731  0.3563998703220700
  0.8921022932455687  0.5634557238809731  0.3563998703220700
  0.9171022932455686  0.5634557238809731  0.3563998703220700
  0.9421022932455687  0.5634557238809731  0.3563998703220700
  0.9671022932455688  0.5634557238809731  0.3563998703220700
  0.9921022932455688  0.5634557238809731  0.3563998703220700
  0.0171022932455687  0.5884557238809730  0.3563998703220700
  0.0421022932455688  0.5884557238809730  0.3563998703220700
  0.0671022932455688  0.5884557238809730  0.3563998703220700
  0.0921022932455688  0.5884557238809730  0.3563998703220700
  0.1171022932455688  0.5884557238809730  0.3563998703220700
  0.1421022932455688  0.5884557238809730  0.3563998703220700
  0.1671022932455688  0.5884557238809730  0.3563998703220700
  0.1921022932455688  0.5884557238809730  0.3563998703220700
  0.2171022932455688  0.5884557238809730  0.3563998703220700
  0.2421022932455688  0.5884557238809730  0.3563998703220700
  0.2671022932455689  0.5884557238809730  0.3563998703220700
  0.2921022932455687  0.5884557238809730  0.3563998703220700
  0.3171022932455687  0.5884557238809730  0.3563998703220700
  0.3421022932455688  0.5884557238809730  0.3563998703220700
  0.3671022932455688  0.5884557238809730  0.3563998703220700
  0.3921022932455688  0.5884557238809730  0.3563998703220700
  0.4171022932455688  0.5884557238809730  0.3563998703220700
  0.4421022932455688  0.5884557238809730  0.3563998703220700
  0.4671022932455687  0.5884557238809730  0.3563998703220700
  0.4921022932455688  0.5884557238809730  0.3563998703220700
  0.5171022932455688  0.5884557238809730  0.3563998703220700
  0.5421022932455689  0.5884557238809730  0.3563998703220700
  0.5671022932455688  0.5884557238809730  0.3563998703220700
  0.5921022932455687  0.5884557238809730  0.3563998703220700
  0.6171022932455688  0.5884557238809730  0.3563998703220700
  0.6421022932455688  0.5884557238809730  0.3563998703220700
  0.6671022932455688  0.5884557238809730  0.3563998703220700
  0.6921022932455687  0.5884557238809730  0.3563998703220700
  0.7171022932455687  0.5884557238809730  0.3563998703220700
  0.7421022932455686  0.5884557238809730  0.3563998703220700
  0.7671022932455688  0.5884557238809730  0.3563998703220700
  0.7921022932455687  0.5884557238809730  0.3563998703220700
  0.8171022932455686  0.5884557238809730  0.3563998703220700
  0.8421022932455687  0.5884557238809730  0.3563998703220700
  0.8671022932455689  0.5884557238809730  0.3563998703220700
  0.8921022932455688  0.5884557238809730  0.3563998703220700
  0.9171022932455687  0.5884557238809730  0.3563998703220700
  0.9421022932455686  0.5884557238809730  0.3563998703220700
  0.9671022932455687  0.5884557238809730  0.3563998703220700
  0.9921022932455686  0.5884557238809730  0.3563998703220700
  0.0171022932455688  0.6134557238809731  0.3563998703220700
  0.0421022932455687  0.6134557238809731  0.3563998703220700
  0.0671022932455688  0.6134557238809731  0.3563998703220700
  0.0921022932455687  0.6134557238809731  0.3563998703220700
  0.1171022932455688  0.6134557238809731  0.3563998703220700
  0.1421022932455687  0.6134557238809731  0.3563998703220700
  0.1671022932455687  0.6134557238809731  0.3563998703220700
  0.1921022932455687  0.6134557238809731  0.3563998703220700
  0.2171022932455687  0.6134557238809731  0.3563998703220700
  0.2421022932455687  0.6134557238809731  0.3563998703220700
  0.2671022932455688  0.6134557238809731  0.3563998703220700
  0.2921022932455687  0.6134557238809731  0.3563998703220700
  0.3171022932455687  0.6134557238809731  0.3563998703220700
  0.3421022932455688  0.6134557238809731  0.3563998703220700
  0.3671022932455687  0.6134557238809731  0.3563998703220700
  0.3921022932455688  0.6134557238809731  0.3563998703220700
  0.4171022932455687  0.6134557238809731  0.3563998703220700
  0.4421022932455688  0.6134557238809731  0.3563998703220700
  0.4671022932455688  0.6134557238809731  0.3563998703220700
  0.4921022932455688  0.6134557238809731  0.3563998703220700
  0.5171022932455687  0.6134557238809731  0.3563998703220700
  0.5421022932455688  0.6134557238809731  0.3563998703220700
  0.5671022932455688  0.6134557238809731  0.3563998703220700
  0.5921022932455687  0.6134557238809731  0.3563998703220700
  0.6171022932455686  0.6134557238809731  0.3563998703220700
  0.6421022932455688  0.6134557238809731  0.3563998703220700
  0.6671022932455687  0.6134557238809731  0.3563998703220700
  0.6921022932455688  0.6134557238809731  0.3563998703220700
  0.7171022932455687  0.6134557238809731  0.3563998703220700
  0.7421022932455686  0.6134557238809731  0.3563998703220700
  0.7671022932455686  0.6134557238809731  0.3563998703220700
  0.7921022932455687  0.6134557238809731  0.3563998703220700
  0.8171022932455686  0.6134557238809731  0.3563998703220700
  0.8421022932455685  0.6134557238809731  0.3563998703220700
  0.8671022932455686  0.6134557238809731  0.3563998703220700
  0.8921022932455686  0.6134557238809731  0.3563998703220700
  0.9171022932455687  0.6134557238809731  0.3563998703220700
  0.9421022932455686  0.6134557238809731  0.3563998703220700
  0.9671022932455685  0.6134557238809731  0.3563998703220700
  0.9921022932455684  0.6134557238809731  0.3563998703220700
  0.0171022932455688  0.6384557238809732  0.3563998703220700
  0.0421022932455687  0.6384557238809732  0.3563998703220700
  0.0671022932455688  0.6384557238809732  0.3563998703220700
  0.0921022932455687  0.6384557238809732  0.3563998703220700
  0.1171022932455688  0.6384557238809732  0.3563998703220700
  0.1421022932455687  0.6384557238809732  0.3563998703220700
  0.1671022932455687  0.6384557238809732  0.3563998703220700
  0.1921022932455687  0.6384557238809732  0.3563998703220700
  0.2171022932455687  0.6384557238809732  0.3563998703220700
  0.2421022932455688  0.6384557238809732  0.3563998703220700
  0.2671022932455688  0.6384557238809732  0.3563998703220700
  0.2921022932455687  0.6384557238809732  0.3563998703220700
  0.3171022932455687  0.6384557238809732  0.3563998703220700
  0.3421022932455688  0.6384557238809732  0.3563998703220700
  0.3671022932455686  0.6384557238809732  0.3563998703220700
  0.3921022932455688  0.6384557238809732  0.3563998703220700
  0.4171022932455688  0.6384557238809732  0.3563998703220700
  0.4421022932455688  0.6384557238809732  0.3563998703220700
  0.4671022932455687  0.6384557238809732  0.3563998703220700
  0.4921022932455688  0.6384557238809732  0.3563998703220700
  0.5171022932455688  0.6384557238809732  0.3563998703220700
  0.5421022932455688  0.6384557238809732  0.3563998703220700
  0.5671022932455688  0.6384557238809732  0.3563998703220700
  0.5921022932455687  0.6384557238809732  0.3563998703220700
  0.6171022932455686  0.6384557238809732  0.3563998703220700
  0.6421022932455688  0.6384557238809732  0.3563998703220700
  0.6671022932455688  0.6384557238809732  0.3563998703220700
  0.6921022932455687  0.6384557238809732  0.3563998703220700
  0.7171022932455688  0.6384557238809732  0.3563998703220700
  0.7421022932455688  0.6384557238809732  0.3563998703220700
  0.7671022932455689  0.6384557238809732  0.3563998703220700
  0.7921022932455686  0.6384557238809732  0.3563998703220700
  0.8171022932455685  0.6384557238809732  0.3563998703220700
  0.8421022932455686  0.6384557238809732  0.3563998703220700
  0.8671022932455688  0.6384557238809732  0.3563998703220700
  0.8921022932455687  0.6384557238809732  0.3563998703220700
  0.9171022932455686  0.6384557238809732  0.3563998703220700
  0.9421022932455687  0.6384557238809732  0.3563998703220700
  0.9671022932455688  0.6384557238809732  0.3563998703220700
  0.9921022932455685  0.6384557238809732  0.3563998703220700
  0.0171022932455688  0.6634557238809731  0.3563998703220700
  0.0421022932455688  0.6634557238809731  0.3563998703220700
  0.0671022932455688  0.6634557238809731  0.3563998703220700
  0.0921022932455688  0.6634557238809731  0.3563998703220700
  0.1171022932455688  0.6634557238809731  0.3563998703220700
  0.1421022932455687  0.6634557238809731  0.3563998703220700
  0.1671022932455688  0.6634557238809731  0.3563998703220700
  0.1921022932455688  0.6634557238809731  0.3563998703220700
  0.2171022932455688  0.6634557238809731  0.3563998703220700
  0.2421022932455688  0.6634557238809731  0.3563998703220700
  0.2671022932455688  0.6634557238809731  0.3563998703220700
  0.2921022932455687  0.6634557238809731  0.3563998703220700
  0.3171022932455688  0.6634557238809731  0.3563998703220700
  0.3421022932455688  0.6634557238809731  0.3563998703220700
  0.3671022932455688  0.6634557238809731  0.3563998703220700
  0.3921022932455687  0.6634557238809731  0.3563998703220700
  0.4171022932455689  0.6634557238809731  0.3563998703220700
  0.4421022932455688  0.6634557238809731  0.3563998703220700
  0.4671022932455688  0.6634557238809731  0.3563998703220700
  0.4921022932455687  0.6634557238809731  0.3563998703220700
  0.5171022932455688  0.6634557238809731  0.3563998703220700
  0.5421022932455689  0.6634557238809731  0.3563998703220700
  0.5671022932455689  0.6634557238809731  0.3563998703220700
  0.5921022932455687  0.6634557238809731  0.3563998703220700
  0.6171022932455688  0.6634557238809731  0.3563998703220700
  0.6421022932455689  0.6634557238809731  0.3563998703220700
  0.6671022932455689  0.6634557238809731  0.3563998703220700
  0.6921022932455688  0.6634557238809731  0.3563998703220700
  0.7171022932455690  0.6634557238809731  0.3563998703220700
  0.7421022932455689  0.6634557238809731  0.3563998703220700
  0.7671022932455690  0.6634557238809731  0.3563998703220700
  0.7921022932455689  0.6634557238809731  0.3563998703220700
  0.8171022932455688  0.6634557238809731  0.3563998703220700
  0.8421022932455687  0.6634557238809731  0.3563998703220700
  0.8671022932455689  0.6634557238809731  0.3563998703220700
  0.8921022932455688  0.6634557238809731  0.3563998703220700
  0.9171022932455687  0.6634557238809731  0.3563998703220700
  0.9421022932455688  0.6634557238809731  0.3563998703220700
  0.9671022932455690  0.6634557238809731  0.3563998703220700
  0.9921022932455689  0.6634557238809731  0.3563998703220700
  0.0171022932455688  0.6884557238809731  0.3563998703220700
  0.0421022932455688  0.6884557238809731  0.3563998703220700
  0.0671022932455688  0.6884557238809731  0.3563998703220700
  0.0921022932455688  0.6884557238809731  0.3563998703220700
  0.1171022932455688  0.6884557238809731  0.3563998703220700
  0.1421022932455688  0.6884557238809731  0.3563998703220700
  0.1671022932455688  0.6884557238809731  0.3563998703220700
  0.1921022932455688  0.6884557238809731  0.3563998703220700
  0.2171022932455688  0.6884557238809731  0.3563998703220700
  0.2421022932455688  0.6884557238809731  0.3563998703220700
  0.2671022932455688  0.6884557238809731  0.3563998703220700
  0.2921022932455688  0.6884557238809731  0.3563998703220700
  0.3171022932455688  0.6884557238809731  0.3563998703220700
  0.3421022932455687  0.6884557238809731  0.3563998703220700
  0.3671022932455688  0.6884557238809731  0.3563998703220700
  0.3921022932455688  0.6884557238809731  0.3563998703220700
  0.4171022932455688  0.6884557238809731  0.3563998703220700
  0.4421022932455687  0.6884557238809731  0.3563998703220700
  0.4671022932455687  0.6884557238809731  0.3563998703220700
  0.4921022932455688  0.6884557238809731  0.3563998703220700
  0.5171022932455688  0.6884557238809731  0.3563998703220700
  0.5421022932455688  0.6884557238809731  0.3563998703220700
  0.5671022932455688  0.6884557238809731  0.3563998703220700
  0.5921022932455687  0.6884557238809731  0.3563998703220700
  0.6171022932455688  0.6884557238809731  0.3563998703220700
  0.6421022932455689  0.6884557238809731  0.3563998703220700
  0.6671022932455687  0.6884557238809731  0.3563998703220700
  0.6921022932455688  0.6884557238809731  0.3563998703220700
  0.7171022932455687  0.6884557238809731  0.3563998703220700
  0.7421022932455686  0.6884557238809731  0.3563998703220700
  0.7671022932455688  0.6884557238809731  0.3563998703220700
  0.7921022932455689  0.6884557238809731  0.3563998703220700
  0.8171022932455688  0.6884557238809731  0.3563998703220700
  0.8421022932455687  0.6884557238809731  0.3563998703220700
  0.8671022932455686  0.6884557238809731  0.3563998703220700
  0.8921022932455686  0.6884557238809731  0.3563998703220700
  0.9171022932455687  0.6884557238809731  0.3563998703220700
  0.9421022932455686  0.6884557238809731  0.3563998703220700
  0.9671022932455687  0.6884557238809731  0.3563998703220700
  0.9921022932455686  0.6884557238809731  0.3563998703220700
  0.0171022932455688  0.7134557238809731  0.3563998703220700
  0.0421022932455688  0.7134557238809731  0.3563998703220700
  0.0671022932455688  0.7134557238809731  0.3563998703220700
  0.0921022932455687  0.7134557238809731  0.3563998703220700
  0.1171022932455688  0.7134557238809731  0.3563998703220700
  0.1421022932455688  0.7134557238809731  0.3563998703220700
  0.1671022932455688  0.7134557238809731  0.3563998703220700
  0.1921022932455688  0.7134557238809731  0.3563998703220700
  0.2171022932455688  0.7134557238809731  0.3563998703220700
  0.2421022932455688  0.7134557238809731  0.3563998703220700
  0.2671022932455687  0.7134557238809731  0.3563998703220700
  0.2921022932455687  0.7134557238809731  0.3563998703220700
  0.3171022932455688  0.7134557238809731  0.3563998703220700
  0.3421022932455688  0.7134557238809731  0.3563998703220700
  0.3671022932455687  0.7134557238809731  0.3563998703220700
  0.3921022932455687  0.7134557238809731  0.3563998703220700
  0.4171022932455689  0.7134557238809731  0.3563998703220700
  0.4421022932455688  0.7134557238809731  0.3563998703220700
  0.4671022932455687  0.7134557238809731  0.3563998703220700
  0.4921022932455687  0.7134557238809731  0.3563998703220700
  0.5171022932455688  0.7134557238809731  0.3563998703220700
  0.5421022932455689  0.7134557238809731  0.3563998703220700
  0.5671022932455688  0.7134557238809731  0.3563998703220700
  0.5921022932455688  0.7134557238809731  0.3563998703220700
  0.6171022932455688  0.7134557238809731  0.3563998703220700
  0.6421022932455689  0.7134557238809731  0.3563998703220700
  0.6671022932455690  0.7134557238809731  0.3563998703220700
  0.6921022932455689  0.7134557238809731  0.3563998703220700
  0.7171022932455688  0.7134557238809731  0.3563998703220700
  0.7421022932455688  0.7134557238809731  0.3563998703220700
  0.7671022932455689  0.7134557238809731  0.3563998703220700
  0.7921022932455688  0.7134557238809731  0.3563998703220700
  0.8171022932455687  0.7134557238809731  0.3563998703220700
  0.8421022932455688  0.7134557238809731  0.3563998703220700
  0.8671022932455690  0.7134557238809731  0.3563998703220700
  0.8921022932455689  0.7134557238809731  0.3563998703220700
  0.9171022932455686  0.7134557238809731  0.3563998703220700
  0.9421022932455687  0.7134557238809731  0.3563998703220700
  0.9671022932455688  0.7134557238809731  0.3563998703220700
  0.9921022932455688  0.7134557238809731  0.3563998703220700
  0.0171022932455688  0.7384557238809730  0.3563998703220700
  0.0421022932455688  0.7384557238809730  0.3563998703220700
  0.0671022932455688  0.7384557238809730  0.3563998703220700
  0.0921022932455688  0.7384557238809730  0.3563998703220700
  0.1171022932455688  0.7384557238809730  0.3563998703220700
  0.1421022932455688  0.7384557238809730  0.3563998703220700
  0.1671022932455689  0.7384557238809730  0.3563998703220700
  0.1921022932455689  0.7384557238809730  0.3563998703220700
  0.2171022932455688  0.7384557238809730  0.3563998703220700
  0.2421022932455688  0.7384557238809730  0.3563998703220700
  0.2671022932455689  0.7384557238809730  0.3563998703220700
  0.2921022932455689  0.7384557238809730  0.3563998703220700
  0.3171022932455688  0.7384557238809730  0.3563998703220700
  0.3421022932455688  0.7384557238809730  0.3563998703220700
  0.3671022932455689  0.7384557238809730  0.3563998703220700
  0.3921022932455689  0.7384557238809730  0.3563998703220700
  0.4171022932455689  0.7384557238809730  0.3563998703220700
  0.4421022932455688  0.7384557238809730  0.3563998703220700
  0.4671022932455688  0.7384557238809730  0.3563998703220700
  0.4921022932455689  0.7384557238809730  0.3563998703220700
  0.5171022932455688  0.7384557238809730  0.3563998703220700
  0.5421022932455689  0.7384557238809730  0.3563998703220700
  0.5671022932455689  0.7384557238809730  0.3563998703220700
  0.5921022932455688  0.7384557238809730  0.3563998703220700
  0.6171022932455689  0.7384557238809730  0.3563998703220700
  0.6421022932455690  0.7384557238809730  0.3563998703220700
  0.6671022932455689  0.7384557238809730  0.3563998703220700
  0.6921022932455690  0.7384557238809730  0.3563998703220700
  0.7171022932455690  0.7384557238809730  0.3563998703220700
  0.7421022932455689  0.7384557238809730  0.3563998703220700
  0.7671022932455688  0.7384557238809730  0.3563998703220700
  0.7921022932455689  0.7384557238809730  0.3563998703220700
  0.8171022932455688  0.7384557238809730  0.3563998703220700
  0.8421022932455687  0.7384557238809730  0.3563998703220700
  0.8671022932455689  0.7384557238809730  0.3563998703220700
  0.8921022932455688  0.7384557238809730  0.3563998703220700
  0.9171022932455689  0.7384557238809730  0.3563998703220700
  0.9421022932455688  0.7384557238809730  0.3563998703220700
  0.9671022932455687  0.7384557238809730  0.3563998703220700
  0.9921022932455686  0.7384557238809730  0.3563998703220700
  0.0171022932455688  0.7634557238809730  0.3563998703220700
  0.0421022932455688  0.7634557238809730  0.3563998703220700
  0.0671022932455689  0.7634557238809730  0.3563998703220700
  0.0921022932455688  0.7634557238809730  0.3563998703220700
  0.1171022932455688  0.7634557238809730  0.3563998703220700
  0.1421022932455688  0.7634557238809730  0.3563998703220700
  0.1671022932455688  0.7634557238809730  0.3563998703220700
  0.1921022932455689  0.7634557238809730  0.3563998703220700
  0.2171022932455689  0.7634557238809730  0.3563998703220700
  0.2421022932455688  0.7634557238809730  0.3563998703220700
  0.2671022932455688  0.7634557238809730  0.3563998703220700
  0.2921022932455689  0.7634557238809730  0.3563998703220700
  0.3171022932455689  0.7634557238809730  0.3563998703220700
  0.3421022932455688  0.7634557238809730  0.3563998703220700
  0.3671022932455688  0.7634557238809730  0.3563998703220700
  0.3921022932455688  0.7634557238809730  0.3563998703220700
  0.4171022932455690  0.7634557238809730  0.3563998703220700
  0.4421022932455688  0.7634557238809730  0.3563998703220700
  0.4671022932455688  0.7634557238809730  0.3563998703220700
  0.4921022932455688  0.7634557238809730  0.3563998703220700
  0.5171022932455688  0.7634557238809730  0.3563998703220700
  0.5421022932455688  0.7634557238809730  0.3563998703220700
  0.5671022932455689  0.7634557238809730  0.3563998703220700
  0.5921022932455688  0.7634557238809730  0.3563998703220700
  0.6171022932455688  0.7634557238809730  0.3563998703220700
  0.6421022932455688  0.7634557238809730  0.3563998703220700
  0.6671022932455689  0.7634557238809730  0.3563998703220700
  0.6921022932455688  0.7634557238809730  0.3563998703220700
  0.7171022932455690  0.7634557238809730  0.3563998703220700
  0.7421022932455689  0.7634557238809730  0.3563998703220700
  0.7671022932455690  0.7634557238809730  0.3563998703220700
  0.7921022932455687  0.7634557238809730  0.3563998703220700
  0.8171022932455686  0.7634557238809730  0.3563998703220700
  0.8421022932455687  0.7634557238809730  0.3563998703220700
  0.8671022932455689  0.7634557238809730  0.3563998703220700
  0.8921022932455688  0.7634557238809730  0.3563998703220700
  0.9171022932455687  0.7634557238809730  0.3563998703220700
  0.9421022932455688  0.7634557238809730  0.3563998703220700
  0.9671022932455690  0.7634557238809730  0.3563998703220700
  0.9921022932455686  0.7634557238809730  0.3563998703220700
  0.0171022932455688  0.7884557238809732  0.3563998703220700
  0.0421022932455688  0.7884557238809732  0.3563998703220700
  0.0671022932455687  0.7884557238809732  0.3563998703220700
  0.0921022932455688  0.7884557238809732  0.3563998703220700
  0.1171022932455688  0.7884557238809732  0.3563998703220700
  0.1421022932455688  0.7884557238809732  0.3563998703220700
  0.1671022932455688  0.7884557238809732  0.3563998703220700
  0.1921022932455687  0.7884557238809732  0.3563998703220700
  0.2171022932455688  0.7884557238809732  0.3563998703220700
  0.2421022932455688  0.7884557238809732  0.3563998703220700
  0.2671022932455688  0.7884557238809732  0.3563998703220700
  0.2921022932455687  0.7884557238809732  0.3563998703220700
  0.3171022932455688  0.7884557238809732  0.3563998703220700
  0.3421022932455688  0.7884557238809732  0.3563998703220700
  0.3671022932455688  0.7884557238809732  0.3563998703220700
  0.3921022932455687  0.7884557238809732  0.3563998703220700
  0.4171022932455689  0.7884557238809732  0.3563998703220700
  0.4421022932455688  0.7884557238809732  0.3563998703220700
  0.4671022932455688  0.7884557238809732  0.3563998703220700
  0.4921022932455687  0.7884557238809732  0.3563998703220700
  0.5171022932455687  0.7884557238809732  0.3563998703220700
  0.5421022932455689  0.7884557238809732  0.3563998703220700
  0.5671022932455688  0.7884557238809732  0.3563998703220700
  0.5921022932455686  0.7884557238809732  0.3563998703220700
  0.6171022932455689  0.7884557238809732  0.3563998703220700
  0.6421022932455688  0.7884557238809732  0.3563998703220700
  0.6671022932455687  0.7884557238809732  0.3563998703220700
  0.6921022932455688  0.7884557238809732  0.3563998703220700
  0.7171022932455687  0.7884557238809732  0.3563998703220700
  0.7421022932455686  0.7884557238809732  0.3563998703220700
  0.7671022932455688  0.7884557238809732  0.3563998703220700
  0.7921022932455689  0.7884557238809732  0.3563998703220700
  0.8171022932455688  0.7884557238809732  0.3563998703220700
  0.8421022932455685  0.7884557238809732  0.3563998703220700
  0.8671022932455686  0.7884557238809732  0.3563998703220700
  0.8921022932455686  0.7884557238809732  0.3563998703220700
  0.9171022932455687  0.7884557238809732  0.3563998703220700
  0.9421022932455686  0.7884557238809732  0.3563998703220700
  0.9671022932455687  0.7884557238809732  0.3563998703220700
  0.9921022932455686  0.7884557238809732  0.3563998703220700
  0.0171022932455688  0.8134557238809732  0.3563998703220700
  0.0421022932455688  0.8134557238809732  0.3563998703220700
  0.0671022932455688  0.8134557238809732  0.3563998703220700
  0.0921022932455688  0.8134557238809732  0.3563998703220700
  0.1171022932455689  0.8134557238809732  0.3563998703220700
  0.1421022932455688  0.8134557238809732  0.3563998703220700
  0.1671022932455688  0.8134557238809732  0.3563998703220700
  0.1921022932455688  0.8134557238809732  0.3563998703220700
  0.2171022932455688  0.8134557238809732  0.3563998703220700
  0.2421022932455687  0.8134557238809732  0.3563998703220700
  0.2671022932455689  0.8134557238809732  0.3563998703220700
  0.2921022932455688  0.8134557238809732  0.3563998703220700
  0.3171022932455687  0.8134557238809732  0.3563998703220700
  0.3421022932455688  0.8134557238809732  0.3563998703220700
  0.3671022932455688  0.8134557238809732  0.3563998703220700
  0.3921022932455689  0.8134557238809732  0.3563998703220700
  0.4171022932455688  0.8134557238809732  0.3563998703220700
  0.4421022932455688  0.8134557238809732  0.3563998703220700
  0.4671022932455688  0.8134557238809732  0.3563998703220700
  0.4921022932455689  0.8134557238809732  0.3563998703220700
  0.5171022932455688  0.8134557238809732  0.3563998703220700
  0.5421022932455688  0.8134557238809732  0.3563998703220700
  0.5671022932455689  0.8134557238809732  0.3563998703220700
  0.5921022932455688  0.8134557238809732  0.3563998703220700
  0.6171022932455688  0.8134557238809732  0.3563998703220700
  0.6421022932455689  0.8134557238809732  0.3563998703220700
  0.6671022932455688  0.8134557238809732  0.3563998703220700
  0.6921022932455687  0.8134557238809732  0.3563998703220700
  0.7171022932455688  0.8134557238809732  0.3563998703220700
  0.7421022932455688  0.8134557238809732  0.3563998703220700
  0.7671022932455689  0.8134557238809732  0.3563998703220700
  0.7921022932455688  0.8134557238809732  0.3563998703220700
  0.8171022932455687  0.8134557238809732  0.3563998703220700
  0.8421022932455688  0.8134557238809732  0.3563998703220700
  0.8671022932455688  0.8134557238809732  0.3563998703220700
  0.8921022932455687  0.8134557238809732  0.3563998703220700
  0.9171022932455686  0.8134557238809732  0.3563998703220700
  0.9421022932455687  0.8134557238809732  0.3563998703220700
  0.9671022932455688  0.8134557238809732  0.3563998703220700
  0.9921022932455688  0.8134557238809732  0.3563998703220700
  0.0171022932455688  0.8384557238809732  0.3563998703220700
  0.0421022932455688  0.8384557238809732  0.3563998703220700
  0.0671022932455688  0.8384557238809732  0.3563998703220700
  0.0921022932455688  0.8384557238809732  0.3563998703220700
  0.1171022932455688  0.8384557238809732  0.3563998703220700
  0.1421022932455688  0.8384557238809732  0.3563998703220700
  0.1671022932455687  0.8384557238809732  0.3563998703220700
  0.1921022932455688  0.8384557238809732  0.3563998703220700
  0.2171022932455688  0.8384557238809732  0.3563998703220700
  0.2421022932455688  0.8384557238809732  0.3563998703220700
  0.2671022932455688  0.8384557238809732  0.3563998703220700
  0.2921022932455687  0.8384557238809732  0.3563998703220700
  0.3171022932455688  0.8384557238809732  0.3563998703220700
  0.3421022932455689  0.8384557238809732  0.3563998703220700
  0.3671022932455687  0.8384557238809732  0.3563998703220700
  0.3921022932455688  0.8384557238809732  0.3563998703220700
  0.4171022932455689  0.8384557238809732  0.3563998703220700
  0.4421022932455689  0.8384557238809732  0.3563998703220700
  0.4671022932455688  0.8384557238809732  0.3563998703220700
  0.4921022932455688  0.8384557238809732  0.3563998703220700
  0.5171022932455688  0.8384557238809732  0.3563998703220700
  0.5421022932455688  0.8384557238809732  0.3563998703220700
  0.5671022932455687  0.8384557238809732  0.3563998703220700
  0.5921022932455686  0.8384557238809732  0.3563998703220700
  0.6171022932455688  0.8384557238809732  0.3563998703220700
  0.6421022932455689  0.8384557238809732  0.3563998703220700
  0.6671022932455688  0.8384557238809732  0.3563998703220700
  0.6921022932455687  0.8384557238809732  0.3563998703220700
  0.7171022932455686  0.8384557238809732  0.3563998703220700
  0.7421022932455685  0.8384557238809732  0.3563998703220700
  0.7671022932455687  0.8384557238809732  0.3563998703220700
  0.7921022932455688  0.8384557238809732  0.3563998703220700
  0.8171022932455687  0.8384557238809732  0.3563998703220700
  0.8421022932455686  0.8384557238809732  0.3563998703220700
  0.8671022932455688  0.8384557238809732  0.3563998703220700
  0.8921022932455687  0.8384557238809732  0.3563998703220700
  0.9171022932455686  0.8384557238809732  0.3563998703220700
  0.9421022932455685  0.8384557238809732  0.3563998703220700
  0.9671022932455686  0.8384557238809732  0.3563998703220700
  0.9921022932455685  0.8384557238809732  0.3563998703220700
  0.0171022932455688  0.8634557238809730  0.3563998703220700
  0.0421022932455687  0.8634557238809730  0.3563998703220700
  0.0671022932455688  0.8634557238809730  0.3563998703220700
  0.0921022932455689  0.8634557238809730  0.3563998703220700
  0.1171022932455688  0.8634557238809730  0.3563998703220700
  0.1421022932455688  0.8634557238809730  0.3563998703220700
  0.1671022932455689  0.8634557238809730  0.3563998703220700
  0.1921022932455689  0.8634557238809730  0.3563998703220700
  0.2171022932455688  0.8634557238809730  0.3563998703220700
  0.2421022932455688  0.8634557238809730  0.3563998703220700
  0.2671022932455688  0.8634557238809730  0.3563998703220700
  0.2921022932455689  0.8634557238809730  0.3563998703220700
  0.3171022932455688  0.8634557238809730  0.3563998703220700
  0.3421022932455688  0.8634557238809730  0.3563998703220700
  0.3671022932455688  0.8634557238809730  0.3563998703220700
  0.3921022932455688  0.8634557238809730  0.3563998703220700
  0.4171022932455689  0.8634557238809730  0.3563998703220700
  0.4421022932455688  0.8634557238809730  0.3563998703220700
  0.4671022932455688  0.8634557238809730  0.3563998703220700
  0.4921022932455688  0.8634557238809730  0.3563998703220700
  0.5171022932455688  0.8634557238809730  0.3563998703220700
  0.5421022932455689  0.8634557238809730  0.3563998703220700
  0.5671022932455690  0.8634557238809730  0.3563998703220700
  0.5921022932455688  0.8634557238809730  0.3563998703220700
  0.6171022932455688  0.8634557238809730  0.3563998703220700
  0.6421022932455689  0.8634557238809730  0.3563998703220700
  0.6671022932455690  0.8634557238809730  0.3563998703220700
  0.6921022932455689  0.8634557238809730  0.3563998703220700
  0.7171022932455691  0.8634557238809730  0.3563998703220700
  0.7421022932455688  0.8634557238809730  0.3563998703220700
  0.7671022932455689  0.8634557238809730  0.3563998703220700
  0.7921022932455688  0.8634557238809730  0.3563998703220700
  0.8171022932455687  0.8634557238809730  0.3563998703220700
  0.8421022932455688  0.8634557238809730  0.3563998703220700
  0.8671022932455690  0.8634557238809730  0.3563998703220700
  0.8921022932455689  0.8634557238809730  0.3563998703220700
  0.9171022932455688  0.8634557238809730  0.3563998703220700
  0.9421022932455687  0.8634557238809730  0.3563998703220700
  0.9671022932455688  0.8634557238809730  0.3563998703220700
  0.9921022932455688  0.8634557238809730  0.3563998703220700
  0.0171022932455688  0.8884557238809730  0.3563998703220700
  0.0421022932455689  0.8884557238809730  0.3563998703220700
  0.0671022932455688  0.8884557238809730  0.3563998703220700
  0.0921022932455688  0.8884557238809730  0.3563998703220700
  0.1171022932455689  0.8884557238809730  0.3563998703220700
  0.1421022932455688  0.8884557238809730  0.3563998703220700
  0.1671022932455688  0.8884557238809730  0.3563998703220700
  0.1921022932455688  0.8884557238809730  0.3563998703220700
  0.2171022932455688  0.8884557238809730  0.3563998703220700
  0.2421022932455688  0.8884557238809730  0.3563998703220700
  0.2671022932455688  0.8884557238809730  0.3563998703220700
  0.2921022932455688  0.8884557238809730  0.3563998703220700
  0.3171022932455688  0.8884557238809730  0.3563998703220700
  0.3421022932455687  0.8884557238809730  0.3563998703220700
  0.3671022932455688  0.8884557238809730  0.3563998703220700
  0.3921022932455688  0.8884557238809730  0.3563998703220700
  0.4171022932455689  0.8884557238809730  0.3563998703220700
  0.4421022932455687  0.8884557238809730  0.3563998703220700
  0.4671022932455687  0.8884557238809730  0.3563998703220700
  0.4921022932455688  0.8884557238809730  0.3563998703220700
  0.5171022932455689  0.8884557238809730  0.3563998703220700
  0.5421022932455689  0.8884557238809730  0.3563998703220700
  0.5671022932455689  0.8884557238809730  0.3563998703220700
  0.5921022932455686  0.8884557238809730  0.3563998703220700
  0.6171022932455688  0.8884557238809730  0.3563998703220700
  0.6421022932455689  0.8884557238809730  0.3563998703220700
  0.6671022932455688  0.8884557238809730  0.3563998703220700
  0.6921022932455689  0.8884557238809730  0.3563998703220700
  0.7171022932455688  0.8884557238809730  0.3563998703220700
  0.7421022932455688  0.8884557238809730  0.3563998703220700
  0.7671022932455689  0.8884557238809730  0.3563998703220700
  0.7921022932455688  0.8884557238809730  0.3563998703220700
  0.8171022932455687  0.8884557238809730  0.3563998703220700
  0.8421022932455686  0.8884557238809730  0.3563998703220700
  0.8671022932455688  0.8884557238809730  0.3563998703220700
  0.8921022932455687  0.8884557238809730  0.3563998703220700
  0.9171022932455688  0.8884557238809730  0.3563998703220700
  0.9421022932455687  0.8884557238809730  0.3563998703220700
  0.9671022932455688  0.8884557238809730  0.3563998703220700
  0.9921022932455685  0.8884557238809730  0.3563998703220700
  0.0171022932455688  0.9134557238809731  0.3563998703220700
  0.0421022932455689  0.9134557238809731  0.3563998703220700
  0.0671022932455689  0.9134557238809731  0.3563998703220700
  0.0921022932455688  0.9134557238809731  0.3563998703220700
  0.1171022932455688  0.9134557238809731  0.3563998703220700
  0.1421022932455688  0.9134557238809731  0.3563998703220700
  0.1671022932455689  0.9134557238809731  0.3563998703220700
  0.1921022932455688  0.9134557238809731  0.3563998703220700
  0.2171022932455688  0.9134557238809731  0.3563998703220700
  0.2421022932455688  0.9134557238809731  0.3563998703220700
  0.2671022932455688  0.9134557238809731  0.3563998703220700
  0.2921022932455687  0.9134557238809731  0.3563998703220700
  0.3171022932455688  0.9134557238809731  0.3563998703220700
  0.3421022932455689  0.9134557238809731  0.3563998703220700
  0.3671022932455688  0.9134557238809731  0.3563998703220700
  0.3921022932455688  0.9134557238809731  0.3563998703220700
  0.4171022932455689  0.9134557238809731  0.3563998703220700
  0.4421022932455689  0.9134557238809731  0.3563998703220700
  0.4671022932455688  0.9134557238809731  0.3563998703220700
  0.4921022932455688  0.9134557238809731  0.3563998703220700
  0.5171022932455688  0.9134557238809731  0.3563998703220700
  0.5421022932455689  0.9134557238809731  0.3563998703220700
  0.5671022932455690  0.9134557238809731  0.3563998703220700
  0.5921022932455690  0.9134557238809731  0.3563998703220700
  0.6171022932455689  0.9134557238809731  0.3563998703220700
  0.6421022932455688  0.9134557238809731  0.3563998703220700
  0.6671022932455689  0.9134557238809731  0.3563998703220700
  0.6921022932455688  0.9134557238809731  0.3563998703220700
  0.7171022932455690  0.9134557238809731  0.3563998703220700
  0.7421022932455689  0.9134557238809731  0.3563998703220700
  0.7671022932455690  0.9134557238809731  0.3563998703220700
  0.7921022932455689  0.9134557238809731  0.3563998703220700
  0.8171022932455688  0.9134557238809731  0.3563998703220700
  0.8421022932455687  0.9134557238809731  0.3563998703220700
  0.8671022932455689  0.9134557238809731  0.3563998703220700
  0.8921022932455688  0.9134557238809731  0.3563998703220700
  0.9171022932455687  0.9134557238809731  0.3563998703220700
  0.9421022932455688  0.9134557238809731  0.3563998703220700
  0.9671022932455690  0.9134557238809731  0.3563998703220700
  0.9921022932455689  0.9134557238809731  0.3563998703220700
  0.0171022932455689  0.9384557238809731  0.3563998703220700
  0.0421022932455688  0.9384557238809731  0.3563998703220700
  0.0671022932455688  0.9384557238809731  0.3563998703220700
  0.0921022932455689  0.9384557238809731  0.3563998703220700
  0.1171022932455688  0.9384557238809731  0.3563998703220700
  0.1421022932455688  0.9384557238809731  0.3563998703220700
  0.1671022932455688  0.9384557238809731  0.3563998703220700
  0.1921022932455689  0.9384557238809731  0.3563998703220700
  0.2171022932455688  0.9384557238809731  0.3563998703220700
  0.2421022932455688  0.9384557238809731  0.3563998703220700
  0.2671022932455689  0.9384557238809731  0.3563998703220700
  0.2921022932455688  0.9384557238809731  0.3563998703220700
  0.3171022932455687  0.9384557238809731  0.3563998703220700
  0.3421022932455688  0.9384557238809731  0.3563998703220700
  0.3671022932455688  0.9384557238809731  0.3563998703220700
  0.3921022932455689  0.9384557238809731  0.3563998703220700
  0.4171022932455688  0.9384557238809731  0.3563998703220700
  0.4421022932455688  0.9384557238809731  0.3563998703220700
  0.4671022932455688  0.9384557238809731  0.3563998703220700
  0.4921022932455688  0.9384557238809731  0.3563998703220700
  0.5171022932455688  0.9384557238809731  0.3563998703220700
  0.5421022932455689  0.9384557238809731  0.3563998703220700
  0.5671022932455688  0.9384557238809731  0.3563998703220700
  0.5921022932455687  0.9384557238809731  0.3563998703220700
  0.6171022932455689  0.9384557238809731  0.3563998703220700
  0.6421022932455690  0.9384557238809731  0.3563998703220700
  0.6671022932455687  0.9384557238809731  0.3563998703220700
  0.6921022932455688  0.9384557238809731  0.3563998703220700
  0.7171022932455687  0.9384557238809731  0.3563998703220700
  0.7421022932455686  0.9384557238809731  0.3563998703220700
  0.7671022932455688  0.9384557238809731  0.3563998703220700
  0.7921022932455689  0.9384557238809731  0.3563998703220700
  0.8171022932455688  0.9384557238809731  0.3563998703220700
  0.8421022932455687  0.9384557238809731  0.3563998703220700
  0.8671022932455686  0.9384557238809731  0.3563998703220700
  0.8921022932455686  0.9384557238809731  0.3563998703220700
  0.9171022932455687  0.9384557238809731  0.3563998703220700
  0.9421022932455686  0.9384557238809731  0.3563998703220700
  0.9671022932455687  0.9384557238809731  0.3563998703220700
  0.9921022932455686  0.9384557238809731  0.3563998703220700
  0.0171022932455688  0.9634557238809732  0.3563998703220700
  0.0421022932455688  0.9634557238809732  0.3563998703220700
  0.0671022932455687  0.9634557238809732  0.3563998703220700
  0.0921022932455687  0.9634557238809732  0.3563998703220700
  0.1171022932455688  0.9634557238809732  0.3563998703220700
  0.1421022932455688  0.9634557238809732  0.3563998703220700
  0.1671022932455687  0.9634557238809732  0.3563998703220700
  0.1921022932455687  0.9634557238809732  0.3563998703220700
  0.2171022932455687  0.9634557238809732  0.3563998703220700
  0.2421022932455688  0.9634557238809732  0.3563998703220700
  0.2671022932455688  0.9634557238809732  0.3563998703220700
  0.2921022932455687  0.9634557238809732  0.3563998703220700
  0.3171022932455687  0.9634557238809732  0.3563998703220700
  0.3421022932455688  0.9634557238809732  0.3563998703220700
  0.3671022932455686  0.9634557238809732  0.3563998703220700
  0.3921022932455688  0.9634557238809732  0.3563998703220700
  0.4171022932455688  0.9634557238809732  0.3563998703220700
  0.4421022932455688  0.9634557238809732  0.3563998703220700
  0.4671022932455686  0.9634557238809732  0.3563998703220700
  0.4921022932455688  0.9634557238809732  0.3563998703220700
  0.5171022932455687  0.9634557238809732  0.3563998703220700
  0.5421022932455687  0.9634557238809732  0.3563998703220700
  0.5671022932455688  0.9634557238809732  0.3563998703220700
  0.5921022932455687  0.9634557238809732  0.3563998703220700
  0.6171022932455686  0.9634557238809732  0.3563998703220700
  0.6421022932455688  0.9634557238809732  0.3563998703220700
  0.6671022932455689  0.9634557238809732  0.3563998703220700
  0.6921022932455686  0.9634557238809732  0.3563998703220700
  0.7171022932455687  0.9634557238809732  0.3563998703220700
  0.7421022932455686  0.9634557238809732  0.3563998703220700
  0.7671022932455688  0.9634557238809732  0.3563998703220700
  0.7921022932455687  0.9634557238809732  0.3563998703220700
  0.8171022932455686  0.9634557238809732  0.3563998703220700
  0.8421022932455687  0.9634557238809732  0.3563998703220700
  0.8671022932455689  0.9634557238809732  0.3563998703220700
  0.8921022932455686  0.9634557238809732  0.3563998703220700
  0.9171022932455685  0.9634557238809732  0.3563998703220700
  0.9421022932455686  0.9634557238809732  0.3563998703220700
  0.9671022932455687  0.9634557238809732  0.3563998703220700
  0.9921022932455686  0.9634557238809732  0.3563998703220700
  0.0171022932455688  0.9884557238809731  0.3563998703220700
  0.0421022932455688  0.9884557238809731  0.3563998703220700
  0.0671022932455689  0.9884557238809731  0.3563998703220700
  0.0921022932455688  0.9884557238809731  0.3563998703220700
  0.1171022932455688  0.9884557238809731  0.3563998703220700
  0.1421022932455688  0.9884557238809731  0.3563998703220700
  0.1671022932455688  0.9884557238809731  0.3563998703220700
  0.1921022932455687  0.9884557238809731  0.3563998703220700
  0.2171022932455688  0.9884557238809731  0.3563998703220700
  0.2421022932455688  0.9884557238809731  0.3563998703220700
  0.2671022932455689  0.9884557238809731  0.3563998703220700
  0.2921022932455687  0.9884557238809731  0.3563998703220700
  0.3171022932455687  0.9884557238809731  0.3563998703220700
  0.3421022932455688  0.9884557238809731  0.3563998703220700
  0.3671022932455688  0.9884557238809731  0.3563998703220700
  0.3921022932455688  0.9884557238809731  0.3563998703220700
  0.4171022932455688  0.9884557238809731  0.3563998703220700
  0.4421022932455687  0.9884557238809731  0.3563998703220700
  0.4671022932455688  0.9884557238809731  0.3563998703220700
  0.4921022932455686  0.9884557238809731  0.3563998703220700
  0.5171022932455689  0.9884557238809731  0.3563998703220700
  0.5421022932455688  0.9884557238809731  0.3563998703220700
  0.5671022932455687  0.9884557238809731  0.3563998703220700
  0.5921022932455686  0.9884557238809731  0.3563998703220700
  0.6171022932455688  0.9884557238809731  0.3563998703220700
  0.6421022932455689  0.9884557238809731  0.3563998703220700
  0.6671022932455688  0.9884557238809731  0.3563998703220700
  0.6921022932455689  0.9884557238809731  0.3563998703220700
  0.7171022932455688  0.9884557238809731  0.3563998703220700
  0.7421022932455685  0.9884557238809731  0.3563998703220700
  0.7671022932455687  0.9884557238809731  0.3563998703220700
  0.7921022932455688  0.9884557238809731  0.3563998703220700
  0.8171022932455687  0.9884557238809731  0.3563998703220700
  0.8421022932455686  0.9884557238809731  0.3563998703220700
  0.8671022932455688  0.9884557238809731  0.3563998703220700
  0.8921022932455687  0.9884557238809731  0.3563998703220700
  0.9171022932455688  0.9884557238809731  0.3563998703220700
  0.9421022932455685  0.9884557238809731  0.3563998703220700
  0.9671022932455686  0.9884557238809731  0.3563998703220700
  0.9921022932455685  0.9884557238809731  0.3563998703220700
  0.0027351931934428  0.0167334622996560  0.6436217783747100
  0.0277351931934428  0.0167334622996560  0.6436217783747100
  0.0527351931934428  0.0167334622996560  0.6436217783747100
  0.0777351931934428  0.0167334622996560  0.6436217783747100
  0.1027351931934428  0.0167334622996560  0.6436217783747100
  0.1277351931934428  0.0167334622996560  0.6436217783747100
  0.1527351931934428  0.0167334622996560  0.6436217783747100
  0.1777351931934428  0.0167334622996560  0.6436217783747100
  0.2027351931934427  0.0167334622996560  0.6436217783747100
  0.2277351931934427  0.0167334622996560  0.6436217783747100
  0.2527351931934427  0.0167334622996560  0.6436217783747100
  0.2777351931934427  0.0167334622996560  0.6436217783747100
  0.3027351931934428  0.0167334622996560  0.6436217783747100
  0.3277351931934427  0.0167334622996560  0.6436217783747100
  0.3527351931934428  0.0167334622996560  0.6436217783747100
  0.3777351931934427  0.0167334622996560  0.6436217783747100
  0.4027351931934428  0.0167334622996560  0.6436217783747100
  0.4277351931934428  0.0167334622996560  0.6436217783747100
  0.4527351931934428  0.0167334622996560  0.6436217783747100
  0.4777351931934428  0.0167334622996560  0.6436217783747100
  0.5027351931934428  0.0167334622996560  0.6436217783747100
  0.5277351931934428  0.0167334622996560  0.6436217783747100
  0.5527351931934428  0.0167334622996560  0.6436217783747100
  0.5777351931934428  0.0167334622996560  0.6436217783747100
  0.6027351931934428  0.0167334622996560  0.6436217783747100
  0.6277351931934428  0.0167334622996560  0.6436217783747100
  0.6527351931934429  0.0167334622996560  0.6436217783747100
  0.6777351931934428  0.0167334622996560  0.6436217783747100
  0.7027351931934428  0.0167334622996560  0.6436217783747100
  0.7277351931934428  0.0167334622996560  0.6436217783747100
  0.7527351931934428  0.0167334622996560  0.6436217783747100
  0.7777351931934429  0.0167334622996560  0.6436217783747100
  0.8027351931934428  0.0167334622996560  0.6436217783747100
  0.8277351931934428  0.0167334622996560  0.6436217783747100
  0.8527351931934428  0.0167334622996560  0.6436217783747100
  0.8777351931934428  0.0167334622996560  0.6436217783747100
  0.9027351931934429  0.0167334622996560  0.6436217783747100
  0.9277351931934429  0.0167334622996560  0.6436217783747100
  0.9527351931934428  0.0167334622996560  0.6436217783747100
  0.9777351931934429  0.0167334622996560  0.6436217783747100
  0.0027351931934428  0.0417334622996560  0.6436217783747100
  0.0277351931934427  0.0417334622996560  0.6436217783747100
  0.0527351931934428  0.0417334622996560  0.6436217783747100
  0.0777351931934428  0.0417334622996560  0.6436217783747100
  0.1027351931934428  0.0417334622996560  0.6436217783747100
  0.1277351931934428  0.0417334622996560  0.6436217783747100
  0.1527351931934428  0.0417334622996560  0.6436217783747100
  0.1777351931934428  0.0417334622996560  0.6436217783747100
  0.2027351931934427  0.0417334622996560  0.6436217783747100
  0.2277351931934427  0.0417334622996560  0.6436217783747100
  0.2527351931934427  0.0417334622996560  0.6436217783747100
  0.2777351931934427  0.0417334622996560  0.6436217783747100
  0.3027351931934428  0.0417334622996560  0.6436217783747100
  0.3277351931934427  0.0417334622996560  0.6436217783747100
  0.3527351931934428  0.0417334622996560  0.6436217783747100
  0.3777351931934427  0.0417334622996560  0.6436217783747100
  0.4027351931934428  0.0417334622996560  0.6436217783747100
  0.4277351931934428  0.0417334622996560  0.6436217783747100
  0.4527351931934427  0.0417334622996560  0.6436217783747100
  0.4777351931934428  0.0417334622996560  0.6436217783747100
  0.5027351931934427  0.0417334622996560  0.6436217783747100
  0.5277351931934426  0.0417334622996560  0.6436217783747100
  0.5527351931934428  0.0417334622996560  0.6436217783747100
  0.5777351931934427  0.0417334622996560  0.6436217783747100
  0.6027351931934427  0.0417334622996560  0.6436217783747100
  0.6277351931934427  0.0417334622996560  0.6436217783747100
  0.6527351931934429  0.0417334622996560  0.6436217783747100
  0.6777351931934427  0.0417334622996560  0.6436217783747100
  0.7027351931934427  0.0417334622996560  0.6436217783747100
  0.7277351931934427  0.0417334622996560  0.6436217783747100
  0.7527351931934428  0.0417334622996560  0.6436217783747100
  0.7777351931934428  0.0417334622996560  0.6436217783747100
  0.8027351931934427  0.0417334622996560  0.6436217783747100
  0.8277351931934427  0.0417334622996560  0.6436217783747100
  0.8527351931934428  0.0417334622996560  0.6436217783747100
  0.8777351931934427  0.0417334622996560  0.6436217783747100
  0.9027351931934428  0.0417334622996560  0.6436217783747100
  0.9277351931934428  0.0417334622996560  0.6436217783747100
  0.9527351931934427  0.0417334622996560  0.6436217783747100
  0.9777351931934427  0.0417334622996560  0.6436217783747100
  0.0027351931934428  0.0667334622996560  0.6436217783747100
  0.0277351931934428  0.0667334622996560  0.6436217783747100
  0.0527351931934428  0.0667334622996560  0.6436217783747100
  0.0777351931934428  0.0667334622996560  0.6436217783747100
  0.1027351931934428  0.0667334622996560  0.6436217783747100
  0.1277351931934428  0.0667334622996560  0.6436217783747100
  0.1527351931934428  0.0667334622996560  0.6436217783747100
  0.1777351931934428  0.0667334622996560  0.6436217783747100
  0.2027351931934427  0.0667334622996560  0.6436217783747100
  0.2277351931934427  0.0667334622996560  0.6436217783747100
  0.2527351931934427  0.0667334622996560  0.6436217783747100
  0.2777351931934428  0.0667334622996560  0.6436217783747100
  0.3027351931934428  0.0667334622996560  0.6436217783747100
  0.3277351931934427  0.0667334622996560  0.6436217783747100
  0.3527351931934428  0.0667334622996560  0.6436217783747100
  0.3777351931934427  0.0667334622996560  0.6436217783747100
  0.4027351931934428  0.0667334622996560  0.6436217783747100
  0.4277351931934428  0.0667334622996560  0.6436217783747100
  0.4527351931934428  0.0667334622996560  0.6436217783747100
  0.4777351931934429  0.0667334622996560  0.6436217783747100
  0.5027351931934430  0.0667334622996560  0.6436217783747100
  0.5277351931934428  0.0667334622996560  0.6436217783747100
  0.5527351931934429  0.0667334622996560  0.6436217783747100
  0.5777351931934429  0.0667334622996560  0.6436217783747100
  0.6027351931934429  0.0667334622996560  0.6436217783747100
  0.6277351931934428  0.0667334622996560  0.6436217783747100
  0.6527351931934430  0.0667334622996560  0.6436217783747100
  0.6777351931934429  0.0667334622996560  0.6436217783747100
  0.7027351931934429  0.0667334622996560  0.6436217783747100
  0.7277351931934428  0.0667334622996560  0.6436217783747100
  0.7527351931934430  0.0667334622996560  0.6436217783747100
  0.7777351931934430  0.0667334622996560  0.6436217783747100
  0.8027351931934429  0.0667334622996560  0.6436217783747100
  0.8277351931934428  0.0667334622996560  0.6436217783747100
  0.8527351931934429  0.0667334622996560  0.6436217783747100
  0.8777351931934430  0.0667334622996560  0.6436217783747100
  0.9027351931934429  0.0667334622996560  0.6436217783747100
  0.9277351931934429  0.0667334622996560  0.6436217783747100
  0.9527351931934428  0.0667334622996560  0.6436217783747100
  0.9777351931934429  0.0667334622996560  0.6436217783747100
  0.0027351931934428  0.0917334622996560  0.6436217783747100
  0.0277351931934428  0.0917334622996560  0.6436217783747100
  0.0527351931934428  0.0917334622996560  0.6436217783747100
  0.0777351931934428  0.0917334622996560  0.6436217783747100
  0.1027351931934428  0.0917334622996560  0.6436217783747100
  0.1277351931934428  0.0917334622996560  0.6436217783747100
  0.1527351931934428  0.0917334622996560  0.6436217783747100
  0.1777351931934428  0.0917334622996560  0.6436217783747100
  0.2027351931934427  0.0917334622996560  0.6436217783747100
  0.2277351931934427  0.0917334622996560  0.6436217783747100
  0.2527351931934427  0.0917334622996560  0.6436217783747100
  0.2777351931934428  0.0917334622996560  0.6436217783747100
  0.3027351931934428  0.0917334622996560  0.6436217783747100
  0.3277351931934427  0.0917334622996560  0.6436217783747100
  0.3527351931934428  0.0917334622996560  0.6436217783747100
  0.3777351931934427  0.0917334622996560  0.6436217783747100
  0.4027351931934428  0.0917334622996560  0.6436217783747100
  0.4277351931934428  0.0917334622996560  0.6436217783747100
  0.4527351931934428  0.0917334622996560  0.6436217783747100
  0.4777351931934429  0.0917334622996560  0.6436217783747100
  0.5027351931934428  0.0917334622996560  0.6436217783747100
  0.5277351931934428  0.0917334622996560  0.6436217783747100
  0.5527351931934428  0.0917334622996560  0.6436217783747100
  0.5777351931934428  0.0917334622996560  0.6436217783747100
  0.6027351931934428  0.0917334622996560  0.6436217783747100
  0.6277351931934428  0.0917334622996560  0.6436217783747100
  0.6527351931934429  0.0917334622996560  0.6436217783747100
  0.6777351931934428  0.0917334622996560  0.6436217783747100
  0.7027351931934428  0.0917334622996560  0.6436217783747100
  0.7277351931934428  0.0917334622996560  0.6436217783747100
  0.7527351931934428  0.0917334622996560  0.6436217783747100
  0.7777351931934429  0.0917334622996560  0.6436217783747100
  0.8027351931934428  0.0917334622996560  0.6436217783747100
  0.8277351931934428  0.0917334622996560  0.6436217783747100
  0.8527351931934428  0.0917334622996560  0.6436217783747100
  0.8777351931934428  0.0917334622996560  0.6436217783747100
  0.9027351931934429  0.0917334622996560  0.6436217783747100
  0.9277351931934428  0.0917334622996560  0.6436217783747100
  0.9527351931934426  0.0917334622996560  0.6436217783747100
  0.9777351931934427  0.0917334622996560  0.6436217783747100
  0.0027351931934428  0.1167334622996560  0.6436217783747100
  0.0277351931934428  0.1167334622996560  0.6436217783747100
  0.0527351931934428  0.1167334622996560  0.6436217783747100
  0.0777351931934428  0.1167334622996560  0.6436217783747100
  0.1027351931934428  0.1167334622996560  0.6436217783747100
  0.1277351931934428  0.1167334622996560  0.6436217783747100
  0.1527351931934428  0.1167334622996560  0.6436217783747100
  0.1777351931934428  0.1167334622996560  0.6436217783747100
  0.2027351931934427  0.1167334622996560  0.6436217783747100
  0.2277351931934427  0.1167334622996560  0.6436217783747100
  0.2527351931934427  0.1167334622996560  0.6436217783747100
  0.2777351931934427  0.1167334622996560  0.6436217783747100
  0.3027351931934428  0.1167334622996560  0.6436217783747100
  0.3277351931934427  0.1167334622996560  0.6436217783747100
  0.3527351931934428  0.1167334622996560  0.6436217783747100
  0.3777351931934427  0.1167334622996560  0.6436217783747100
  0.4027351931934428  0.1167334622996560  0.6436217783747100
  0.4277351931934428  0.1167334622996560  0.6436217783747100
  0.4527351931934428  0.1167334622996560  0.6436217783747100
  0.4777351931934429  0.1167334622996560  0.6436217783747100
  0.5027351931934428  0.1167334622996560  0.6436217783747100
  0.5277351931934428  0.1167334622996560  0.6436217783747100
  0.5527351931934429  0.1167334622996560  0.6436217783747100
  0.5777351931934429  0.1167334622996560  0.6436217783747100
  0.6027351931934428  0.1167334622996560  0.6436217783747100
  0.6277351931934428  0.1167334622996560  0.6436217783747100
  0.6527351931934430  0.1167334622996560  0.6436217783747100
  0.6777351931934429  0.1167334622996560  0.6436217783747100
  0.7027351931934428  0.1167334622996560  0.6436217783747100
  0.7277351931934428  0.1167334622996560  0.6436217783747100
  0.7527351931934430  0.1167334622996560  0.6436217783747100
  0.7777351931934429  0.1167334622996560  0.6436217783747100
  0.8027351931934428  0.1167334622996560  0.6436217783747100
  0.8277351931934428  0.1167334622996560  0.6436217783747100
  0.8527351931934429  0.1167334622996560  0.6436217783747100
  0.8777351931934428  0.1167334622996560  0.6436217783747100
  0.9027351931934428  0.1167334622996560  0.6436217783747100
  0.9277351931934429  0.1167334622996560  0.6436217783747100
  0.9527351931934427  0.1167334622996560  0.6436217783747100
  0.9777351931934428  0.1167334622996560  0.6436217783747100
  0.0027351931934428  0.1417334622996560  0.6436217783747100
  0.0277351931934427  0.1417334622996560  0.6436217783747100
  0.0527351931934428  0.1417334622996560  0.6436217783747100
  0.0777351931934427  0.1417334622996560  0.6436217783747100
  0.1027351931934428  0.1417334622996560  0.6436217783747100
  0.1277351931934428  0.1417334622996560  0.6436217783747100
  0.1527351931934428  0.1417334622996560  0.6436217783747100
  0.1777351931934428  0.1417334622996560  0.6436217783747100
  0.2027351931934427  0.1417334622996560  0.6436217783747100
  0.2277351931934427  0.1417334622996560  0.6436217783747100
  0.2527351931934427  0.1417334622996560  0.6436217783747100
  0.2777351931934427  0.1417334622996560  0.6436217783747100
  0.3027351931934428  0.1417334622996560  0.6436217783747100
  0.3277351931934427  0.1417334622996560  0.6436217783747100
  0.3527351931934428  0.1417334622996560  0.6436217783747100
  0.3777351931934427  0.1417334622996560  0.6436217783747100
  0.4027351931934428  0.1417334622996560  0.6436217783747100
  0.4277351931934428  0.1417334622996560  0.6436217783747100
  0.4527351931934427  0.1417334622996560  0.6436217783747100
  0.4777351931934429  0.1417334622996560  0.6436217783747100
  0.5027351931934428  0.1417334622996560  0.6436217783747100
  0.5277351931934428  0.1417334622996560  0.6436217783747100
  0.5527351931934428  0.1417334622996560  0.6436217783747100
  0.5777351931934428  0.1417334622996560  0.6436217783747100
  0.6027351931934428  0.1417334622996560  0.6436217783747100
  0.6277351931934427  0.1417334622996560  0.6436217783747100
  0.6527351931934429  0.1417334622996560  0.6436217783747100
  0.6777351931934428  0.1417334622996560  0.6436217783747100
  0.7027351931934428  0.1417334622996560  0.6436217783747100
  0.7277351931934427  0.1417334622996560  0.6436217783747100
  0.7527351931934428  0.1417334622996560  0.6436217783747100
  0.7777351931934429  0.1417334622996560  0.6436217783747100
  0.8027351931934428  0.1417334622996560  0.6436217783747100
  0.8277351931934427  0.1417334622996560  0.6436217783747100
  0.8527351931934428  0.1417334622996560  0.6436217783747100
  0.8777351931934427  0.1417334622996560  0.6436217783747100
  0.9027351931934429  0.1417334622996560  0.6436217783747100
  0.9277351931934427  0.1417334622996560  0.6436217783747100
  0.9527351931934427  0.1417334622996560  0.6436217783747100
  0.9777351931934426  0.1417334622996560  0.6436217783747100
  0.0027351931934428  0.1667334622996560  0.6436217783747100
  0.0277351931934428  0.1667334622996560  0.6436217783747100
  0.0527351931934428  0.1667334622996560  0.6436217783747100
  0.0777351931934428  0.1667334622996560  0.6436217783747100
  0.1027351931934428  0.1667334622996560  0.6436217783747100
  0.1277351931934428  0.1667334622996560  0.6436217783747100
  0.1527351931934428  0.1667334622996560  0.6436217783747100
  0.1777351931934428  0.1667334622996560  0.6436217783747100
  0.2027351931934427  0.1667334622996560  0.6436217783747100
  0.2277351931934428  0.1667334622996560  0.6436217783747100
  0.2527351931934427  0.1667334622996560  0.6436217783747100
  0.2777351931934428  0.1667334622996560  0.6436217783747100
  0.3027351931934428  0.1667334622996560  0.6436217783747100
  0.3277351931934427  0.1667334622996560  0.6436217783747100
  0.3527351931934428  0.1667334622996560  0.6436217783747100
  0.3777351931934427  0.1667334622996560  0.6436217783747100
  0.4027351931934428  0.1667334622996560  0.6436217783747100
  0.4277351931934428  0.1667334622996560  0.6436217783747100
  0.4527351931934428  0.1667334622996560  0.6436217783747100
  0.4777351931934428  0.1667334622996560  0.6436217783747100
  0.5027351931934428  0.1667334622996560  0.6436217783747100
  0.5277351931934428  0.1667334622996560  0.6436217783747100
  0.5527351931934429  0.1667334622996560  0.6436217783747100
  0.5777351931934428  0.1667334622996560  0.6436217783747100
  0.6027351931934428  0.1667334622996560  0.6436217783747100
  0.6277351931934428  0.1667334622996560  0.6436217783747100
  0.6527351931934430  0.1667334622996560  0.6436217783747100
  0.6777351931934428  0.1667334622996560  0.6436217783747100
  0.7027351931934428  0.1667334622996560  0.6436217783747100
  0.7277351931934428  0.1667334622996560  0.6436217783747100
  0.7527351931934428  0.1667334622996560  0.6436217783747100
  0.7777351931934429  0.1667334622996560  0.6436217783747100
  0.8027351931934428  0.1667334622996560  0.6436217783747100
  0.8277351931934428  0.1667334622996560  0.6436217783747100
  0.8527351931934428  0.1667334622996560  0.6436217783747100
  0.8777351931934428  0.1667334622996560  0.6436217783747100
  0.9027351931934428  0.1667334622996560  0.6436217783747100
  0.9277351931934429  0.1667334622996560  0.6436217783747100
  0.9527351931934428  0.1667334622996560  0.6436217783747100
  0.9777351931934429  0.1667334622996560  0.6436217783747100
  0.0027351931934428  0.1917334622996560  0.6436217783747100
  0.0277351931934428  0.1917334622996560  0.6436217783747100
  0.0527351931934428  0.1917334622996560  0.6436217783747100
  0.0777351931934428  0.1917334622996560  0.6436217783747100
  0.1027351931934428  0.1917334622996560  0.6436217783747100
  0.1277351931934428  0.1917334622996560  0.6436217783747100
  0.1527351931934428  0.1917334622996560  0.6436217783747100
  0.1777351931934428  0.1917334622996560  0.6436217783747100
  0.2027351931934428  0.1917334622996560  0.6436217783747100
  0.2277351931934428  0.1917334622996560  0.6436217783747100
  0.2527351931934427  0.1917334622996560  0.6436217783747100
  0.2777351931934428  0.1917334622996560  0.6436217783747100
  0.3027351931934428  0.1917334622996560  0.6436217783747100
  0.3277351931934427  0.1917334622996560  0.6436217783747100
  0.3527351931934428  0.1917334622996560  0.6436217783747100
  0.3777351931934427  0.1917334622996560  0.6436217783747100
  0.4027351931934428  0.1917334622996560  0.6436217783747100
  0.4277351931934427  0.1917334622996560  0.6436217783747100
  0.4527351931934427  0.1917334622996560  0.6436217783747100
  0.4777351931934429  0.1917334622996560  0.6436217783747100
  0.5027351931934428  0.1917334622996560  0.6436217783747100
  0.5277351931934428  0.1917334622996560  0.6436217783747100
  0.5527351931934429  0.1917334622996560  0.6436217783747100
  0.5777351931934429  0.1917334622996560  0.6436217783747100
  0.6027351931934428  0.1917334622996560  0.6436217783747100
  0.6277351931934428  0.1917334622996560  0.6436217783747100
  0.6527351931934430  0.1917334622996560  0.6436217783747100
  0.6777351931934429  0.1917334622996560  0.6436217783747100
  0.7027351931934428  0.1917334622996560  0.6436217783747100
  0.7277351931934428  0.1917334622996560  0.6436217783747100
  0.7527351931934430  0.1917334622996560  0.6436217783747100
  0.7777351931934430  0.1917334622996560  0.6436217783747100
  0.8027351931934428  0.1917334622996560  0.6436217783747100
  0.8277351931934428  0.1917334622996560  0.6436217783747100
  0.8527351931934429  0.1917334622996560  0.6436217783747100
  0.8777351931934428  0.1917334622996560  0.6436217783747100
  0.9027351931934429  0.1917334622996560  0.6436217783747100
  0.9277351931934428  0.1917334622996560  0.6436217783747100
  0.9527351931934427  0.1917334622996560  0.6436217783747100
  0.9777351931934428  0.1917334622996560  0.6436217783747100
  0.0027351931934428  0.2167334622996560  0.6436217783747100
  0.0277351931934427  0.2167334622996560  0.6436217783747100
  0.0527351931934428  0.2167334622996560  0.6436217783747100
  0.0777351931934428  0.2167334622996560  0.6436217783747100
  0.1027351931934428  0.2167334622996560  0.6436217783747100
  0.1277351931934428  0.2167334622996560  0.6436217783747100
  0.1527351931934428  0.2167334622996560  0.6436217783747100
  0.1777351931934427  0.2167334622996560  0.6436217783747100
  0.2027351931934428  0.2167334622996560  0.6436217783747100
  0.2277351931934427  0.2167334622996560  0.6436217783747100
  0.2527351931934427  0.2167334622996560  0.6436217783747100
  0.2777351931934427  0.2167334622996560  0.6436217783747100
  0.3027351931934428  0.2167334622996560  0.6436217783747100
  0.3277351931934427  0.2167334622996560  0.6436217783747100
  0.3527351931934428  0.2167334622996560  0.6436217783747100
  0.3777351931934427  0.2167334622996560  0.6436217783747100
  0.4027351931934428  0.2167334622996560  0.6436217783747100
  0.4277351931934428  0.2167334622996560  0.6436217783747100
  0.4527351931934427  0.2167334622996560  0.6436217783747100
  0.4777351931934428  0.2167334622996560  0.6436217783747100
  0.5027351931934428  0.2167334622996560  0.6436217783747100
  0.5277351931934428  0.2167334622996560  0.6436217783747100
  0.5527351931934428  0.2167334622996560  0.6436217783747100
  0.5777351931934428  0.2167334622996560  0.6436217783747100
  0.6027351931934428  0.2167334622996560  0.6436217783747100
  0.6277351931934428  0.2167334622996560  0.6436217783747100
  0.6527351931934429  0.2167334622996560  0.6436217783747100
  0.6777351931934428  0.2167334622996560  0.6436217783747100
  0.7027351931934428  0.2167334622996560  0.6436217783747100
  0.7277351931934428  0.2167334622996560  0.6436217783747100
  0.7527351931934428  0.2167334622996560  0.6436217783747100
  0.7777351931934429  0.2167334622996560  0.6436217783747100
  0.8027351931934428  0.2167334622996560  0.6436217783747100
  0.8277351931934427  0.2167334622996560  0.6436217783747100
  0.8527351931934427  0.2167334622996560  0.6436217783747100
  0.8777351931934428  0.2167334622996560  0.6436217783747100
  0.9027351931934426  0.2167334622996560  0.6436217783747100
  0.9277351931934428  0.2167334622996560  0.6436217783747100
  0.9527351931934427  0.2167334622996560  0.6436217783747100
  0.9777351931934428  0.2167334622996560  0.6436217783747100
  0.0027351931934427  0.2417334622996560  0.6436217783747100
  0.0277351931934428  0.2417334622996560  0.6436217783747100
  0.0527351931934428  0.2417334622996560  0.6436217783747100
  0.0777351931934428  0.2417334622996560  0.6436217783747100
  0.1027351931934428  0.2417334622996560  0.6436217783747100
  0.1277351931934428  0.2417334622996560  0.6436217783747100
  0.1527351931934428  0.2417334622996560  0.6436217783747100
  0.1777351931934427  0.2417334622996560  0.6436217783747100
  0.2027351931934428  0.2417334622996560  0.6436217783747100
  0.2277351931934427  0.2417334622996560  0.6436217783747100
  0.2527351931934427  0.2417334622996560  0.6436217783747100
  0.2777351931934427  0.2417334622996560  0.6436217783747100
  0.3027351931934428  0.2417334622996560  0.6436217783747100
  0.3277351931934427  0.2417334622996560  0.6436217783747100
  0.3527351931934428  0.2417334622996560  0.6436217783747100
  0.3777351931934426  0.2417334622996560  0.6436217783747100
  0.4027351931934427  0.2417334622996560  0.6436217783747100
  0.4277351931934427  0.2417334622996560  0.6436217783747100
  0.4527351931934427  0.2417334622996560  0.6436217783747100
  0.4777351931934429  0.2417334622996560  0.6436217783747100
  0.5027351931934428  0.2417334622996560  0.6436217783747100
  0.5277351931934428  0.2417334622996560  0.6436217783747100
  0.5527351931934429  0.2417334622996560  0.6436217783747100
  0.5777351931934428  0.2417334622996560  0.6436217783747100
  0.6027351931934428  0.2417334622996560  0.6436217783747100
  0.6277351931934428  0.2417334622996560  0.6436217783747100
  0.6527351931934430  0.2417334622996560  0.6436217783747100
  0.6777351931934428  0.2417334622996560  0.6436217783747100
  0.7027351931934428  0.2417334622996560  0.6436217783747100
  0.7277351931934428  0.2417334622996560  0.6436217783747100
  0.7527351931934430  0.2417334622996560  0.6436217783747100
  0.7777351931934429  0.2417334622996560  0.6436217783747100
  0.8027351931934428  0.2417334622996560  0.6436217783747100
  0.8277351931934428  0.2417334622996560  0.6436217783747100
  0.8527351931934429  0.2417334622996560  0.6436217783747100
  0.8777351931934427  0.2417334622996560  0.6436217783747100
  0.9027351931934430  0.2417334622996560  0.6436217783747100
  0.9277351931934427  0.2417334622996560  0.6436217783747100
  0.9527351931934426  0.2417334622996560  0.6436217783747100
  0.9777351931934427  0.2417334622996560  0.6436217783747100
  0.0027351931934428  0.2667334622996560  0.6436217783747100
  0.0277351931934428  0.2667334622996560  0.6436217783747100
  0.0527351931934428  0.2667334622996560  0.6436217783747100
  0.0777351931934428  0.2667334622996560  0.6436217783747100
  0.1027351931934428  0.2667334622996560  0.6436217783747100
  0.1277351931934428  0.2667334622996560  0.6436217783747100
  0.1527351931934428  0.2667334622996560  0.6436217783747100
  0.1777351931934428  0.2667334622996560  0.6436217783747100
  0.2027351931934428  0.2667334622996560  0.6436217783747100
  0.2277351931934428  0.2667334622996560  0.6436217783747100
  0.2527351931934428  0.2667334622996560  0.6436217783747100
  0.2777351931934428  0.2667334622996560  0.6436217783747100
  0.3027351931934428  0.2667334622996560  0.6436217783747100
  0.3277351931934427  0.2667334622996560  0.6436217783747100
  0.3527351931934428  0.2667334622996560  0.6436217783747100
  0.3777351931934427  0.2667334622996560  0.6436217783747100
  0.4027351931934428  0.2667334622996560  0.6436217783747100
  0.4277351931934427  0.2667334622996560  0.6436217783747100
  0.4527351931934427  0.2667334622996560  0.6436217783747100
  0.4777351931934429  0.2667334622996560  0.6436217783747100
  0.5027351931934428  0.2667334622996560  0.6436217783747100
  0.5277351931934426  0.2667334622996560  0.6436217783747100
  0.5527351931934428  0.2667334622996560  0.6436217783747100
  0.5777351931934428  0.2667334622996560  0.6436217783747100
  0.6027351931934428  0.2667334622996560  0.6436217783747100
  0.6277351931934427  0.2667334622996560  0.6436217783747100
  0.6527351931934429  0.2667334622996560  0.6436217783747100
  0.6777351931934428  0.2667334622996560  0.6436217783747100
  0.7027351931934428  0.2667334622996560  0.6436217783747100
  0.7277351931934427  0.2667334622996560  0.6436217783747100
  0.7527351931934428  0.2667334622996560  0.6436217783747100
  0.7777351931934429  0.2667334622996560  0.6436217783747100
  0.8027351931934428  0.2667334622996560  0.6436217783747100
  0.8277351931934426  0.2667334622996560  0.6436217783747100
  0.8527351931934427  0.2667334622996560  0.6436217783747100
  0.8777351931934428  0.2667334622996560  0.6436217783747100
  0.9027351931934428  0.2667334622996560  0.6436217783747100
  0.9277351931934429  0.2667334622996560  0.6436217783747100
  0.9527351931934428  0.2667334622996560  0.6436217783747100
  0.9777351931934427  0.2667334622996560  0.6436217783747100
  0.0027351931934428  0.2917334622996560  0.6436217783747100
  0.0277351931934428  0.2917334622996560  0.6436217783747100
  0.0527351931934428  0.2917334622996560  0.6436217783747100
  0.0777351931934428  0.2917334622996560  0.6436217783747100
  0.1027351931934428  0.2917334622996560  0.6436217783747100
  0.1277351931934428  0.2917334622996560  0.6436217783747100
  0.1527351931934427  0.2917334622996560  0.6436217783747100
  0.1777351931934428  0.2917334622996560  0.6436217783747100
  0.2027351931934427  0.2917334622996560  0.6436217783747100
  0.2277351931934427  0.2917334622996560  0.6436217783747100
  0.2527351931934427  0.2917334622996560  0.6436217783747100
  0.2777351931934428  0.2917334622996560  0.6436217783747100
  0.3027351931934428  0.2917334622996560  0.6436217783747100
  0.3277351931934428  0.2917334622996560  0.6436217783747100
  0.3527351931934428  0.2917334622996560  0.6436217783747100
  0.3777351931934427  0.2917334622996560  0.6436217783747100
  0.4027351931934429  0.2917334622996560  0.6436217783747100
  0.4277351931934429  0.2917334622996560  0.6436217783747100
  0.4527351931934429  0.2917334622996560  0.6436217783747100
  0.4777351931934428  0.2917334622996560  0.6436217783747100
  0.5027351931934428  0.2917334622996560  0.6436217783747100
  0.5277351931934428  0.2917334622996560  0.6436217783747100
  0.5527351931934429  0.2917334622996560  0.6436217783747100
  0.5777351931934428  0.2917334622996560  0.6436217783747100
  0.6027351931934428  0.2917334622996560  0.6436217783747100
  0.6277351931934428  0.2917334622996560  0.6436217783747100
  0.6527351931934429  0.2917334622996560  0.6436217783747100
  0.6777351931934428  0.2917334622996560  0.6436217783747100
  0.7027351931934428  0.2917334622996560  0.6436217783747100
  0.7277351931934428  0.2917334622996560  0.6436217783747100
  0.7527351931934428  0.2917334622996560  0.6436217783747100
  0.7777351931934429  0.2917334622996560  0.6436217783747100
  0.8027351931934429  0.2917334622996560  0.6436217783747100
  0.8277351931934428  0.2917334622996560  0.6436217783747100
  0.8527351931934428  0.2917334622996560  0.6436217783747100
  0.8777351931934430  0.2917334622996560  0.6436217783747100
  0.9027351931934429  0.2917334622996560  0.6436217783747100
  0.9277351931934430  0.2917334622996560  0.6436217783747100
  0.9527351931934429  0.2917334622996560  0.6436217783747100
  0.9777351931934430  0.2917334622996560  0.6436217783747100
  0.0027351931934428  0.3167334622996561  0.6436217783747100
  0.0277351931934427  0.3167334622996561  0.6436217783747100
  0.0527351931934427  0.3167334622996561  0.6436217783747100
  0.0777351931934427  0.3167334622996561  0.6436217783747100
  0.1027351931934428  0.3167334622996561  0.6436217783747100
  0.1277351931934428  0.3167334622996561  0.6436217783747100
  0.1527351931934428  0.3167334622996561  0.6436217783747100
  0.1777351931934428  0.3167334622996561  0.6436217783747100
  0.2027351931934428  0.3167334622996561  0.6436217783747100
  0.2277351931934428  0.3167334622996561  0.6436217783747100
  0.2527351931934427  0.3167334622996561  0.6436217783747100
  0.2777351931934428  0.3167334622996561  0.6436217783747100
  0.3027351931934428  0.3167334622996561  0.6436217783747100
  0.3277351931934427  0.3167334622996561  0.6436217783747100
  0.3527351931934427  0.3167334622996561  0.6436217783747100
  0.3777351931934427  0.3167334622996561  0.6436217783747100
  0.4027351931934428  0.3167334622996561  0.6436217783747100
  0.4277351931934428  0.3167334622996561  0.6436217783747100
  0.4527351931934428  0.3167334622996561  0.6436217783747100
  0.4777351931934428  0.3167334622996561  0.6436217783747100
  0.5027351931934427  0.3167334622996561  0.6436217783747100
  0.5277351931934426  0.3167334622996561  0.6436217783747100
  0.5527351931934428  0.3167334622996561  0.6436217783747100
  0.5777351931934428  0.3167334622996561  0.6436217783747100
  0.6027351931934427  0.3167334622996561  0.6436217783747100
  0.6277351931934427  0.3167334622996561  0.6436217783747100
  0.6527351931934429  0.3167334622996561  0.6436217783747100
  0.6777351931934428  0.3167334622996561  0.6436217783747100
  0.7027351931934427  0.3167334622996561  0.6436217783747100
  0.7277351931934427  0.3167334622996561  0.6436217783747100
  0.7527351931934428  0.3167334622996561  0.6436217783747100
  0.7777351931934429  0.3167334622996561  0.6436217783747100
  0.8027351931934427  0.3167334622996561  0.6436217783747100
  0.8277351931934428  0.3167334622996561  0.6436217783747100
  0.8527351931934428  0.3167334622996561  0.6436217783747100
  0.8777351931934427  0.3167334622996561  0.6436217783747100
  0.9027351931934429  0.3167334622996561  0.6436217783747100
  0.9277351931934428  0.3167334622996561  0.6436217783747100
  0.9527351931934427  0.3167334622996561  0.6436217783747100
  0.9777351931934428  0.3167334622996561  0.6436217783747100
  0.0027351931934428  0.3417334622996560  0.6436217783747100
  0.0277351931934428  0.3417334622996560  0.6436217783747100
  0.0527351931934428  0.3417334622996560  0.6436217783747100
  0.0777351931934428  0.3417334622996560  0.6436217783747100
  0.1027351931934428  0.3417334622996560  0.6436217783747100
  0.1277351931934427  0.3417334622996560  0.6436217783747100
  0.1527351931934428  0.3417334622996560  0.6436217783747100
  0.1777351931934428  0.3417334622996560  0.6436217783747100
  0.2027351931934427  0.3417334622996560  0.6436217783747100
  0.2277351931934427  0.3417334622996560  0.6436217783747100
  0.2527351931934427  0.3417334622996560  0.6436217783747100
  0.2777351931934427  0.3417334622996560  0.6436217783747100
  0.3027351931934428  0.3417334622996560  0.6436217783747100
  0.3277351931934427  0.3417334622996560  0.6436217783747100
  0.3527351931934427  0.3417334622996560  0.6436217783747100
  0.3777351931934427  0.3417334622996560  0.6436217783747100
  0.4027351931934429  0.3417334622996560  0.6436217783747100
  0.4277351931934429  0.3417334622996560  0.6436217783747100
  0.4527351931934428  0.3417334622996560  0.6436217783747100
  0.4777351931934428  0.3417334622996560  0.6436217783747100
  0.5027351931934428  0.3417334622996560  0.6436217783747100
  0.5277351931934428  0.3417334622996560  0.6436217783747100
  0.5527351931934428  0.3417334622996560  0.6436217783747100
  0.5777351931934428  0.3417334622996560  0.6436217783747100
  0.6027351931934428  0.3417334622996560  0.6436217783747100
  0.6277351931934428  0.3417334622996560  0.6436217783747100
  0.6527351931934429  0.3417334622996560  0.6436217783747100
  0.6777351931934428  0.3417334622996560  0.6436217783747100
  0.7027351931934428  0.3417334622996560  0.6436217783747100
  0.7277351931934428  0.3417334622996560  0.6436217783747100
  0.7527351931934428  0.3417334622996560  0.6436217783747100
  0.7777351931934430  0.3417334622996560  0.6436217783747100
  0.8027351931934429  0.3417334622996560  0.6436217783747100
  0.8277351931934428  0.3417334622996560  0.6436217783747100
  0.8527351931934429  0.3417334622996560  0.6436217783747100
  0.8777351931934428  0.3417334622996560  0.6436217783747100
  0.9027351931934428  0.3417334622996560  0.6436217783747100
  0.9277351931934429  0.3417334622996560  0.6436217783747100
  0.9527351931934428  0.3417334622996560  0.6436217783747100
  0.9777351931934429  0.3417334622996560  0.6436217783747100
  0.0027351931934428  0.3667334622996560  0.6436217783747100
  0.0277351931934428  0.3667334622996560  0.6436217783747100
  0.0527351931934428  0.3667334622996560  0.6436217783747100
  0.0777351931934428  0.3667334622996560  0.6436217783747100
  0.1027351931934428  0.3667334622996560  0.6436217783747100
  0.1277351931934428  0.3667334622996560  0.6436217783747100
  0.1527351931934428  0.3667334622996560  0.6436217783747100
  0.1777351931934428  0.3667334622996560  0.6436217783747100
  0.2027351931934428  0.3667334622996560  0.6436217783747100
  0.2277351931934428  0.3667334622996560  0.6436217783747100
  0.2527351931934428  0.3667334622996560  0.6436217783747100
  0.2777351931934428  0.3667334622996560  0.6436217783747100
  0.3027351931934428  0.3667334622996560  0.6436217783747100
  0.3277351931934427  0.3667334622996560  0.6436217783747100
  0.3527351931934428  0.3667334622996560  0.6436217783747100
  0.3777351931934428  0.3667334622996560  0.6436217783747100
  0.4027351931934428  0.3667334622996560  0.6436217783747100
  0.4277351931934428  0.3667334622996560  0.6436217783747100
  0.4527351931934429  0.3667334622996560  0.6436217783747100
  0.4777351931934428  0.3667334622996560  0.6436217783747100
  0.5027351931934428  0.3667334622996560  0.6436217783747100
  0.5277351931934428  0.3667334622996560  0.6436217783747100
  0.5527351931934429  0.3667334622996560  0.6436217783747100
  0.5777351931934428  0.3667334622996560  0.6436217783747100
  0.6027351931934428  0.3667334622996560  0.6436217783747100
  0.6277351931934428  0.3667334622996560  0.6436217783747100
  0.6527351931934430  0.3667334622996560  0.6436217783747100
  0.6777351931934428  0.3667334622996560  0.6436217783747100
  0.7027351931934428  0.3667334622996560  0.6436217783747100
  0.7277351931934428  0.3667334622996560  0.6436217783747100
  0.7527351931934431  0.3667334622996560  0.6436217783747100
  0.7777351931934429  0.3667334622996560  0.6436217783747100
  0.8027351931934428  0.3667334622996560  0.6436217783747100
  0.8277351931934429  0.3667334622996560  0.6436217783747100
  0.8527351931934430  0.3667334622996560  0.6436217783747100
  0.8777351931934430  0.3667334622996560  0.6436217783747100
  0.9027351931934431  0.3667334622996560  0.6436217783747100
  0.9277351931934428  0.3667334622996560  0.6436217783747100
  0.9527351931934427  0.3667334622996560  0.6436217783747100
  0.9777351931934428  0.3667334622996560  0.6436217783747100
  0.0027351931934427  0.3917334622996561  0.6436217783747100
  0.0277351931934428  0.3917334622996561  0.6436217783747100
  0.0527351931934428  0.3917334622996561  0.6436217783747100
  0.0777351931934428  0.3917334622996561  0.6436217783747100
  0.1027351931934427  0.3917334622996561  0.6436217783747100
  0.1277351931934428  0.3917334622996561  0.6436217783747100
  0.1527351931934427  0.3917334622996561  0.6436217783747100
  0.1777351931934428  0.3917334622996561  0.6436217783747100
  0.2027351931934427  0.3917334622996561  0.6436217783747100
  0.2277351931934427  0.3917334622996561  0.6436217783747100
  0.2527351931934427  0.3917334622996561  0.6436217783747100
  0.2777351931934428  0.3917334622996561  0.6436217783747100
  0.3027351931934427  0.3917334622996561  0.6436217783747100
  0.3277351931934427  0.3917334622996561  0.6436217783747100
  0.3527351931934427  0.3917334622996561  0.6436217783747100
  0.3777351931934427  0.3917334622996561  0.6436217783747100
  0.4027351931934429  0.3917334622996561  0.6436217783747100
  0.4277351931934428  0.3917334622996561  0.6436217783747100
  0.4527351931934428  0.3917334622996561  0.6436217783747100
  0.4777351931934428  0.3917334622996561  0.6436217783747100
  0.5027351931934428  0.3917334622996561  0.6436217783747100
  0.5277351931934426  0.3917334622996561  0.6436217783747100
  0.5527351931934428  0.3917334622996561  0.6436217783747100
  0.5777351931934428  0.3917334622996561  0.6436217783747100
  0.6027351931934428  0.3917334622996561  0.6436217783747100
  0.6277351931934427  0.3917334622996561  0.6436217783747100
  0.6527351931934429  0.3917334622996561  0.6436217783747100
  0.6777351931934428  0.3917334622996561  0.6436217783747100
  0.7027351931934428  0.3917334622996561  0.6436217783747100
  0.7277351931934427  0.3917334622996561  0.6436217783747100
  0.7527351931934428  0.3917334622996561  0.6436217783747100
  0.7777351931934430  0.3917334622996561  0.6436217783747100
  0.8027351931934428  0.3917334622996561  0.6436217783747100
  0.8277351931934427  0.3917334622996561  0.6436217783747100
  0.8527351931934428  0.3917334622996561  0.6436217783747100
  0.8777351931934430  0.3917334622996561  0.6436217783747100
  0.9027351931934429  0.3917334622996561  0.6436217783747100
  0.9277351931934430  0.3917334622996561  0.6436217783747100
  0.9527351931934427  0.3917334622996561  0.6436217783747100
  0.9777351931934428  0.3917334622996561  0.6436217783747100
  0.0027351931934428  0.4167334622996560  0.6436217783747100
  0.0277351931934428  0.4167334622996560  0.6436217783747100
  0.0527351931934428  0.4167334622996560  0.6436217783747100
  0.0777351931934428  0.4167334622996560  0.6436217783747100
  0.1027351931934428  0.4167334622996560  0.6436217783747100
  0.1277351931934428  0.4167334622996560  0.6436217783747100
  0.1527351931934428  0.4167334622996560  0.6436217783747100
  0.1777351931934428  0.4167334622996560  0.6436217783747100
  0.2027351931934427  0.4167334622996560  0.6436217783747100
  0.2277351931934428  0.4167334622996560  0.6436217783747100
  0.2527351931934427  0.4167334622996560  0.6436217783747100
  0.2777351931934428  0.4167334622996560  0.6436217783747100
  0.3027351931934428  0.4167334622996560  0.6436217783747100
  0.3277351931934428  0.4167334622996560  0.6436217783747100
  0.3527351931934428  0.4167334622996560  0.6436217783747100
  0.3777351931934427  0.4167334622996560  0.6436217783747100
  0.4027351931934429  0.4167334622996560  0.6436217783747100
  0.4277351931934429  0.4167334622996560  0.6436217783747100
  0.4527351931934428  0.4167334622996560  0.6436217783747100
  0.4777351931934428  0.4167334622996560  0.6436217783747100
  0.5027351931934428  0.4167334622996560  0.6436217783747100
  0.5277351931934428  0.4167334622996560  0.6436217783747100
  0.5527351931934428  0.4167334622996560  0.6436217783747100
  0.5777351931934428  0.4167334622996560  0.6436217783747100
  0.6027351931934428  0.4167334622996560  0.6436217783747100
  0.6277351931934428  0.4167334622996560  0.6436217783747100
  0.6527351931934429  0.4167334622996560  0.6436217783747100
  0.6777351931934428  0.4167334622996560  0.6436217783747100
  0.7027351931934428  0.4167334622996560  0.6436217783747100
  0.7277351931934429  0.4167334622996560  0.6436217783747100
  0.7527351931934430  0.4167334622996560  0.6436217783747100
  0.7777351931934429  0.4167334622996560  0.6436217783747100
  0.8027351931934427  0.4167334622996560  0.6436217783747100
  0.8277351931934428  0.4167334622996560  0.6436217783747100
  0.8527351931934429  0.4167334622996560  0.6436217783747100
  0.8777351931934428  0.4167334622996560  0.6436217783747100
  0.9027351931934430  0.4167334622996560  0.6436217783747100
  0.9277351931934429  0.4167334622996560  0.6436217783747100
  0.9527351931934428  0.4167334622996560  0.6436217783747100
  0.9777351931934429  0.4167334622996560  0.6436217783747100
  0.0027351931934428  0.4417334622996560  0.6436217783747100
  0.0277351931934428  0.4417334622996560  0.6436217783747100
  0.0527351931934428  0.4417334622996560  0.6436217783747100
  0.0777351931934428  0.4417334622996560  0.6436217783747100
  0.1027351931934428  0.4417334622996560  0.6436217783747100
  0.1277351931934427  0.4417334622996560  0.6436217783747100
  0.1527351931934428  0.4417334622996560  0.6436217783747100
  0.1777351931934428  0.4417334622996560  0.6436217783747100
  0.2027351931934427  0.4417334622996560  0.6436217783747100
  0.2277351931934427  0.4417334622996560  0.6436217783747100
  0.2527351931934428  0.4417334622996560  0.6436217783747100
  0.2777351931934428  0.4417334622996560  0.6436217783747100
  0.3027351931934427  0.4417334622996560  0.6436217783747100
  0.3277351931934427  0.4417334622996560  0.6436217783747100
  0.3527351931934428  0.4417334622996560  0.6436217783747100
  0.3777351931934428  0.4417334622996560  0.6436217783747100
  0.4027351931934428  0.4417334622996560  0.6436217783747100
  0.4277351931934428  0.4417334622996560  0.6436217783747100
  0.4527351931934429  0.4417334622996560  0.6436217783747100
  0.4777351931934429  0.4417334622996560  0.6436217783747100
  0.5027351931934428  0.4417334622996560  0.6436217783747100
  0.5277351931934428  0.4417334622996560  0.6436217783747100
  0.5527351931934429  0.4417334622996560  0.6436217783747100
  0.5777351931934429  0.4417334622996560  0.6436217783747100
  0.6027351931934428  0.4417334622996560  0.6436217783747100
  0.6277351931934428  0.4417334622996560  0.6436217783747100
  0.6527351931934430  0.4417334622996560  0.6436217783747100
  0.6777351931934429  0.4417334622996560  0.6436217783747100
  0.7027351931934428  0.4417334622996560  0.6436217783747100
  0.7277351931934428  0.4417334622996560  0.6436217783747100
  0.7527351931934430  0.4417334622996560  0.6436217783747100
  0.7777351931934430  0.4417334622996560  0.6436217783747100
  0.8027351931934430  0.4417334622996560  0.6436217783747100
  0.8277351931934429  0.4417334622996560  0.6436217783747100
  0.8527351931934428  0.4417334622996560  0.6436217783747100
  0.8777351931934430  0.4417334622996560  0.6436217783747100
  0.9027351931934429  0.4417334622996560  0.6436217783747100
  0.9277351931934430  0.4417334622996560  0.6436217783747100
  0.9527351931934429  0.4417334622996560  0.6436217783747100
  0.9777351931934430  0.4417334622996560  0.6436217783747100
  0.0027351931934428  0.4667334622996560  0.6436217783747100
  0.0277351931934428  0.4667334622996560  0.6436217783747100
  0.0527351931934428  0.4667334622996560  0.6436217783747100
  0.0777351931934428  0.4667334622996560  0.6436217783747100
  0.1027351931934428  0.4667334622996560  0.6436217783747100
  0.1277351931934427  0.4667334622996560  0.6436217783747100
  0.1527351931934428  0.4667334622996560  0.6436217783747100
  0.1777351931934428  0.4667334622996560  0.6436217783747100
  0.2027351931934427  0.4667334622996560  0.6436217783747100
  0.2277351931934427  0.4667334622996560  0.6436217783747100
  0.2527351931934428  0.4667334622996560  0.6436217783747100
  0.2777351931934428  0.4667334622996560  0.6436217783747100
  0.3027351931934428  0.4667334622996560  0.6436217783747100
  0.3277351931934428  0.4667334622996560  0.6436217783747100
  0.3527351931934427  0.4667334622996560  0.6436217783747100
  0.3777351931934427  0.4667334622996560  0.6436217783747100
  0.4027351931934429  0.4667334622996560  0.6436217783747100
  0.4277351931934429  0.4667334622996560  0.6436217783747100
  0.4527351931934428  0.4667334622996560  0.6436217783747100
  0.4777351931934428  0.4667334622996560  0.6436217783747100
  0.5027351931934428  0.4667334622996560  0.6436217783747100
  0.5277351931934428  0.4667334622996560  0.6436217783747100
  0.5527351931934428  0.4667334622996560  0.6436217783747100
  0.5777351931934428  0.4667334622996560  0.6436217783747100
  0.6027351931934428  0.4667334622996560  0.6436217783747100
  0.6277351931934427  0.4667334622996560  0.6436217783747100
  0.6527351931934429  0.4667334622996560  0.6436217783747100
  0.6777351931934428  0.4667334622996560  0.6436217783747100
  0.7027351931934428  0.4667334622996560  0.6436217783747100
  0.7277351931934428  0.4667334622996560  0.6436217783747100
  0.7527351931934430  0.4667334622996560  0.6436217783747100
  0.7777351931934429  0.4667334622996560  0.6436217783747100
  0.8027351931934428  0.4667334622996560  0.6436217783747100
  0.8277351931934429  0.4667334622996560  0.6436217783747100
  0.8527351931934430  0.4667334622996560  0.6436217783747100
  0.8777351931934427  0.4667334622996560  0.6436217783747100
  0.9027351931934429  0.4667334622996560  0.6436217783747100
  0.9277351931934428  0.4667334622996560  0.6436217783747100
  0.9527351931934427  0.4667334622996560  0.6436217783747100
  0.9777351931934428  0.4667334622996560  0.6436217783747100
  0.0027351931934428  0.4917334622996560  0.6436217783747100
  0.0277351931934428  0.4917334622996560  0.6436217783747100
  0.0527351931934428  0.4917334622996560  0.6436217783747100
  0.0777351931934428  0.4917334622996560  0.6436217783747100
  0.1027351931934428  0.4917334622996560  0.6436217783747100
  0.1277351931934428  0.4917334622996560  0.6436217783747100
  0.1527351931934428  0.4917334622996560  0.6436217783747100
  0.1777351931934428  0.4917334622996560  0.6436217783747100
  0.2027351931934428  0.4917334622996560  0.6436217783747100
  0.2277351931934428  0.4917334622996560  0.6436217783747100
  0.2527351931934427  0.4917334622996560  0.6436217783747100
  0.2777351931934427  0.4917334622996560  0.6436217783747100
  0.3027351931934427  0.4917334622996560  0.6436217783747100
  0.3277351931934427  0.4917334622996560  0.6436217783747100
  0.3527351931934428  0.4917334622996560  0.6436217783747100
  0.3777351931934427  0.4917334622996560  0.6436217783747100
  0.4027351931934428  0.4917334622996560  0.6436217783747100
  0.4277351931934428  0.4917334622996560  0.6436217783747100
  0.4527351931934429  0.4917334622996560  0.6436217783747100
  0.4777351931934428  0.4917334622996560  0.6436217783747100
  0.5027351931934428  0.4917334622996560  0.6436217783747100
  0.5277351931934428  0.4917334622996560  0.6436217783747100
  0.5527351931934429  0.4917334622996560  0.6436217783747100
  0.5777351931934428  0.4917334622996560  0.6436217783747100
  0.6027351931934428  0.4917334622996560  0.6436217783747100
  0.6277351931934428  0.4917334622996560  0.6436217783747100
  0.6527351931934430  0.4917334622996560  0.6436217783747100
  0.6777351931934428  0.4917334622996560  0.6436217783747100
  0.7027351931934429  0.4917334622996560  0.6436217783747100
  0.7277351931934428  0.4917334622996560  0.6436217783747100
  0.7527351931934430  0.4917334622996560  0.6436217783747100
  0.7777351931934430  0.4917334622996560  0.6436217783747100
  0.8027351931934429  0.4917334622996560  0.6436217783747100
  0.8277351931934428  0.4917334622996560  0.6436217783747100
  0.8527351931934429  0.4917334622996560  0.6436217783747100
  0.8777351931934431  0.4917334622996560  0.6436217783747100
  0.9027351931934430  0.4917334622996560  0.6436217783747100
  0.9277351931934429  0.4917334622996560  0.6436217783747100
  0.9527351931934428  0.4917334622996560  0.6436217783747100
  0.9777351931934429  0.4917334622996560  0.6436217783747100
  0.0027351931934428  0.5167334622996560  0.6436217783747100
  0.0277351931934428  0.5167334622996560  0.6436217783747100
  0.0527351931934428  0.5167334622996560  0.6436217783747100
  0.0777351931934428  0.5167334622996560  0.6436217783747100
  0.1027351931934428  0.5167334622996560  0.6436217783747100
  0.1277351931934428  0.5167334622996560  0.6436217783747100
  0.1527351931934428  0.5167334622996560  0.6436217783747100
  0.1777351931934428  0.5167334622996560  0.6436217783747100
  0.2027351931934428  0.5167334622996560  0.6436217783747100
  0.2277351931934428  0.5167334622996560  0.6436217783747100
  0.2527351931934427  0.5167334622996560  0.6436217783747100
  0.2777351931934428  0.5167334622996560  0.6436217783747100
  0.3027351931934428  0.5167334622996560  0.6436217783747100
  0.3277351931934427  0.5167334622996560  0.6436217783747100
  0.3527351931934427  0.5167334622996560  0.6436217783747100
  0.3777351931934427  0.5167334622996560  0.6436217783747100
  0.4027351931934429  0.5167334622996560  0.6436217783747100
  0.4277351931934428  0.5167334622996560  0.6436217783747100
  0.4527351931934428  0.5167334622996560  0.6436217783747100
  0.4777351931934428  0.5167334622996560  0.6436217783747100
  0.5027351931934428  0.5167334622996560  0.6436217783747100
  0.5277351931934426  0.5167334622996560  0.6436217783747100
  0.5527351931934428  0.5167334622996560  0.6436217783747100
  0.5777351931934428  0.5167334622996560  0.6436217783747100
  0.6027351931934428  0.5167334622996560  0.6436217783747100
  0.6277351931934427  0.5167334622996560  0.6436217783747100
  0.6527351931934429  0.5167334622996560  0.6436217783747100
  0.6777351931934429  0.5167334622996560  0.6436217783747100
  0.7027351931934428  0.5167334622996560  0.6436217783747100
  0.7277351931934428  0.5167334622996560  0.6436217783747100
  0.7527351931934428  0.5167334622996560  0.6436217783747100
  0.7777351931934428  0.5167334622996560  0.6436217783747100
  0.8027351931934427  0.5167334622996560  0.6436217783747100
  0.8277351931934428  0.5167334622996560  0.6436217783747100
  0.8527351931934429  0.5167334622996560  0.6436217783747100
  0.8777351931934428  0.5167334622996560  0.6436217783747100
  0.9027351931934430  0.5167334622996560  0.6436217783747100
  0.9277351931934429  0.5167334622996560  0.6436217783747100
  0.9527351931934428  0.5167334622996560  0.6436217783747100
  0.9777351931934427  0.5167334622996560  0.6436217783747100
  0.0027351931934428  0.5417334622996560  0.6436217783747100
  0.0277351931934428  0.5417334622996560  0.6436217783747100
  0.0527351931934428  0.5417334622996560  0.6436217783747100
  0.0777351931934428  0.5417334622996560  0.6436217783747100
  0.1027351931934428  0.5417334622996560  0.6436217783747100
  0.1277351931934428  0.5417334622996560  0.6436217783747100
  0.1527351931934428  0.5417334622996560  0.6436217783747100
  0.1777351931934428  0.5417334622996560  0.6436217783747100
  0.2027351931934428  0.5417334622996560  0.6436217783747100
  0.2277351931934428  0.5417334622996560  0.6436217783747100
  0.2527351931934428  0.5417334622996560  0.6436217783747100
  0.2777351931934427  0.5417334622996560  0.6436217783747100
  0.3027351931934428  0.5417334622996560  0.6436217783747100
  0.3277351931934427  0.5417334622996560  0.6436217783747100
  0.3527351931934428  0.5417334622996560  0.6436217783747100
  0.3777351931934427  0.5417334622996560  0.6436217783747100
  0.4027351931934428  0.5417334622996560  0.6436217783747100
  0.4277351931934428  0.5417334622996560  0.6436217783747100
  0.4527351931934427  0.5417334622996560  0.6436217783747100
  0.4777351931934429  0.5417334622996560  0.6436217783747100
  0.5027351931934430  0.5417334622996560  0.6436217783747100
  0.5277351931934429  0.5417334622996560  0.6436217783747100
  0.5527351931934429  0.5417334622996560  0.6436217783747100
  0.5777351931934429  0.5417334622996560  0.6436217783747100
  0.6027351931934429  0.5417334622996560  0.6436217783747100
  0.6277351931934430  0.5417334622996560  0.6436217783747100
  0.6527351931934430  0.5417334622996560  0.6436217783747100
  0.6777351931934428  0.5417334622996560  0.6436217783747100
  0.7027351931934429  0.5417334622996560  0.6436217783747100
  0.7277351931934428  0.5417334622996560  0.6436217783747100
  0.7527351931934430  0.5417334622996560  0.6436217783747100
  0.7777351931934431  0.5417334622996560  0.6436217783747100
  0.8027351931934428  0.5417334622996560  0.6436217783747100
  0.8277351931934427  0.5417334622996560  0.6436217783747100
  0.8527351931934428  0.5417334622996560  0.6436217783747100
  0.8777351931934430  0.5417334622996560  0.6436217783747100
  0.9027351931934429  0.5417334622996560  0.6436217783747100
  0.9277351931934430  0.5417334622996560  0.6436217783747100
  0.9527351931934429  0.5417334622996560  0.6436217783747100
  0.9777351931934428  0.5417334622996560  0.6436217783747100
  0.0027351931934428  0.5667334622996559  0.6436217783747100
  0.0277351931934428  0.5667334622996559  0.6436217783747100
  0.0527351931934428  0.5667334622996559  0.6436217783747100
  0.0777351931934428  0.5667334622996559  0.6436217783747100
  0.1027351931934428  0.5667334622996559  0.6436217783747100
  0.1277351931934427  0.5667334622996559  0.6436217783747100
  0.1527351931934428  0.5667334622996559  0.6436217783747100
  0.1777351931934428  0.5667334622996559  0.6436217783747100
  0.2027351931934428  0.5667334622996559  0.6436217783747100
  0.2277351931934428  0.5667334622996559  0.6436217783747100
  0.2527351931934428  0.5667334622996559  0.6436217783747100
  0.2777351931934428  0.5667334622996559  0.6436217783747100
  0.3027351931934427  0.5667334622996559  0.6436217783747100
  0.3277351931934427  0.5667334622996559  0.6436217783747100
  0.3527351931934428  0.5667334622996559  0.6436217783747100
  0.3777351931934428  0.5667334622996559  0.6436217783747100
  0.4027351931934428  0.5667334622996559  0.6436217783747100
  0.4277351931934428  0.5667334622996559  0.6436217783747100
  0.4527351931934429  0.5667334622996559  0.6436217783747100
  0.4777351931934429  0.5667334622996559  0.6436217783747100
  0.5027351931934428  0.5667334622996559  0.6436217783747100
  0.5277351931934428  0.5667334622996559  0.6436217783747100
  0.5527351931934429  0.5667334622996559  0.6436217783747100
  0.5777351931934429  0.5667334622996559  0.6436217783747100
  0.6027351931934428  0.5667334622996559  0.6436217783747100
  0.6277351931934428  0.5667334622996559  0.6436217783747100
  0.6527351931934431  0.5667334622996559  0.6436217783747100
  0.6777351931934429  0.5667334622996559  0.6436217783747100
  0.7027351931934428  0.5667334622996559  0.6436217783747100
  0.7277351931934429  0.5667334622996559  0.6436217783747100
  0.7527351931934431  0.5667334622996559  0.6436217783747100
  0.7777351931934430  0.5667334622996559  0.6436217783747100
  0.8027351931934429  0.5667334622996559  0.6436217783747100
  0.8277351931934428  0.5667334622996559  0.6436217783747100
  0.8527351931934429  0.5667334622996559  0.6436217783747100
  0.8777351931934428  0.5667334622996559  0.6436217783747100
  0.9027351931934430  0.5667334622996559  0.6436217783747100
  0.9277351931934429  0.5667334622996559  0.6436217783747100
  0.9527351931934428  0.5667334622996559  0.6436217783747100
  0.9777351931934429  0.5667334622996559  0.6436217783747100
  0.0027351931934428  0.5917334622996560  0.6436217783747100
  0.0277351931934428  0.5917334622996560  0.6436217783747100
  0.0527351931934428  0.5917334622996560  0.6436217783747100
  0.0777351931934428  0.5917334622996560  0.6436217783747100
  0.1027351931934428  0.5917334622996560  0.6436217783747100
  0.1277351931934428  0.5917334622996560  0.6436217783747100
  0.1527351931934428  0.5917334622996560  0.6436217783747100
  0.1777351931934428  0.5917334622996560  0.6436217783747100
  0.2027351931934428  0.5917334622996560  0.6436217783747100
  0.2277351931934428  0.5917334622996560  0.6436217783747100
  0.2527351931934427  0.5917334622996560  0.6436217783747100
  0.2777351931934428  0.5917334622996560  0.6436217783747100
  0.3027351931934428  0.5917334622996560  0.6436217783747100
  0.3277351931934428  0.5917334622996560  0.6436217783747100
  0.3527351931934427  0.5917334622996560  0.6436217783747100
  0.3777351931934427  0.5917334622996560  0.6436217783747100
  0.4027351931934429  0.5917334622996560  0.6436217783747100
  0.4277351931934428  0.5917334622996560  0.6436217783747100
  0.4527351931934428  0.5917334622996560  0.6436217783747100
  0.4777351931934428  0.5917334622996560  0.6436217783747100
  0.5027351931934428  0.5917334622996560  0.6436217783747100
  0.5277351931934428  0.5917334622996560  0.6436217783747100
  0.5527351931934428  0.5917334622996560  0.6436217783747100
  0.5777351931934428  0.5917334622996560  0.6436217783747100
  0.6027351931934428  0.5917334622996560  0.6436217783747100
  0.6277351931934427  0.5917334622996560  0.6436217783747100
  0.6527351931934429  0.5917334622996560  0.6436217783747100
  0.6777351931934428  0.5917334622996560  0.6436217783747100
  0.7027351931934429  0.5917334622996560  0.6436217783747100
  0.7277351931934427  0.5917334622996560  0.6436217783747100
  0.7527351931934428  0.5917334622996560  0.6436217783747100
  0.7777351931934430  0.5917334622996560  0.6436217783747100
  0.8027351931934429  0.5917334622996560  0.6436217783747100
  0.8277351931934428  0.5917334622996560  0.6436217783747100
  0.8527351931934429  0.5917334622996560  0.6436217783747100
  0.8777351931934428  0.5917334622996560  0.6436217783747100
  0.9027351931934428  0.5917334622996560  0.6436217783747100
  0.9277351931934429  0.5917334622996560  0.6436217783747100
  0.9527351931934428  0.5917334622996560  0.6436217783747100
  0.9777351931934429  0.5917334622996560  0.6436217783747100
  0.0027351931934427  0.6167334622996560  0.6436217783747100
  0.0277351931934428  0.6167334622996560  0.6436217783747100
  0.0527351931934428  0.6167334622996560  0.6436217783747100
  0.0777351931934428  0.6167334622996560  0.6436217783747100
  0.1027351931934428  0.6167334622996560  0.6436217783747100
  0.1277351931934428  0.6167334622996560  0.6436217783747100
  0.1527351931934428  0.6167334622996560  0.6436217783747100
  0.1777351931934428  0.6167334622996560  0.6436217783747100
  0.2027351931934428  0.6167334622996560  0.6436217783747100
  0.2277351931934428  0.6167334622996560  0.6436217783747100
  0.2527351931934428  0.6167334622996560  0.6436217783747100
  0.2777351931934427  0.6167334622996560  0.6436217783747100
  0.3027351931934428  0.6167334622996560  0.6436217783747100
  0.3277351931934427  0.6167334622996560  0.6436217783747100
  0.3527351931934429  0.6167334622996560  0.6436217783747100
  0.3777351931934427  0.6167334622996560  0.6436217783747100
  0.4027351931934428  0.6167334622996560  0.6436217783747100
  0.4277351931934428  0.6167334622996560  0.6436217783747100
  0.4527351931934429  0.6167334622996560  0.6436217783747100
  0.4777351931934429  0.6167334622996560  0.6436217783747100
  0.5027351931934430  0.6167334622996560  0.6436217783747100
  0.5277351931934429  0.6167334622996560  0.6436217783747100
  0.5527351931934430  0.6167334622996560  0.6436217783747100
  0.5777351931934429  0.6167334622996560  0.6436217783747100
  0.6027351931934429  0.6167334622996560  0.6436217783747100
  0.6277351931934430  0.6167334622996560  0.6436217783747100
  0.6527351931934430  0.6167334622996560  0.6436217783747100
  0.6777351931934429  0.6167334622996560  0.6436217783747100
  0.7027351931934429  0.6167334622996560  0.6436217783747100
  0.7277351931934428  0.6167334622996560  0.6436217783747100
  0.7527351931934430  0.6167334622996560  0.6436217783747100
  0.7777351931934429  0.6167334622996560  0.6436217783747100
  0.8027351931934428  0.6167334622996560  0.6436217783747100
  0.8277351931934429  0.6167334622996560  0.6436217783747100
  0.8527351931934430  0.6167334622996560  0.6436217783747100
  0.8777351931934430  0.6167334622996560  0.6436217783747100
  0.9027351931934429  0.6167334622996560  0.6436217783747100
  0.9277351931934428  0.6167334622996560  0.6436217783747100
  0.9527351931934427  0.6167334622996560  0.6436217783747100
  0.9777351931934428  0.6167334622996560  0.6436217783747100
  0.0027351931934428  0.6417334622996560  0.6436217783747100
  0.0277351931934428  0.6417334622996560  0.6436217783747100
  0.0527351931934428  0.6417334622996560  0.6436217783747100
  0.0777351931934428  0.6417334622996560  0.6436217783747100
  0.1027351931934428  0.6417334622996560  0.6436217783747100
  0.1277351931934428  0.6417334622996560  0.6436217783747100
  0.1527351931934428  0.6417334622996560  0.6436217783747100
  0.1777351931934428  0.6417334622996560  0.6436217783747100
  0.2027351931934428  0.6417334622996560  0.6436217783747100
  0.2277351931934427  0.6417334622996560  0.6436217783747100
  0.2527351931934427  0.6417334622996560  0.6436217783747100
  0.2777351931934428  0.6417334622996560  0.6436217783747100
  0.3027351931934428  0.6417334622996560  0.6436217783747100
  0.3277351931934427  0.6417334622996560  0.6436217783747100
  0.3527351931934428  0.6417334622996560  0.6436217783747100
  0.3777351931934427  0.6417334622996560  0.6436217783747100
  0.4027351931934428  0.6417334622996560  0.6436217783747100
  0.4277351931934428  0.6417334622996560  0.6436217783747100
  0.4527351931934428  0.6417334622996560  0.6436217783747100
  0.4777351931934429  0.6417334622996560  0.6436217783747100
  0.5027351931934428  0.6417334622996560  0.6436217783747100
  0.5277351931934428  0.6417334622996560  0.6436217783747100
  0.5527351931934429  0.6417334622996560  0.6436217783747100
  0.5777351931934429  0.6417334622996560  0.6436217783747100
  0.6027351931934428  0.6417334622996560  0.6436217783747100
  0.6277351931934427  0.6417334622996560  0.6436217783747100
  0.6527351931934429  0.6417334622996560  0.6436217783747100
  0.6777351931934428  0.6417334622996560  0.6436217783747100
  0.7027351931934429  0.6417334622996560  0.6436217783747100
  0.7277351931934428  0.6417334622996560  0.6436217783747100
  0.7527351931934427  0.6417334622996560  0.6436217783747100
  0.7777351931934429  0.6417334622996560  0.6436217783747100
  0.8027351931934428  0.6417334622996560  0.6436217783747100
  0.8277351931934427  0.6417334622996560  0.6436217783747100
  0.8527351931934428  0.6417334622996560  0.6436217783747100
  0.8777351931934430  0.6417334622996560  0.6436217783747100
  0.9027351931934429  0.6417334622996560  0.6436217783747100
  0.9277351931934430  0.6417334622996560  0.6436217783747100
  0.9527351931934427  0.6417334622996560  0.6436217783747100
  0.9777351931934428  0.6417334622996560  0.6436217783747100
  0.0027351931934428  0.6667334622996560  0.6436217783747100
  0.0277351931934428  0.6667334622996560  0.6436217783747100
  0.0527351931934428  0.6667334622996560  0.6436217783747100
  0.0777351931934428  0.6667334622996560  0.6436217783747100
  0.1027351931934428  0.6667334622996560  0.6436217783747100
  0.1277351931934428  0.6667334622996560  0.6436217783747100
  0.1527351931934428  0.6667334622996560  0.6436217783747100
  0.1777351931934429  0.6667334622996560  0.6436217783747100
  0.2027351931934428  0.6667334622996560  0.6436217783747100
  0.2277351931934428  0.6667334622996560  0.6436217783747100
  0.2527351931934427  0.6667334622996560  0.6436217783747100
  0.2777351931934428  0.6667334622996560  0.6436217783747100
  0.3027351931934429  0.6667334622996560  0.6436217783747100
  0.3277351931934428  0.6667334622996560  0.6436217783747100
  0.3527351931934428  0.6667334622996560  0.6436217783747100
  0.3777351931934427  0.6667334622996560  0.6436217783747100
  0.4027351931934429  0.6667334622996560  0.6436217783747100
  0.4277351931934429  0.6667334622996560  0.6436217783747100
  0.4527351931934428  0.6667334622996560  0.6436217783747100
  0.4777351931934429  0.6667334622996560  0.6436217783747100
  0.5027351931934430  0.6667334622996560  0.6436217783747100
  0.5277351931934429  0.6667334622996560  0.6436217783747100
  0.5527351931934429  0.6667334622996560  0.6436217783747100
  0.5777351931934429  0.6667334622996560  0.6436217783747100
  0.6027351931934428  0.6667334622996560  0.6436217783747100
  0.6277351931934430  0.6667334622996560  0.6436217783747100
  0.6527351931934430  0.6667334622996560  0.6436217783747100
  0.6777351931934429  0.6667334622996560  0.6436217783747100
  0.7027351931934428  0.6667334622996560  0.6436217783747100
  0.7277351931934429  0.6667334622996560  0.6436217783747100
  0.7527351931934431  0.6667334622996560  0.6436217783747100
  0.7777351931934430  0.6667334622996560  0.6436217783747100
  0.8027351931934427  0.6667334622996560  0.6436217783747100
  0.8277351931934428  0.6667334622996560  0.6436217783747100
  0.8527351931934429  0.6667334622996560  0.6436217783747100
  0.8777351931934428  0.6667334622996560  0.6436217783747100
  0.9027351931934430  0.6667334622996560  0.6436217783747100
  0.9277351931934429  0.6667334622996560  0.6436217783747100
  0.9527351931934428  0.6667334622996560  0.6436217783747100
  0.9777351931934429  0.6667334622996560  0.6436217783747100
  0.0027351931934428  0.6917334622996562  0.6436217783747100
  0.0277351931934427  0.6917334622996562  0.6436217783747100
  0.0527351931934428  0.6917334622996562  0.6436217783747100
  0.0777351931934428  0.6917334622996562  0.6436217783747100
  0.1027351931934428  0.6917334622996562  0.6436217783747100
  0.1277351931934428  0.6917334622996562  0.6436217783747100
  0.1527351931934428  0.6917334622996562  0.6436217783747100
  0.1777351931934429  0.6917334622996562  0.6436217783747100
  0.2027351931934428  0.6917334622996562  0.6436217783747100
  0.2277351931934428  0.6917334622996562  0.6436217783747100
  0.2527351931934428  0.6917334622996562  0.6436217783747100
  0.2777351931934428  0.6917334622996562  0.6436217783747100
  0.3027351931934427  0.6917334622996562  0.6436217783747100
  0.3277351931934427  0.6917334622996562  0.6436217783747100
  0.3527351931934428  0.6917334622996562  0.6436217783747100
  0.3777351931934428  0.6917334622996562  0.6436217783747100
  0.4027351931934428  0.6917334622996562  0.6436217783747100
  0.4277351931934428  0.6917334622996562  0.6436217783747100
  0.4527351931934429  0.6917334622996562  0.6436217783747100
  0.4777351931934428  0.6917334622996562  0.6436217783747100
  0.5027351931934428  0.6917334622996562  0.6436217783747100
  0.5277351931934428  0.6917334622996562  0.6436217783747100
  0.5527351931934429  0.6917334622996562  0.6436217783747100
  0.5777351931934428  0.6917334622996562  0.6436217783747100
  0.6027351931934428  0.6917334622996562  0.6436217783747100
  0.6277351931934430  0.6917334622996562  0.6436217783747100
  0.6527351931934431  0.6917334622996562  0.6436217783747100
  0.6777351931934429  0.6917334622996562  0.6436217783747100
  0.7027351931934428  0.6917334622996562  0.6436217783747100
  0.7277351931934429  0.6917334622996562  0.6436217783747100
  0.7527351931934431  0.6917334622996562  0.6436217783747100
  0.7777351931934430  0.6917334622996562  0.6436217783747100
  0.8027351931934429  0.6917334622996562  0.6436217783747100
  0.8277351931934428  0.6917334622996562  0.6436217783747100
  0.8527351931934429  0.6917334622996562  0.6436217783747100
  0.8777351931934428  0.6917334622996562  0.6436217783747100
  0.9027351931934430  0.6917334622996562  0.6436217783747100
  0.9277351931934429  0.6917334622996562  0.6436217783747100
  0.9527351931934428  0.6917334622996562  0.6436217783747100
  0.9777351931934429  0.6917334622996562  0.6436217783747100
  0.0027351931934428  0.7167334622996561  0.6436217783747100
  0.0277351931934428  0.7167334622996561  0.6436217783747100
  0.0527351931934428  0.7167334622996561  0.6436217783747100
  0.0777351931934428  0.7167334622996561  0.6436217783747100
  0.1027351931934428  0.7167334622996561  0.6436217783747100
  0.1277351931934428  0.7167334622996561  0.6436217783747100
  0.1527351931934427  0.7167334622996561  0.6436217783747100
  0.1777351931934427  0.7167334622996561  0.6436217783747100
  0.2027351931934428  0.7167334622996561  0.6436217783747100
  0.2277351931934427  0.7167334622996561  0.6436217783747100
  0.2527351931934427  0.7167334622996561  0.6436217783747100
  0.2777351931934428  0.7167334622996561  0.6436217783747100
  0.3027351931934429  0.7167334622996561  0.6436217783747100
  0.3277351931934427  0.7167334622996561  0.6436217783747100
  0.3527351931934428  0.7167334622996561  0.6436217783747100
  0.3777351931934427  0.7167334622996561  0.6436217783747100
  0.4027351931934429  0.7167334622996561  0.6436217783747100
  0.4277351931934428  0.7167334622996561  0.6436217783747100
  0.4527351931934428  0.7167334622996561  0.6436217783747100
  0.4777351931934429  0.7167334622996561  0.6436217783747100
  0.5027351931934430  0.7167334622996561  0.6436217783747100
  0.5277351931934428  0.7167334622996561  0.6436217783747100
  0.5527351931934429  0.7167334622996561  0.6436217783747100
  0.5777351931934429  0.7167334622996561  0.6436217783747100
  0.6027351931934428  0.7167334622996561  0.6436217783747100
  0.6277351931934428  0.7167334622996561  0.6436217783747100
  0.6527351931934429  0.7167334622996561  0.6436217783747100
  0.6777351931934428  0.7167334622996561  0.6436217783747100
  0.7027351931934427  0.7167334622996561  0.6436217783747100
  0.7277351931934428  0.7167334622996561  0.6436217783747100
  0.7527351931934430  0.7167334622996561  0.6436217783747100
  0.7777351931934429  0.7167334622996561  0.6436217783747100
  0.8027351931934428  0.7167334622996561  0.6436217783747100
  0.8277351931934429  0.7167334622996561  0.6436217783747100
  0.8527351931934428  0.7167334622996561  0.6436217783747100
  0.8777351931934427  0.7167334622996561  0.6436217783747100
  0.9027351931934429  0.7167334622996561  0.6436217783747100
  0.9277351931934428  0.7167334622996561  0.6436217783747100
  0.9527351931934427  0.7167334622996561  0.6436217783747100
  0.9777351931934428  0.7167334622996561  0.6436217783747100
  0.0027351931934428  0.7417334622996560  0.6436217783747100
  0.0277351931934428  0.7417334622996560  0.6436217783747100
  0.0527351931934428  0.7417334622996560  0.6436217783747100
  0.0777351931934428  0.7417334622996560  0.6436217783747100
  0.1027351931934428  0.7417334622996560  0.6436217783747100
  0.1277351931934428  0.7417334622996560  0.6436217783747100
  0.1527351931934428  0.7417334622996560  0.6436217783747100
  0.1777351931934428  0.7417334622996560  0.6436217783747100
  0.2027351931934427  0.7417334622996560  0.6436217783747100
  0.2277351931934428  0.7417334622996560  0.6436217783747100
  0.2527351931934428  0.7417334622996560  0.6436217783747100
  0.2777351931934427  0.7417334622996560  0.6436217783747100
  0.3027351931934428  0.7417334622996560  0.6436217783747100
  0.3277351931934427  0.7417334622996560  0.6436217783747100
  0.3527351931934429  0.7417334622996560  0.6436217783747100
  0.3777351931934427  0.7417334622996560  0.6436217783747100
  0.4027351931934428  0.7417334622996560  0.6436217783747100
  0.4277351931934428  0.7417334622996560  0.6436217783747100
  0.4527351931934429  0.7417334622996560  0.6436217783747100
  0.4777351931934429  0.7417334622996560  0.6436217783747100
  0.5027351931934428  0.7417334622996560  0.6436217783747100
  0.5277351931934428  0.7417334622996560  0.6436217783747100
  0.5527351931934428  0.7417334622996560  0.6436217783747100
  0.5777351931934427  0.7417334622996560  0.6436217783747100
  0.6027351931934428  0.7417334622996560  0.6436217783747100
  0.6277351931934427  0.7417334622996560  0.6436217783747100
  0.6527351931934429  0.7417334622996560  0.6436217783747100
  0.6777351931934428  0.7417334622996560  0.6436217783747100
  0.7027351931934427  0.7417334622996560  0.6436217783747100
  0.7277351931934426  0.7417334622996560  0.6436217783747100
  0.7527351931934427  0.7417334622996560  0.6436217783747100
  0.7777351931934429  0.7417334622996560  0.6436217783747100
  0.8027351931934428  0.7417334622996560  0.6436217783747100
  0.8277351931934427  0.7417334622996560  0.6436217783747100
  0.8527351931934428  0.7417334622996560  0.6436217783747100
  0.8777351931934430  0.7417334622996560  0.6436217783747100
  0.9027351931934426  0.7417334622996560  0.6436217783747100
  0.9277351931934428  0.7417334622996560  0.6436217783747100
  0.9527351931934427  0.7417334622996560  0.6436217783747100
  0.9777351931934428  0.7417334622996560  0.6436217783747100
  0.0027351931934428  0.7667334622996560  0.6436217783747100
  0.0277351931934428  0.7667334622996560  0.6436217783747100
  0.0527351931934428  0.7667334622996560  0.6436217783747100
  0.0777351931934428  0.7667334622996560  0.6436217783747100
  0.1027351931934428  0.7667334622996560  0.6436217783747100
  0.1277351931934427  0.7667334622996560  0.6436217783747100
  0.1527351931934428  0.7667334622996560  0.6436217783747100
  0.1777351931934429  0.7667334622996560  0.6436217783747100
  0.2027351931934428  0.7667334622996560  0.6436217783747100
  0.2277351931934427  0.7667334622996560  0.6436217783747100
  0.2527351931934427  0.7667334622996560  0.6436217783747100
  0.2777351931934428  0.7667334622996560  0.6436217783747100
  0.3027351931934428  0.7667334622996560  0.6436217783747100
  0.3277351931934427  0.7667334622996560  0.6436217783747100
  0.3527351931934428  0.7667334622996560  0.6436217783747100
  0.3777351931934427  0.7667334622996560  0.6436217783747100
  0.4027351931934428  0.7667334622996560  0.6436217783747100
  0.4277351931934428  0.7667334622996560  0.6436217783747100
  0.4527351931934428  0.7667334622996560  0.6436217783747100
  0.4777351931934429  0.7667334622996560  0.6436217783747100
  0.5027351931934428  0.7667334622996560  0.6436217783747100
  0.5277351931934428  0.7667334622996560  0.6436217783747100
  0.5527351931934428  0.7667334622996560  0.6436217783747100
  0.5777351931934429  0.7667334622996560  0.6436217783747100
  0.6027351931934427  0.7667334622996560  0.6436217783747100
  0.6277351931934428  0.7667334622996560  0.6436217783747100
  0.6527351931934430  0.7667334622996560  0.6436217783747100
  0.6777351931934429  0.7667334622996560  0.6436217783747100
  0.7027351931934428  0.7667334622996560  0.6436217783747100
  0.7277351931934429  0.7667334622996560  0.6436217783747100
  0.7527351931934428  0.7667334622996560  0.6436217783747100
  0.7777351931934428  0.7667334622996560  0.6436217783747100
  0.8027351931934427  0.7667334622996560  0.6436217783747100
  0.8277351931934428  0.7667334622996560  0.6436217783747100
  0.8527351931934429  0.7667334622996560  0.6436217783747100
  0.8777351931934428  0.7667334622996560  0.6436217783747100
  0.9027351931934430  0.7667334622996560  0.6436217783747100
  0.9277351931934429  0.7667334622996560  0.6436217783747100
  0.9527351931934426  0.7667334622996560  0.6436217783747100
  0.9777351931934427  0.7667334622996560  0.6436217783747100
  0.0027351931934428  0.7917334622996560  0.6436217783747100
  0.0277351931934428  0.7917334622996560  0.6436217783747100
  0.0527351931934428  0.7917334622996560  0.6436217783747100
  0.0777351931934427  0.7917334622996560  0.6436217783747100
  0.1027351931934429  0.7917334622996560  0.6436217783747100
  0.1277351931934429  0.7917334622996560  0.6436217783747100
  0.1527351931934428  0.7917334622996560  0.6436217783747100
  0.1777351931934428  0.7917334622996560  0.6436217783747100
  0.2027351931934429  0.7917334622996560  0.6436217783747100
  0.2277351931934429  0.7917334622996560  0.6436217783747100
  0.2527351931934428  0.7917334622996560  0.6436217783747100
  0.2777351931934428  0.7917334622996560  0.6436217783747100
  0.3027351931934428  0.7917334622996560  0.6436217783747100
  0.3277351931934429  0.7917334622996560  0.6436217783747100
  0.3527351931934428  0.7917334622996560  0.6436217783747100
  0.3777351931934428  0.7917334622996560  0.6436217783747100
  0.4027351931934429  0.7917334622996560  0.6436217783747100
  0.4277351931934428  0.7917334622996560  0.6436217783747100
  0.4527351931934429  0.7917334622996560  0.6436217783747100
  0.4777351931934429  0.7917334622996560  0.6436217783747100
  0.5027351931934428  0.7917334622996560  0.6436217783747100
  0.5277351931934428  0.7917334622996560  0.6436217783747100
  0.5527351931934428  0.7917334622996560  0.6436217783747100
  0.5777351931934429  0.7917334622996560  0.6436217783747100
  0.6027351931934428  0.7917334622996560  0.6436217783747100
  0.6277351931934428  0.7917334622996560  0.6436217783747100
  0.6527351931934430  0.7917334622996560  0.6436217783747100
  0.6777351931934429  0.7917334622996560  0.6436217783747100
  0.7027351931934428  0.7917334622996560  0.6436217783747100
  0.7277351931934429  0.7917334622996560  0.6436217783747100
  0.7527351931934431  0.7917334622996560  0.6436217783747100
  0.7777351931934428  0.7917334622996560  0.6436217783747100
  0.8027351931934427  0.7917334622996560  0.6436217783747100
  0.8277351931934428  0.7917334622996560  0.6436217783747100
  0.8527351931934429  0.7917334622996560  0.6436217783747100
  0.8777351931934428  0.7917334622996560  0.6436217783747100
  0.9027351931934430  0.7917334622996560  0.6436217783747100
  0.9277351931934429  0.7917334622996560  0.6436217783747100
  0.9527351931934428  0.7917334622996560  0.6436217783747100
  0.9777351931934427  0.7917334622996560  0.6436217783747100
  0.0027351931934428  0.8167334622996560  0.6436217783747100
  0.0277351931934428  0.8167334622996560  0.6436217783747100
  0.0527351931934428  0.8167334622996560  0.6436217783747100
  0.0777351931934429  0.8167334622996560  0.6436217783747100
  0.1027351931934428  0.8167334622996560  0.6436217783747100
  0.1277351931934428  0.8167334622996560  0.6436217783747100
  0.1527351931934429  0.8167334622996560  0.6436217783747100
  0.1777351931934428  0.8167334622996560  0.6436217783747100
  0.2027351931934428  0.8167334622996560  0.6436217783747100
  0.2277351931934428  0.8167334622996560  0.6436217783747100
  0.2527351931934428  0.8167334622996560  0.6436217783747100
  0.2777351931934428  0.8167334622996560  0.6436217783747100
  0.3027351931934428  0.8167334622996560  0.6436217783747100
  0.3277351931934428  0.8167334622996560  0.6436217783747100
  0.3527351931934428  0.8167334622996560  0.6436217783747100
  0.3777351931934427  0.8167334622996560  0.6436217783747100
  0.4027351931934429  0.8167334622996560  0.6436217783747100
  0.4277351931934429  0.8167334622996560  0.6436217783747100
  0.4527351931934429  0.8167334622996560  0.6436217783747100
  0.4777351931934428  0.8167334622996560  0.6436217783747100
  0.5027351931934428  0.8167334622996560  0.6436217783747100
  0.5277351931934429  0.8167334622996560  0.6436217783747100
  0.5527351931934430  0.8167334622996560  0.6436217783747100
  0.5777351931934428  0.8167334622996560  0.6436217783747100
  0.6027351931934430  0.8167334622996560  0.6436217783747100
  0.6277351931934427  0.8167334622996560  0.6436217783747100
  0.6527351931934429  0.8167334622996560  0.6436217783747100
  0.6777351931934428  0.8167334622996560  0.6436217783747100
  0.7027351931934429  0.8167334622996560  0.6436217783747100
  0.7277351931934428  0.8167334622996560  0.6436217783747100
  0.7527351931934430  0.8167334622996560  0.6436217783747100
  0.7777351931934431  0.8167334622996560  0.6436217783747100
  0.8027351931934430  0.8167334622996560  0.6436217783747100
  0.8277351931934427  0.8167334622996560  0.6436217783747100
  0.8527351931934428  0.8167334622996560  0.6436217783747100
  0.8777351931934430  0.8167334622996560  0.6436217783747100
  0.9027351931934429  0.8167334622996560  0.6436217783747100
  0.9277351931934430  0.8167334622996560  0.6436217783747100
  0.9527351931934429  0.8167334622996560  0.6436217783747100
  0.9777351931934430  0.8167334622996560  0.6436217783747100
  0.0027351931934427  0.8417334622996561  0.6436217783747100
  0.0277351931934428  0.8417334622996561  0.6436217783747100
  0.0527351931934427  0.8417334622996561  0.6436217783747100
  0.0777351931934428  0.8417334622996561  0.6436217783747100
  0.1027351931934428  0.8417334622996561  0.6436217783747100
  0.1277351931934427  0.8417334622996561  0.6436217783747100
  0.1527351931934427  0.8417334622996561  0.6436217783747100
  0.1777351931934428  0.8417334622996561  0.6436217783747100
  0.2027351931934427  0.8417334622996561  0.6436217783747100
  0.2277351931934427  0.8417334622996561  0.6436217783747100
  0.2527351931934427  0.8417334622996561  0.6436217783747100
  0.2777351931934427  0.8417334622996561  0.6436217783747100
  0.3027351931934428  0.8417334622996561  0.6436217783747100
  0.3277351931934426  0.8417334622996561  0.6436217783747100
  0.3527351931934428  0.8417334622996561  0.6436217783747100
  0.3777351931934427  0.8417334622996561  0.6436217783747100
  0.4027351931934428  0.8417334622996561  0.6436217783747100
  0.4277351931934427  0.8417334622996561  0.6436217783747100
  0.4527351931934427  0.8417334622996561  0.6436217783747100
  0.4777351931934429  0.8417334622996561  0.6436217783747100
  0.5027351931934430  0.8417334622996561  0.6436217783747100
  0.5277351931934428  0.8417334622996561  0.6436217783747100
  0.5527351931934429  0.8417334622996561  0.6436217783747100
  0.5777351931934428  0.8417334622996561  0.6436217783747100
  0.6027351931934429  0.8417334622996561  0.6436217783747100
  0.6277351931934428  0.8417334622996561  0.6436217783747100
  0.6527351931934430  0.8417334622996561  0.6436217783747100
  0.6777351931934427  0.8417334622996561  0.6436217783747100
  0.7027351931934428  0.8417334622996561  0.6436217783747100
  0.7277351931934427  0.8417334622996561  0.6436217783747100
  0.7527351931934428  0.8417334622996561  0.6436217783747100
  0.7777351931934430  0.8417334622996561  0.6436217783747100
  0.8027351931934429  0.8417334622996561  0.6436217783747100
  0.8277351931934428  0.8417334622996561  0.6436217783747100
  0.8527351931934427  0.8417334622996561  0.6436217783747100
  0.8777351931934428  0.8417334622996561  0.6436217783747100
  0.9027351931934428  0.8417334622996561  0.6436217783747100
  0.9277351931934429  0.8417334622996561  0.6436217783747100
  0.9527351931934428  0.8417334622996561  0.6436217783747100
  0.9777351931934429  0.8417334622996561  0.6436217783747100
  0.0027351931934427  0.8667334622996561  0.6436217783747100
  0.0277351931934428  0.8667334622996561  0.6436217783747100
  0.0527351931934427  0.8667334622996561  0.6436217783747100
  0.0777351931934427  0.8667334622996561  0.6436217783747100
  0.1027351931934428  0.8667334622996561  0.6436217783747100
  0.1277351931934428  0.8667334622996561  0.6436217783747100
  0.1527351931934428  0.8667334622996561  0.6436217783747100
  0.1777351931934428  0.8667334622996561  0.6436217783747100
  0.2027351931934428  0.8667334622996561  0.6436217783747100
  0.2277351931934428  0.8667334622996561  0.6436217783747100
  0.2527351931934427  0.8667334622996561  0.6436217783747100
  0.2777351931934428  0.8667334622996561  0.6436217783747100
  0.3027351931934428  0.8667334622996561  0.6436217783747100
  0.3277351931934428  0.8667334622996561  0.6436217783747100
  0.3527351931934427  0.8667334622996561  0.6436217783747100
  0.3777351931934427  0.8667334622996561  0.6436217783747100
  0.4027351931934429  0.8667334622996561  0.6436217783747100
  0.4277351931934429  0.8667334622996561  0.6436217783747100
  0.4527351931934428  0.8667334622996561  0.6436217783747100
  0.4777351931934428  0.8667334622996561  0.6436217783747100
  0.5027351931934430  0.8667334622996561  0.6436217783747100
  0.5277351931934429  0.8667334622996561  0.6436217783747100
  0.5527351931934429  0.8667334622996561  0.6436217783747100
  0.5777351931934428  0.8667334622996561  0.6436217783747100
  0.6027351931934429  0.8667334622996561  0.6436217783747100
  0.6277351931934428  0.8667334622996561  0.6436217783747100
  0.6527351931934430  0.8667334622996561  0.6436217783747100
  0.6777351931934429  0.8667334622996561  0.6436217783747100
  0.7027351931934428  0.8667334622996561  0.6436217783747100
  0.7277351931934427  0.8667334622996561  0.6436217783747100
  0.7527351931934428  0.8667334622996561  0.6436217783747100
  0.7777351931934430  0.8667334622996561  0.6436217783747100
  0.8027351931934429  0.8667334622996561  0.6436217783747100
  0.8277351931934428  0.8667334622996561  0.6436217783747100
  0.8527351931934429  0.8667334622996561  0.6436217783747100
  0.8777351931934428  0.8667334622996561  0.6436217783747100
  0.9027351931934428  0.8667334622996561  0.6436217783747100
  0.9277351931934429  0.8667334622996561  0.6436217783747100
  0.9527351931934428  0.8667334622996561  0.6436217783747100
  0.9777351931934429  0.8667334622996561  0.6436217783747100
  0.0027351931934428  0.8917334622996561  0.6436217783747100
  0.0277351931934427  0.8917334622996561  0.6436217783747100
  0.0527351931934429  0.8917334622996561  0.6436217783747100
  0.0777351931934429  0.8917334622996561  0.6436217783747100
  0.1027351931934428  0.8917334622996561  0.6436217783747100
  0.1277351931934428  0.8917334622996561  0.6436217783747100
  0.1527351931934428  0.8917334622996561  0.6436217783747100
  0.1777351931934429  0.8917334622996561  0.6436217783747100
  0.2027351931934428  0.8917334622996561  0.6436217783747100
  0.2277351931934428  0.8917334622996561  0.6436217783747100
  0.2527351931934428  0.8917334622996561  0.6436217783747100
  0.2777351931934428  0.8917334622996561  0.6436217783747100
  0.3027351931934427  0.8917334622996561  0.6436217783747100
  0.3277351931934427  0.8917334622996561  0.6436217783747100
  0.3527351931934428  0.8917334622996561  0.6436217783747100
  0.3777351931934428  0.8917334622996561  0.6436217783747100
  0.4027351931934428  0.8917334622996561  0.6436217783747100
  0.4277351931934428  0.8917334622996561  0.6436217783747100
  0.4527351931934429  0.8917334622996561  0.6436217783747100
  0.4777351931934429  0.8917334622996561  0.6436217783747100
  0.5027351931934428  0.8917334622996561  0.6436217783747100
  0.5277351931934428  0.8917334622996561  0.6436217783747100
  0.5527351931934429  0.8917334622996561  0.6436217783747100
  0.5777351931934429  0.8917334622996561  0.6436217783747100
  0.6027351931934428  0.8917334622996561  0.6436217783747100
  0.6277351931934430  0.8917334622996561  0.6436217783747100
  0.6527351931934431  0.8917334622996561  0.6436217783747100
  0.6777351931934430  0.8917334622996561  0.6436217783747100
  0.7027351931934429  0.8917334622996561  0.6436217783747100
  0.7277351931934428  0.8917334622996561  0.6436217783747100
  0.7527351931934430  0.8917334622996561  0.6436217783747100
  0.7777351931934429  0.8917334622996561  0.6436217783747100
  0.8027351931934428  0.8917334622996561  0.6436217783747100
  0.8277351931934429  0.8917334622996561  0.6436217783747100
  0.8527351931934430  0.8917334622996561  0.6436217783747100
  0.8777351931934430  0.8917334622996561  0.6436217783747100
  0.9027351931934431  0.8917334622996561  0.6436217783747100
  0.9277351931934428  0.8917334622996561  0.6436217783747100
  0.9527351931934427  0.8917334622996561  0.6436217783747100
  0.9777351931934428  0.8917334622996561  0.6436217783747100
  0.0027351931934428  0.9167334622996560  0.6436217783747100
  0.0277351931934428  0.9167334622996560  0.6436217783747100
  0.0527351931934428  0.9167334622996560  0.6436217783747100
  0.0777351931934428  0.9167334622996560  0.6436217783747100
  0.1027351931934428  0.9167334622996560  0.6436217783747100
  0.1277351931934429  0.9167334622996560  0.6436217783747100
  0.1527351931934428  0.9167334622996560  0.6436217783747100
  0.1777351931934428  0.9167334622996560  0.6436217783747100
  0.2027351931934428  0.9167334622996560  0.6436217783747100
  0.2277351931934428  0.9167334622996560  0.6436217783747100
  0.2527351931934427  0.9167334622996560  0.6436217783747100
  0.2777351931934428  0.9167334622996560  0.6436217783747100
  0.3027351931934428  0.9167334622996560  0.6436217783747100
  0.3277351931934428  0.9167334622996560  0.6436217783747100
  0.3527351931934427  0.9167334622996560  0.6436217783747100
  0.3777351931934427  0.9167334622996560  0.6436217783747100
  0.4027351931934429  0.9167334622996560  0.6436217783747100
  0.4277351931934428  0.9167334622996560  0.6436217783747100
  0.4527351931934428  0.9167334622996560  0.6436217783747100
  0.4777351931934428  0.9167334622996560  0.6436217783747100
  0.5027351931934430  0.9167334622996560  0.6436217783747100
  0.5277351931934428  0.9167334622996560  0.6436217783747100
  0.5527351931934430  0.9167334622996560  0.6436217783747100
  0.5777351931934427  0.9167334622996560  0.6436217783747100
  0.6027351931934428  0.9167334622996560  0.6436217783747100
  0.6277351931934427  0.9167334622996560  0.6436217783747100
  0.6527351931934429  0.9167334622996560  0.6436217783747100
  0.6777351931934428  0.9167334622996560  0.6436217783747100
  0.7027351931934429  0.9167334622996560  0.6436217783747100
  0.7277351931934428  0.9167334622996560  0.6436217783747100
  0.7527351931934430  0.9167334622996560  0.6436217783747100
  0.7777351931934429  0.9167334622996560  0.6436217783747100
  0.8027351931934428  0.9167334622996560  0.6436217783747100
  0.8277351931934427  0.9167334622996560  0.6436217783747100
  0.8527351931934428  0.9167334622996560  0.6436217783747100
  0.8777351931934430  0.9167334622996560  0.6436217783747100
  0.9027351931934429  0.9167334622996560  0.6436217783747100
  0.9277351931934430  0.9167334622996560  0.6436217783747100
  0.9527351931934429  0.9167334622996560  0.6436217783747100
  0.9777351931934428  0.9167334622996560  0.6436217783747100
  0.0027351931934428  0.9417334622996560  0.6436217783747100
  0.0277351931934428  0.9417334622996560  0.6436217783747100
  0.0527351931934429  0.9417334622996560  0.6436217783747100
  0.0777351931934428  0.9417334622996560  0.6436217783747100
  0.1027351931934428  0.9417334622996560  0.6436217783747100
  0.1277351931934428  0.9417334622996560  0.6436217783747100
  0.1527351931934428  0.9417334622996560  0.6436217783747100
  0.1777351931934427  0.9417334622996560  0.6436217783747100
  0.2027351931934428  0.9417334622996560  0.6436217783747100
  0.2277351931934428  0.9417334622996560  0.6436217783747100
  0.2527351931934428  0.9417334622996560  0.6436217783747100
  0.2777351931934428  0.9417334622996560  0.6436217783747100
  0.3027351931934429  0.9417334622996560  0.6436217783747100
  0.3277351931934428  0.9417334622996560  0.6436217783747100
  0.3527351931934429  0.9417334622996560  0.6436217783747100
  0.3777351931934427  0.9417334622996560  0.6436217783747100
  0.4027351931934429  0.9417334622996560  0.6436217783747100
  0.4277351931934429  0.9417334622996560  0.6436217783747100
  0.4527351931934429  0.9417334622996560  0.6436217783747100
  0.4777351931934429  0.9417334622996560  0.6436217783747100
  0.5027351931934428  0.9417334622996560  0.6436217783747100
  0.5277351931934428  0.9417334622996560  0.6436217783747100
  0.5527351931934429  0.9417334622996560  0.6436217783747100
  0.5777351931934430  0.9417334622996560  0.6436217783747100
  0.6027351931934429  0.9417334622996560  0.6436217783747100
  0.6277351931934428  0.9417334622996560  0.6436217783747100
  0.6527351931934430  0.9417334622996560  0.6436217783747100
  0.6777351931934429  0.9417334622996560  0.6436217783747100
  0.7027351931934428  0.9417334622996560  0.6436217783747100
  0.7277351931934429  0.9417334622996560  0.6436217783747100
  0.7527351931934431  0.9417334622996560  0.6436217783747100
  0.7777351931934430  0.9417334622996560  0.6436217783747100
  0.8027351931934429  0.9417334622996560  0.6436217783747100
  0.8277351931934428  0.9417334622996560  0.6436217783747100
  0.8527351931934429  0.9417334622996560  0.6436217783747100
  0.8777351931934428  0.9417334622996560  0.6436217783747100
  0.9027351931934430  0.9417334622996560  0.6436217783747100
  0.9277351931934429  0.9417334622996560  0.6436217783747100
  0.9527351931934428  0.9417334622996560  0.6436217783747100
  0.9777351931934429  0.9417334622996560  0.6436217783747100
  0.0027351931934428  0.9667334622996560  0.6436217783747100
  0.0277351931934427  0.9667334622996560  0.6436217783747100
  0.0527351931934428  0.9667334622996560  0.6436217783747100
  0.0777351931934428  0.9667334622996560  0.6436217783747100
  0.1027351931934429  0.9667334622996560  0.6436217783747100
  0.1277351931934428  0.9667334622996560  0.6436217783747100
  0.1527351931934429  0.9667334622996560  0.6436217783747100
  0.1777351931934429  0.9667334622996560  0.6436217783747100
  0.2027351931934429  0.9667334622996560  0.6436217783747100
  0.2277351931934428  0.9667334622996560  0.6436217783747100
  0.2527351931934428  0.9667334622996560  0.6436217783747100
  0.2777351931934429  0.9667334622996560  0.6436217783747100
  0.3027351931934429  0.9667334622996560  0.6436217783747100
  0.3277351931934428  0.9667334622996560  0.6436217783747100
  0.3527351931934428  0.9667334622996560  0.6436217783747100
  0.3777351931934428  0.9667334622996560  0.6436217783747100
  0.4027351931934429  0.9667334622996560  0.6436217783747100
  0.4277351931934429  0.9667334622996560  0.6436217783747100
  0.4527351931934428  0.9667334622996560  0.6436217783747100
  0.4777351931934429  0.9667334622996560  0.6436217783747100
  0.5027351931934430  0.9667334622996560  0.6436217783747100
  0.5277351931934429  0.9667334622996560  0.6436217783747100
  0.5527351931934430  0.9667334622996560  0.6436217783747100
  0.5777351931934429  0.9667334622996560  0.6436217783747100
  0.6027351931934430  0.9667334622996560  0.6436217783747100
  0.6277351931934430  0.9667334622996560  0.6436217783747100
  0.6527351931934429  0.9667334622996560  0.6436217783747100
  0.6777351931934428  0.9667334622996560  0.6436217783747100
  0.7027351931934429  0.9667334622996560  0.6436217783747100
  0.7277351931934428  0.9667334622996560  0.6436217783747100
  0.7527351931934430  0.9667334622996560  0.6436217783747100
  0.7777351931934431  0.9667334622996560  0.6436217783747100
  0.8027351931934430  0.9667334622996560  0.6436217783747100
  0.8277351931934429  0.9667334622996560  0.6436217783747100
  0.8527351931934428  0.9667334622996560  0.6436217783747100
  0.8777351931934430  0.9667334622996560  0.6436217783747100
  0.9027351931934429  0.9667334622996560  0.6436217783747100
  0.9277351931934430  0.9667334622996560  0.6436217783747100
  0.9527351931934429  0.9667334622996560  0.6436217783747100
  0.9777351931934430  0.9667334622996560  0.6436217783747100
  0.0027351931934428  0.9917334622996560  0.6436217783747100
  0.0277351931934429  0.9917334622996560  0.6436217783747100
  0.0527351931934428  0.9917334622996560  0.6436217783747100
  0.0777351931934429  0.9917334622996560  0.6436217783747100
  0.1027351931934429  0.9917334622996560  0.6436217783747100
  0.1277351931934429  0.9917334622996560  0.6436217783747100
  0.1527351931934428  0.9917334622996560  0.6436217783747100
  0.1777351931934428  0.9917334622996560  0.6436217783747100
  0.2027351931934429  0.9917334622996560  0.6436217783747100
  0.2277351931934429  0.9917334622996560  0.6436217783747100
  0.2527351931934428  0.9917334622996560  0.6436217783747100
  0.2777351931934428  0.9917334622996560  0.6436217783747100
  0.3027351931934428  0.9917334622996560  0.6436217783747100
  0.3277351931934429  0.9917334622996560  0.6436217783747100
  0.3527351931934428  0.9917334622996560  0.6436217783747100
  0.3777351931934428  0.9917334622996560  0.6436217783747100
  0.4027351931934429  0.9917334622996560  0.6436217783747100
  0.4277351931934429  0.9917334622996560  0.6436217783747100
  0.4527351931934429  0.9917334622996560  0.6436217783747100
  0.4777351931934430  0.9917334622996560  0.6436217783747100
  0.5027351931934428  0.9917334622996560  0.6436217783747100
  0.5277351931934426  0.9917334622996560  0.6436217783747100
  0.5527351931934428  0.9917334622996560  0.6436217783747100
  0.5777351931934429  0.9917334622996560  0.6436217783747100
  0.6027351931934428  0.9917334622996560  0.6436217783747100
  0.6277351931934430  0.9917334622996560  0.6436217783747100
  0.6527351931934431  0.9917334622996560  0.6436217783747100
  0.6777351931934430  0.9917334622996560  0.6436217783747100
  0.7027351931934427  0.9917334622996560  0.6436217783747100
  0.7277351931934428  0.9917334622996560  0.6436217783747100
  0.7527351931934430  0.9917334622996560  0.6436217783747100
  0.7777351931934429  0.9917334622996560  0.6436217783747100
  0.8027351931934428  0.9917334622996560  0.6436217783747100
  0.8277351931934429  0.9917334622996560  0.6436217783747100
  0.8527351931934430  0.9917334622996560  0.6436217783747100
  0.8777351931934427  0.9917334622996560  0.6436217783747100
  0.9027351931934429  0.9917334622996560  0.6436217783747100
  0.9277351931934428  0.9917334622996560  0.6436217783747100
  0.9527351931934427  0.9917334622996560  0.6436217783747100
  0.9777351931934428  0.9917334622996560  0.6436217783747100
  0.0100738054485330  0.0020562816234365  0.5924482644423300
  0.0350738054485330  0.0020562816234365  0.5924482644423300
  0.0600738054485330  0.0020562816234365  0.5924482644423300
  0.0850738054485330  0.0020562816234365  0.5924482644423300
  0.1100738054485330  0.0020562816234365  0.5924482644423300
  0.1350738054485330  0.0020562816234365  0.5924482644423300
  0.1600738054485330  0.0020562816234365  0.5924482644423300
  0.1850738054485330  0.0020562816234365  0.5924482644423300
  0.2100738054485330  0.0020562816234365  0.5924482644423300
  0.2350738054485330  0.0020562816234365  0.5924482644423300
  0.2600738054485330  0.0020562816234365  0.5924482644423300
  0.2850738054485330  0.0020562816234365  0.5924482644423300
  0.3100738054485330  0.0020562816234365  0.5924482644423300
  0.3350738054485330  0.0020562816234365  0.5924482644423300
  0.3600738054485330  0.0020562816234365  0.5924482644423300
  0.3850738054485330  0.0020562816234365  0.5924482644423300
  0.4100738054485330  0.0020562816234365  0.5924482644423300
  0.4350738054485330  0.0020562816234365  0.5924482644423300
  0.4600738054485330  0.0020562816234365  0.5924482644423300
  0.4850738054485329  0.0020562816234365  0.5924482644423300
  0.5100738054485329  0.0020562816234365  0.5924482644423300
  0.5350738054485329  0.0020562816234365  0.5924482644423300
  0.5600738054485329  0.0020562816234365  0.5924482644423300
  0.5850738054485329  0.0020562816234365  0.5924482644423300
  0.6100738054485330  0.0020562816234365  0.5924482644423300
  0.6350738054485329  0.0020562816234365  0.5924482644423300
  0.6600738054485329  0.0020562816234365  0.5924482644423300
  0.6850738054485329  0.0020562816234365  0.5924482644423300
  0.7100738054485329  0.0020562816234365  0.5924482644423300
  0.7350738054485331  0.0020562816234365  0.5924482644423300
  0.7600738054485329  0.0020562816234365  0.5924482644423300
  0.7850738054485329  0.0020562816234365  0.5924482644423300
  0.8100738054485329  0.0020562816234365  0.5924482644423300
  0.8350738054485330  0.0020562816234365  0.5924482644423300
  0.8600738054485330  0.0020562816234365  0.5924482644423300
  0.8850738054485329  0.0020562816234365  0.5924482644423300
  0.9100738054485329  0.0020562816234365  0.5924482644423300
  0.9350738054485330  0.0020562816234365  0.5924482644423300
  0.9600738054485330  0.0020562816234365  0.5924482644423300
  0.9850738054485332  0.0020562816234365  0.5924482644423300
  0.0100738054485330  0.0270562816234365  0.5924482644423300
  0.0350738054485330  0.0270562816234365  0.5924482644423300
  0.0600738054485330  0.0270562816234365  0.5924482644423300
  0.0850738054485330  0.0270562816234365  0.5924482644423300
  0.1100738054485330  0.0270562816234365  0.5924482644423300
  0.1350738054485330  0.0270562816234365  0.5924482644423300
  0.1600738054485330  0.0270562816234365  0.5924482644423300
  0.1850738054485330  0.0270562816234365  0.5924482644423300
  0.2100738054485330  0.0270562816234365  0.5924482644423300
  0.2350738054485330  0.0270562816234365  0.5924482644423300
  0.2600738054485330  0.0270562816234365  0.5924482644423300
  0.2850738054485330  0.0270562816234365  0.5924482644423300
  0.3100738054485330  0.0270562816234365  0.5924482644423300
  0.3350738054485330  0.0270562816234365  0.5924482644423300
  0.3600738054485330  0.0270562816234365  0.5924482644423300
  0.3850738054485330  0.0270562816234365  0.5924482644423300
  0.4100738054485330  0.0270562816234365  0.5924482644423300
  0.4350738054485330  0.0270562816234365  0.5924482644423300
  0.4600738054485329  0.0270562816234365  0.5924482644423300
  0.4850738054485329  0.0270562816234365  0.5924482644423300
  0.5100738054485329  0.0270562816234365  0.5924482644423300
  0.5350738054485329  0.0270562816234365  0.5924482644423300
  0.5600738054485330  0.0270562816234365  0.5924482644423300
  0.5850738054485330  0.0270562816234365  0.5924482644423300
  0.6100738054485330  0.0270562816234365  0.5924482644423300
  0.6350738054485329  0.0270562816234365  0.5924482644423300
  0.6600738054485330  0.0270562816234365  0.5924482644423300
  0.6850738054485330  0.0270562816234365  0.5924482644423300
  0.7100738054485329  0.0270562816234365  0.5924482644423300
  0.7350738054485331  0.0270562816234365  0.5924482644423300
  0.7600738054485330  0.0270562816234365  0.5924482644423300
  0.7850738054485330  0.0270562816234365  0.5924482644423300
  0.8100738054485329  0.0270562816234365  0.5924482644423300
  0.8350738054485330  0.0270562816234365  0.5924482644423300
  0.8600738054485331  0.0270562816234365  0.5924482644423300
  0.8850738054485329  0.0270562816234365  0.5924482644423300
  0.9100738054485329  0.0270562816234365  0.5924482644423300
  0.9350738054485329  0.0270562816234365  0.5924482644423300
  0.9600738054485330  0.0270562816234365  0.5924482644423300
  0.9850738054485331  0.0270562816234365  0.5924482644423300
  0.0100738054485330  0.0520562816234365  0.5924482644423300
  0.0350738054485330  0.0520562816234365  0.5924482644423300
  0.0600738054485330  0.0520562816234365  0.5924482644423300
  0.0850738054485330  0.0520562816234365  0.5924482644423300
  0.1100738054485330  0.0520562816234365  0.5924482644423300
  0.1350738054485330  0.0520562816234365  0.5924482644423300
  0.1600738054485330  0.0520562816234365  0.5924482644423300
  0.1850738054485330  0.0520562816234365  0.5924482644423300
  0.2100738054485330  0.0520562816234365  0.5924482644423300
  0.2350738054485330  0.0520562816234365  0.5924482644423300
  0.2600738054485329  0.0520562816234365  0.5924482644423300
  0.2850738054485330  0.0520562816234365  0.5924482644423300
  0.3100738054485330  0.0520562816234365  0.5924482644423300
  0.3350738054485330  0.0520562816234365  0.5924482644423300
  0.3600738054485330  0.0520562816234365  0.5924482644423300
  0.3850738054485330  0.0520562816234365  0.5924482644423300
  0.4100738054485329  0.0520562816234365  0.5924482644423300
  0.4350738054485330  0.0520562816234365  0.5924482644423300
  0.4600738054485329  0.0520562816234365  0.5924482644423300
  0.4850738054485329  0.0520562816234365  0.5924482644423300
  0.5100738054485330  0.0520562816234365  0.5924482644423300
  0.5350738054485329  0.0520562816234365  0.5924482644423300
  0.5600738054485330  0.0520562816234365  0.5924482644423300
  0.5850738054485330  0.0520562816234365  0.5924482644423300
  0.6100738054485331  0.0520562816234365  0.5924482644423300
  0.6350738054485329  0.0520562816234365  0.5924482644423300
  0.6600738054485330  0.0520562816234365  0.5924482644423300
  0.6850738054485330  0.0520562816234365  0.5924482644423300
  0.7100738054485330  0.0520562816234365  0.5924482644423300
  0.7350738054485331  0.0520562816234365  0.5924482644423300
  0.7600738054485330  0.0520562816234365  0.5924482644423300
  0.7850738054485330  0.0520562816234365  0.5924482644423300
  0.8100738054485330  0.0520562816234365  0.5924482644423300
  0.8350738054485330  0.0520562816234365  0.5924482644423300
  0.8600738054485331  0.0520562816234365  0.5924482644423300
  0.8850738054485330  0.0520562816234365  0.5924482644423300
  0.9100738054485330  0.0520562816234365  0.5924482644423300
  0.9350738054485330  0.0520562816234365  0.5924482644423300
  0.9600738054485332  0.0520562816234365  0.5924482644423300
  0.9850738054485332  0.0520562816234365  0.5924482644423300
  0.0100738054485330  0.0770562816234365  0.5924482644423300
  0.0350738054485330  0.0770562816234365  0.5924482644423300
  0.0600738054485330  0.0770562816234365  0.5924482644423300
  0.0850738054485330  0.0770562816234365  0.5924482644423300
  0.1100738054485330  0.0770562816234365  0.5924482644423300
  0.1350738054485330  0.0770562816234365  0.5924482644423300
  0.1600738054485330  0.0770562816234365  0.5924482644423300
  0.1850738054485330  0.0770562816234365  0.5924482644423300
  0.2100738054485330  0.0770562816234365  0.5924482644423300
  0.2350738054485330  0.0770562816234365  0.5924482644423300
  0.2600738054485329  0.0770562816234365  0.5924482644423300
  0.2850738054485330  0.0770562816234365  0.5924482644423300
  0.3100738054485330  0.0770562816234365  0.5924482644423300
  0.3350738054485330  0.0770562816234365  0.5924482644423300
  0.3600738054485330  0.0770562816234365  0.5924482644423300
  0.3850738054485330  0.0770562816234365  0.5924482644423300
  0.4100738054485329  0.0770562816234365  0.5924482644423300
  0.4350738054485330  0.0770562816234365  0.5924482644423300
  0.4600738054485329  0.0770562816234365  0.5924482644423300
  0.4850738054485328  0.0770562816234365  0.5924482644423300
  0.5100738054485329  0.0770562816234365  0.5924482644423300
  0.5350738054485329  0.0770562816234365  0.5924482644423300
  0.5600738054485330  0.0770562816234365  0.5924482644423300
  0.5850738054485329  0.0770562816234365  0.5924482644423300
  0.6100738054485330  0.0770562816234365  0.5924482644423300
  0.6350738054485329  0.0770562816234365  0.5924482644423300
  0.6600738054485330  0.0770562816234365  0.5924482644423300
  0.6850738054485329  0.0770562816234365  0.5924482644423300
  0.7100738054485329  0.0770562816234365  0.5924482644423300
  0.7350738054485331  0.0770562816234365  0.5924482644423300
  0.7600738054485330  0.0770562816234365  0.5924482644423300
  0.7850738054485329  0.0770562816234365  0.5924482644423300
  0.8100738054485329  0.0770562816234365  0.5924482644423300
  0.8350738054485330  0.0770562816234365  0.5924482644423300
  0.8600738054485330  0.0770562816234365  0.5924482644423300
  0.8850738054485329  0.0770562816234365  0.5924482644423300
  0.9100738054485330  0.0770562816234365  0.5924482644423300
  0.9350738054485329  0.0770562816234365  0.5924482644423300
  0.9600738054485329  0.0770562816234365  0.5924482644423300
  0.9850738054485332  0.0770562816234365  0.5924482644423300
  0.0100738054485330  0.1020562816234365  0.5924482644423300
  0.0350738054485330  0.1020562816234365  0.5924482644423300
  0.0600738054485330  0.1020562816234365  0.5924482644423300
  0.0850738054485330  0.1020562816234365  0.5924482644423300
  0.1100738054485330  0.1020562816234365  0.5924482644423300
  0.1350738054485330  0.1020562816234365  0.5924482644423300
  0.1600738054485330  0.1020562816234365  0.5924482644423300
  0.1850738054485330  0.1020562816234365  0.5924482644423300
  0.2100738054485330  0.1020562816234365  0.5924482644423300
  0.2350738054485330  0.1020562816234365  0.5924482644423300
  0.2600738054485329  0.1020562816234365  0.5924482644423300
  0.2850738054485329  0.1020562816234365  0.5924482644423300
  0.3100738054485330  0.1020562816234365  0.5924482644423300
  0.3350738054485329  0.1020562816234365  0.5924482644423300
  0.3600738054485330  0.1020562816234365  0.5924482644423300
  0.3850738054485329  0.1020562816234365  0.5924482644423300
  0.4100738054485329  0.1020562816234365  0.5924482644423300
  0.4350738054485330  0.1020562816234365  0.5924482644423300
  0.4600738054485330  0.1020562816234365  0.5924482644423300
  0.4850738054485330  0.1020562816234365  0.5924482644423300
  0.5100738054485330  0.1020562816234365  0.5924482644423300
  0.5350738054485330  0.1020562816234365  0.5924482644423300
  0.5600738054485331  0.1020562816234365  0.5924482644423300
  0.5850738054485332  0.1020562816234365  0.5924482644423300
  0.6100738054485331  0.1020562816234365  0.5924482644423300
  0.6350738054485330  0.1020562816234365  0.5924482644423300
  0.6600738054485331  0.1020562816234365  0.5924482644423300
  0.6850738054485331  0.1020562816234365  0.5924482644423300
  0.7100738054485330  0.1020562816234365  0.5924482644423300
  0.7350738054485332  0.1020562816234365  0.5924482644423300
  0.7600738054485331  0.1020562816234365  0.5924482644423300
  0.7850738054485331  0.1020562816234365  0.5924482644423300
  0.8100738054485330  0.1020562816234365  0.5924482644423300
  0.8350738054485332  0.1020562816234365  0.5924482644423300
  0.8600738054485332  0.1020562816234365  0.5924482644423300
  0.8850738054485331  0.1020562816234365  0.5924482644423300
  0.9100738054485329  0.1020562816234365  0.5924482644423300
  0.9350738054485330  0.1020562816234365  0.5924482644423300
  0.9600738054485332  0.1020562816234365  0.5924482644423300
  0.9850738054485333  0.1020562816234365  0.5924482644423300
  0.0100738054485330  0.1270562816234365  0.5924482644423300
  0.0350738054485330  0.1270562816234365  0.5924482644423300
  0.0600738054485330  0.1270562816234365  0.5924482644423300
  0.0850738054485330  0.1270562816234365  0.5924482644423300
  0.1100738054485330  0.1270562816234365  0.5924482644423300
  0.1350738054485330  0.1270562816234365  0.5924482644423300
  0.1600738054485330  0.1270562816234365  0.5924482644423300
  0.1850738054485330  0.1270562816234365  0.5924482644423300
  0.2100738054485330  0.1270562816234365  0.5924482644423300
  0.2350738054485329  0.1270562816234365  0.5924482644423300
  0.2600738054485330  0.1270562816234365  0.5924482644423300
  0.2850738054485330  0.1270562816234365  0.5924482644423300
  0.3100738054485330  0.1270562816234365  0.5924482644423300
  0.3350738054485330  0.1270562816234365  0.5924482644423300
  0.3600738054485330  0.1270562816234365  0.5924482644423300
  0.3850738054485330  0.1270562816234365  0.5924482644423300
  0.4100738054485331  0.1270562816234365  0.5924482644423300
  0.4350738054485330  0.1270562816234365  0.5924482644423300
  0.4600738054485330  0.1270562816234365  0.5924482644423300
  0.4850738054485330  0.1270562816234365  0.5924482644423300
  0.5100738054485330  0.1270562816234365  0.5924482644423300
  0.5350738054485330  0.1270562816234365  0.5924482644423300
  0.5600738054485330  0.1270562816234365  0.5924482644423300
  0.5850738054485330  0.1270562816234365  0.5924482644423300
  0.6100738054485331  0.1270562816234365  0.5924482644423300
  0.6350738054485330  0.1270562816234365  0.5924482644423300
  0.6600738054485330  0.1270562816234365  0.5924482644423300
  0.6850738054485330  0.1270562816234365  0.5924482644423300
  0.7100738054485330  0.1270562816234365  0.5924482644423300
  0.7350738054485331  0.1270562816234365  0.5924482644423300
  0.7600738054485330  0.1270562816234365  0.5924482644423300
  0.7850738054485330  0.1270562816234365  0.5924482644423300
  0.8100738054485330  0.1270562816234365  0.5924482644423300
  0.8350738054485330  0.1270562816234365  0.5924482644423300
  0.8600738054485331  0.1270562816234365  0.5924482644423300
  0.8850738054485329  0.1270562816234365  0.5924482644423300
  0.9100738054485330  0.1270562816234365  0.5924482644423300
  0.9350738054485329  0.1270562816234365  0.5924482644423300
  0.9600738054485329  0.1270562816234365  0.5924482644423300
  0.9850738054485331  0.1270562816234365  0.5924482644423300
  0.0100738054485330  0.1520562816234365  0.5924482644423300
  0.0350738054485330  0.1520562816234365  0.5924482644423300
  0.0600738054485330  0.1520562816234365  0.5924482644423300
  0.0850738054485330  0.1520562816234365  0.5924482644423300
  0.1100738054485330  0.1520562816234365  0.5924482644423300
  0.1350738054485330  0.1520562816234365  0.5924482644423300
  0.1600738054485330  0.1520562816234365  0.5924482644423300
  0.1850738054485330  0.1520562816234365  0.5924482644423300
  0.2100738054485330  0.1520562816234365  0.5924482644423300
  0.2350738054485329  0.1520562816234365  0.5924482644423300
  0.2600738054485330  0.1520562816234365  0.5924482644423300
  0.2850738054485330  0.1520562816234365  0.5924482644423300
  0.3100738054485330  0.1520562816234365  0.5924482644423300
  0.3350738054485330  0.1520562816234365  0.5924482644423300
  0.3600738054485330  0.1520562816234365  0.5924482644423300
  0.3850738054485330  0.1520562816234365  0.5924482644423300
  0.4100738054485330  0.1520562816234365  0.5924482644423300
  0.4350738054485330  0.1520562816234365  0.5924482644423300
  0.4600738054485330  0.1520562816234365  0.5924482644423300
  0.4850738054485330  0.1520562816234365  0.5924482644423300
  0.5100738054485330  0.1520562816234365  0.5924482644423300
  0.5350738054485330  0.1520562816234365  0.5924482644423300
  0.5600738054485331  0.1520562816234365  0.5924482644423300
  0.5850738054485330  0.1520562816234365  0.5924482644423300
  0.6100738054485331  0.1520562816234365  0.5924482644423300
  0.6350738054485330  0.1520562816234365  0.5924482644423300
  0.6600738054485331  0.1520562816234365  0.5924482644423300
  0.6850738054485330  0.1520562816234365  0.5924482644423300
  0.7100738054485330  0.1520562816234365  0.5924482644423300
  0.7350738054485332  0.1520562816234365  0.5924482644423300
  0.7600738054485331  0.1520562816234365  0.5924482644423300
  0.7850738054485330  0.1520562816234365  0.5924482644423300
  0.8100738054485330  0.1520562816234365  0.5924482644423300
  0.8350738054485332  0.1520562816234365  0.5924482644423300
  0.8600738054485332  0.1520562816234365  0.5924482644423300
  0.8850738054485330  0.1520562816234365  0.5924482644423300
  0.9100738054485329  0.1520562816234365  0.5924482644423300
  0.9350738054485329  0.1520562816234365  0.5924482644423300
  0.9600738054485330  0.1520562816234365  0.5924482644423300
  0.9850738054485332  0.1520562816234365  0.5924482644423300
  0.0100738054485330  0.1770562816234365  0.5924482644423300
  0.0350738054485330  0.1770562816234365  0.5924482644423300
  0.0600738054485330  0.1770562816234365  0.5924482644423300
  0.0850738054485330  0.1770562816234365  0.5924482644423300
  0.1100738054485330  0.1770562816234365  0.5924482644423300
  0.1350738054485330  0.1770562816234365  0.5924482644423300
  0.1600738054485330  0.1770562816234365  0.5924482644423300
  0.1850738054485330  0.1770562816234365  0.5924482644423300
  0.2100738054485330  0.1770562816234365  0.5924482644423300
  0.2350738054485329  0.1770562816234365  0.5924482644423300
  0.2600738054485329  0.1770562816234365  0.5924482644423300
  0.2850738054485330  0.1770562816234365  0.5924482644423300
  0.3100738054485330  0.1770562816234365  0.5924482644423300
  0.3350738054485330  0.1770562816234365  0.5924482644423300
  0.3600738054485330  0.1770562816234365  0.5924482644423300
  0.3850738054485330  0.1770562816234365  0.5924482644423300
  0.4100738054485330  0.1770562816234365  0.5924482644423300
  0.4350738054485330  0.1770562816234365  0.5924482644423300
  0.4600738054485330  0.1770562816234365  0.5924482644423300
  0.4850738054485330  0.1770562816234365  0.5924482644423300
  0.5100738054485330  0.1770562816234365  0.5924482644423300
  0.5350738054485329  0.1770562816234365  0.5924482644423300
  0.5600738054485330  0.1770562816234365  0.5924482644423300
  0.5850738054485330  0.1770562816234365  0.5924482644423300
  0.6100738054485331  0.1770562816234365  0.5924482644423300
  0.6350738054485329  0.1770562816234365  0.5924482644423300
  0.6600738054485330  0.1770562816234365  0.5924482644423300
  0.6850738054485330  0.1770562816234365  0.5924482644423300
  0.7100738054485330  0.1770562816234365  0.5924482644423300
  0.7350738054485331  0.1770562816234365  0.5924482644423300
  0.7600738054485330  0.1770562816234365  0.5924482644423300
  0.7850738054485330  0.1770562816234365  0.5924482644423300
  0.8100738054485330  0.1770562816234365  0.5924482644423300
  0.8350738054485330  0.1770562816234365  0.5924482644423300
  0.8600738054485330  0.1770562816234365  0.5924482644423300
  0.8850738054485329  0.1770562816234365  0.5924482644423300
  0.9100738054485330  0.1770562816234365  0.5924482644423300
  0.9350738054485329  0.1770562816234365  0.5924482644423300
  0.9600738054485328  0.1770562816234365  0.5924482644423300
  0.9850738054485330  0.1770562816234365  0.5924482644423300
  0.0100738054485330  0.2020562816234365  0.5924482644423300
  0.0350738054485330  0.2020562816234365  0.5924482644423300
  0.0600738054485330  0.2020562816234365  0.5924482644423300
  0.0850738054485330  0.2020562816234365  0.5924482644423300
  0.1100738054485330  0.2020562816234365  0.5924482644423300
  0.1350738054485330  0.2020562816234365  0.5924482644423300
  0.1600738054485330  0.2020562816234365  0.5924482644423300
  0.1850738054485330  0.2020562816234365  0.5924482644423300
  0.2100738054485330  0.2020562816234365  0.5924482644423300
  0.2350738054485330  0.2020562816234365  0.5924482644423300
  0.2600738054485329  0.2020562816234365  0.5924482644423300
  0.2850738054485330  0.2020562816234365  0.5924482644423300
  0.3100738054485330  0.2020562816234365  0.5924482644423300
  0.3350738054485330  0.2020562816234365  0.5924482644423300
  0.3600738054485330  0.2020562816234365  0.5924482644423300
  0.3850738054485330  0.2020562816234365  0.5924482644423300
  0.4100738054485330  0.2020562816234365  0.5924482644423300
  0.4350738054485330  0.2020562816234365  0.5924482644423300
  0.4600738054485329  0.2020562816234365  0.5924482644423300
  0.4850738054485330  0.2020562816234365  0.5924482644423300
  0.5100738054485330  0.2020562816234365  0.5924482644423300
  0.5350738054485330  0.2020562816234365  0.5924482644423300
  0.5600738054485330  0.2020562816234365  0.5924482644423300
  0.5850738054485330  0.2020562816234365  0.5924482644423300
  0.6100738054485331  0.2020562816234365  0.5924482644423300
  0.6350738054485330  0.2020562816234365  0.5924482644423300
  0.6600738054485330  0.2020562816234365  0.5924482644423300
  0.6850738054485330  0.2020562816234365  0.5924482644423300
  0.7100738054485330  0.2020562816234365  0.5924482644423300
  0.7350738054485332  0.2020562816234365  0.5924482644423300
  0.7600738054485330  0.2020562816234365  0.5924482644423300
  0.7850738054485330  0.2020562816234365  0.5924482644423300
  0.8100738054485330  0.2020562816234365  0.5924482644423300
  0.8350738054485330  0.2020562816234365  0.5924482644423300
  0.8600738054485331  0.2020562816234365  0.5924482644423300
  0.8850738054485330  0.2020562816234365  0.5924482644423300
  0.9100738054485329  0.2020562816234365  0.5924482644423300
  0.9350738054485330  0.2020562816234365  0.5924482644423300
  0.9600738054485332  0.2020562816234365  0.5924482644423300
  0.9850738054485331  0.2020562816234365  0.5924482644423300
  0.0100738054485330  0.2270562816234365  0.5924482644423300
  0.0350738054485330  0.2270562816234365  0.5924482644423300
  0.0600738054485330  0.2270562816234365  0.5924482644423300
  0.0850738054485330  0.2270562816234365  0.5924482644423300
  0.1100738054485330  0.2270562816234365  0.5924482644423300
  0.1350738054485330  0.2270562816234365  0.5924482644423300
  0.1600738054485330  0.2270562816234365  0.5924482644423300
  0.1850738054485330  0.2270562816234365  0.5924482644423300
  0.2100738054485330  0.2270562816234365  0.5924482644423300
  0.2350738054485330  0.2270562816234365  0.5924482644423300
  0.2600738054485330  0.2270562816234365  0.5924482644423300
  0.2850738054485330  0.2270562816234365  0.5924482644423300
  0.3100738054485330  0.2270562816234365  0.5924482644423300
  0.3350738054485330  0.2270562816234365  0.5924482644423300
  0.3600738054485330  0.2270562816234365  0.5924482644423300
  0.3850738054485330  0.2270562816234365  0.5924482644423300
  0.4100738054485329  0.2270562816234365  0.5924482644423300
  0.4350738054485330  0.2270562816234365  0.5924482644423300
  0.4600738054485330  0.2270562816234365  0.5924482644423300
  0.4850738054485330  0.2270562816234365  0.5924482644423300
  0.5100738054485330  0.2270562816234365  0.5924482644423300
  0.5350738054485330  0.2270562816234365  0.5924482644423300
  0.5600738054485331  0.2270562816234365  0.5924482644423300
  0.5850738054485332  0.2270562816234365  0.5924482644423300
  0.6100738054485331  0.2270562816234365  0.5924482644423300
  0.6350738054485330  0.2270562816234365  0.5924482644423300
  0.6600738054485331  0.2270562816234365  0.5924482644423300
  0.6850738054485331  0.2270562816234365  0.5924482644423300
  0.7100738054485330  0.2270562816234365  0.5924482644423300
  0.7350738054485332  0.2270562816234365  0.5924482644423300
  0.7600738054485331  0.2270562816234365  0.5924482644423300
  0.7850738054485331  0.2270562816234365  0.5924482644423300
  0.8100738054485330  0.2270562816234365  0.5924482644423300
  0.8350738054485332  0.2270562816234365  0.5924482644423300
  0.8600738054485331  0.2270562816234365  0.5924482644423300
  0.8850738054485330  0.2270562816234365  0.5924482644423300
  0.9100738054485330  0.2270562816234365  0.5924482644423300
  0.9350738054485329  0.2270562816234365  0.5924482644423300
  0.9600738054485330  0.2270562816234365  0.5924482644423300
  0.9850738054485332  0.2270562816234365  0.5924482644423300
  0.0100738054485330  0.2520562816234365  0.5924482644423300
  0.0350738054485330  0.2520562816234365  0.5924482644423300
  0.0600738054485330  0.2520562816234365  0.5924482644423300
  0.0850738054485330  0.2520562816234365  0.5924482644423300
  0.1100738054485330  0.2520562816234365  0.5924482644423300
  0.1350738054485330  0.2520562816234365  0.5924482644423300
  0.1600738054485330  0.2520562816234365  0.5924482644423300
  0.1850738054485331  0.2520562816234365  0.5924482644423300
  0.2100738054485330  0.2520562816234365  0.5924482644423300
  0.2350738054485330  0.2520562816234365  0.5924482644423300
  0.2600738054485330  0.2520562816234365  0.5924482644423300
  0.2850738054485330  0.2520562816234365  0.5924482644423300
  0.3100738054485330  0.2520562816234365  0.5924482644423300
  0.3350738054485330  0.2520562816234365  0.5924482644423300
  0.3600738054485330  0.2520562816234365  0.5924482644423300
  0.3850738054485330  0.2520562816234365  0.5924482644423300
  0.4100738054485330  0.2520562816234365  0.5924482644423300
  0.4350738054485330  0.2520562816234365  0.5924482644423300
  0.4600738054485329  0.2520562816234365  0.5924482644423300
  0.4850738054485330  0.2520562816234365  0.5924482644423300
  0.5100738054485330  0.2520562816234365  0.5924482644423300
  0.5350738054485330  0.2520562816234365  0.5924482644423300
  0.5600738054485330  0.2520562816234365  0.5924482644423300
  0.5850738054485330  0.2520562816234365  0.5924482644423300
  0.6100738054485331  0.2520562816234365  0.5924482644423300
  0.6350738054485330  0.2520562816234365  0.5924482644423300
  0.6600738054485330  0.2520562816234365  0.5924482644423300
  0.6850738054485330  0.2520562816234365  0.5924482644423300
  0.7100738054485330  0.2520562816234365  0.5924482644423300
  0.7350738054485331  0.2520562816234365  0.5924482644423300
  0.7600738054485330  0.2520562816234365  0.5924482644423300
  0.7850738054485330  0.2520562816234365  0.5924482644423300
  0.8100738054485329  0.2520562816234365  0.5924482644423300
  0.8350738054485329  0.2520562816234365  0.5924482644423300
  0.8600738054485331  0.2520562816234365  0.5924482644423300
  0.8850738054485329  0.2520562816234365  0.5924482644423300
  0.9100738054485328  0.2520562816234365  0.5924482644423300
  0.9350738054485329  0.2520562816234365  0.5924482644423300
  0.9600738054485330  0.2520562816234365  0.5924482644423300
  0.9850738054485332  0.2520562816234365  0.5924482644423300
  0.0100738054485330  0.2770562816234365  0.5924482644423300
  0.0350738054485330  0.2770562816234365  0.5924482644423300
  0.0600738054485330  0.2770562816234365  0.5924482644423300
  0.0850738054485330  0.2770562816234365  0.5924482644423300
  0.1100738054485330  0.2770562816234365  0.5924482644423300
  0.1350738054485330  0.2770562816234365  0.5924482644423300
  0.1600738054485330  0.2770562816234365  0.5924482644423300
  0.1850738054485331  0.2770562816234365  0.5924482644423300
  0.2100738054485330  0.2770562816234365  0.5924482644423300
  0.2350738054485330  0.2770562816234365  0.5924482644423300
  0.2600738054485330  0.2770562816234365  0.5924482644423300
  0.2850738054485331  0.2770562816234365  0.5924482644423300
  0.3100738054485330  0.2770562816234365  0.5924482644423300
  0.3350738054485330  0.2770562816234365  0.5924482644423300
  0.3600738054485330  0.2770562816234365  0.5924482644423300
  0.3850738054485330  0.2770562816234365  0.5924482644423300
  0.4100738054485330  0.2770562816234365  0.5924482644423300
  0.4350738054485330  0.2770562816234365  0.5924482644423300
  0.4600738054485330  0.2770562816234365  0.5924482644423300
  0.4850738054485330  0.2770562816234365  0.5924482644423300
  0.5100738054485330  0.2770562816234365  0.5924482644423300
  0.5350738054485330  0.2770562816234365  0.5924482644423300
  0.5600738054485331  0.2770562816234365  0.5924482644423300
  0.5850738054485330  0.2770562816234365  0.5924482644423300
  0.6100738054485331  0.2770562816234365  0.5924482644423300
  0.6350738054485330  0.2770562816234365  0.5924482644423300
  0.6600738054485331  0.2770562816234365  0.5924482644423300
  0.6850738054485330  0.2770562816234365  0.5924482644423300
  0.7100738054485330  0.2770562816234365  0.5924482644423300
  0.7350738054485332  0.2770562816234365  0.5924482644423300
  0.7600738054485331  0.2770562816234365  0.5924482644423300
  0.7850738054485330  0.2770562816234365  0.5924482644423300
  0.8100738054485330  0.2770562816234365  0.5924482644423300
  0.8350738054485332  0.2770562816234365  0.5924482644423300
  0.8600738054485331  0.2770562816234365  0.5924482644423300
  0.8850738054485330  0.2770562816234365  0.5924482644423300
  0.9100738054485331  0.2770562816234365  0.5924482644423300
  0.9350738054485328  0.2770562816234365  0.5924482644423300
  0.9600738054485329  0.2770562816234365  0.5924482644423300
  0.9850738054485331  0.2770562816234365  0.5924482644423300
  0.0100738054485330  0.3020562816234366  0.5924482644423300
  0.0350738054485330  0.3020562816234366  0.5924482644423300
  0.0600738054485330  0.3020562816234366  0.5924482644423300
  0.0850738054485330  0.3020562816234366  0.5924482644423300
  0.1100738054485330  0.3020562816234366  0.5924482644423300
  0.1350738054485330  0.3020562816234366  0.5924482644423300
  0.1600738054485330  0.3020562816234366  0.5924482644423300
  0.1850738054485331  0.3020562816234366  0.5924482644423300
  0.2100738054485330  0.3020562816234366  0.5924482644423300
  0.2350738054485330  0.3020562816234366  0.5924482644423300
  0.2600738054485329  0.3020562816234366  0.5924482644423300
  0.2850738054485330  0.3020562816234366  0.5924482644423300
  0.3100738054485330  0.3020562816234366  0.5924482644423300
  0.3350738054485330  0.3020562816234366  0.5924482644423300
  0.3600738054485330  0.3020562816234366  0.5924482644423300
  0.3850738054485330  0.3020562816234366  0.5924482644423300
  0.4100738054485330  0.3020562816234366  0.5924482644423300
  0.4350738054485329  0.3020562816234366  0.5924482644423300
  0.4600738054485329  0.3020562816234366  0.5924482644423300
  0.4850738054485330  0.3020562816234366  0.5924482644423300
  0.5100738054485330  0.3020562816234366  0.5924482644423300
  0.5350738054485329  0.3020562816234366  0.5924482644423300
  0.5600738054485330  0.3020562816234366  0.5924482644423300
  0.5850738054485330  0.3020562816234366  0.5924482644423300
  0.6100738054485330  0.3020562816234366  0.5924482644423300
  0.6350738054485329  0.3020562816234366  0.5924482644423300
  0.6600738054485330  0.3020562816234366  0.5924482644423300
  0.6850738054485330  0.3020562816234366  0.5924482644423300
  0.7100738054485329  0.3020562816234366  0.5924482644423300
  0.7350738054485331  0.3020562816234366  0.5924482644423300
  0.7600738054485330  0.3020562816234366  0.5924482644423300
  0.7850738054485330  0.3020562816234366  0.5924482644423300
  0.8100738054485329  0.3020562816234366  0.5924482644423300
  0.8350738054485329  0.3020562816234366  0.5924482644423300
  0.8600738054485331  0.3020562816234366  0.5924482644423300
  0.8850738054485330  0.3020562816234366  0.5924482644423300
  0.9100738054485329  0.3020562816234366  0.5924482644423300
  0.9350738054485330  0.3020562816234366  0.5924482644423300
  0.9600738054485329  0.3020562816234366  0.5924482644423300
  0.9850738054485331  0.3020562816234366  0.5924482644423300
  0.0100738054485330  0.3270562816234365  0.5924482644423300
  0.0350738054485330  0.3270562816234365  0.5924482644423300
  0.0600738054485330  0.3270562816234365  0.5924482644423300
  0.0850738054485330  0.3270562816234365  0.5924482644423300
  0.1100738054485330  0.3270562816234365  0.5924482644423300
  0.1350738054485330  0.3270562816234365  0.5924482644423300
  0.1600738054485330  0.3270562816234365  0.5924482644423300
  0.1850738054485330  0.3270562816234365  0.5924482644423300
  0.2100738054485330  0.3270562816234365  0.5924482644423300
  0.2350738054485329  0.3270562816234365  0.5924482644423300
  0.2600738054485330  0.3270562816234365  0.5924482644423300
  0.2850738054485330  0.3270562816234365  0.5924482644423300
  0.3100738054485330  0.3270562816234365  0.5924482644423300
  0.3350738054485330  0.3270562816234365  0.5924482644423300
  0.3600738054485330  0.3270562816234365  0.5924482644423300
  0.3850738054485330  0.3270562816234365  0.5924482644423300
  0.4100738054485330  0.3270562816234365  0.5924482644423300
  0.4350738054485331  0.3270562816234365  0.5924482644423300
  0.4600738054485329  0.3270562816234365  0.5924482644423300
  0.4850738054485330  0.3270562816234365  0.5924482644423300
  0.5100738054485330  0.3270562816234365  0.5924482644423300
  0.5350738054485330  0.3270562816234365  0.5924482644423300
  0.5600738054485330  0.3270562816234365  0.5924482644423300
  0.5850738054485330  0.3270562816234365  0.5924482644423300
  0.6100738054485331  0.3270562816234365  0.5924482644423300
  0.6350738054485330  0.3270562816234365  0.5924482644423300
  0.6600738054485330  0.3270562816234365  0.5924482644423300
  0.6850738054485330  0.3270562816234365  0.5924482644423300
  0.7100738054485330  0.3270562816234365  0.5924482644423300
  0.7350738054485332  0.3270562816234365  0.5924482644423300
  0.7600738054485330  0.3270562816234365  0.5924482644423300
  0.7850738054485331  0.3270562816234365  0.5924482644423300
  0.8100738054485330  0.3270562816234365  0.5924482644423300
  0.8350738054485332  0.3270562816234365  0.5924482644423300
  0.8600738054485332  0.3270562816234365  0.5924482644423300
  0.8850738054485331  0.3270562816234365  0.5924482644423300
  0.9100738054485330  0.3270562816234365  0.5924482644423300
  0.9350738054485331  0.3270562816234365  0.5924482644423300
  0.9600738054485333  0.3270562816234365  0.5924482644423300
  0.9850738054485332  0.3270562816234365  0.5924482644423300
  0.0100738054485330  0.3520562816234365  0.5924482644423300
  0.0350738054485330  0.3520562816234365  0.5924482644423300
  0.0600738054485330  0.3520562816234365  0.5924482644423300
  0.0850738054485330  0.3520562816234365  0.5924482644423300
  0.1100738054485331  0.3520562816234365  0.5924482644423300
  0.1350738054485331  0.3520562816234365  0.5924482644423300
  0.1600738054485331  0.3520562816234365  0.5924482644423300
  0.1850738054485331  0.3520562816234365  0.5924482644423300
  0.2100738054485331  0.3520562816234365  0.5924482644423300
  0.2350738054485330  0.3520562816234365  0.5924482644423300
  0.2600738054485330  0.3520562816234365  0.5924482644423300
  0.2850738054485330  0.3520562816234365  0.5924482644423300
  0.3100738054485330  0.3520562816234365  0.5924482644423300
  0.3350738054485330  0.3520562816234365  0.5924482644423300
  0.3600738054485330  0.3520562816234365  0.5924482644423300
  0.3850738054485330  0.3520562816234365  0.5924482644423300
  0.4100738054485329  0.3520562816234365  0.5924482644423300
  0.4350738054485331  0.3520562816234365  0.5924482644423300
  0.4600738054485330  0.3520562816234365  0.5924482644423300
  0.4850738054485330  0.3520562816234365  0.5924482644423300
  0.5100738054485330  0.3520562816234365  0.5924482644423300
  0.5350738054485330  0.3520562816234365  0.5924482644423300
  0.5600738054485331  0.3520562816234365  0.5924482644423300
  0.5850738054485330  0.3520562816234365  0.5924482644423300
  0.6100738054485331  0.3520562816234365  0.5924482644423300
  0.6350738054485330  0.3520562816234365  0.5924482644423300
  0.6600738054485331  0.3520562816234365  0.5924482644423300
  0.6850738054485330  0.3520562816234365  0.5924482644423300
  0.7100738054485330  0.3520562816234365  0.5924482644423300
  0.7350738054485332  0.3520562816234365  0.5924482644423300
  0.7600738054485332  0.3520562816234365  0.5924482644423300
  0.7850738054485330  0.3520562816234365  0.5924482644423300
  0.8100738054485331  0.3520562816234365  0.5924482644423300
  0.8350738054485332  0.3520562816234365  0.5924482644423300
  0.8600738054485331  0.3520562816234365  0.5924482644423300
  0.8850738054485330  0.3520562816234365  0.5924482644423300
  0.9100738054485331  0.3520562816234365  0.5924482644423300
  0.9350738054485330  0.3520562816234365  0.5924482644423300
  0.9600738054485332  0.3520562816234365  0.5924482644423300
  0.9850738054485333  0.3520562816234365  0.5924482644423300
  0.0100738054485330  0.3770562816234366  0.5924482644423300
  0.0350738054485330  0.3770562816234366  0.5924482644423300
  0.0600738054485330  0.3770562816234366  0.5924482644423300
  0.0850738054485330  0.3770562816234366  0.5924482644423300
  0.1100738054485330  0.3770562816234366  0.5924482644423300
  0.1350738054485330  0.3770562816234366  0.5924482644423300
  0.1600738054485330  0.3770562816234366  0.5924482644423300
  0.1850738054485330  0.3770562816234366  0.5924482644423300
  0.2100738054485330  0.3770562816234366  0.5924482644423300
  0.2350738054485330  0.3770562816234366  0.5924482644423300
  0.2600738054485330  0.3770562816234366  0.5924482644423300
  0.2850738054485330  0.3770562816234366  0.5924482644423300
  0.3100738054485330  0.3770562816234366  0.5924482644423300
  0.3350738054485329  0.3770562816234366  0.5924482644423300
  0.3600738054485330  0.3770562816234366  0.5924482644423300
  0.3850738054485330  0.3770562816234366  0.5924482644423300
  0.4100738054485330  0.3770562816234366  0.5924482644423300
  0.4350738054485330  0.3770562816234366  0.5924482644423300
  0.4600738054485329  0.3770562816234366  0.5924482644423300
  0.4850738054485330  0.3770562816234366  0.5924482644423300
  0.5100738054485330  0.3770562816234366  0.5924482644423300
  0.5350738054485329  0.3770562816234366  0.5924482644423300
  0.5600738054485330  0.3770562816234366  0.5924482644423300
  0.5850738054485330  0.3770562816234366  0.5924482644423300
  0.6100738054485331  0.3770562816234366  0.5924482644423300
  0.6350738054485329  0.3770562816234366  0.5924482644423300
  0.6600738054485330  0.3770562816234366  0.5924482644423300
  0.6850738054485330  0.3770562816234366  0.5924482644423300
  0.7100738054485330  0.3770562816234366  0.5924482644423300
  0.7350738054485331  0.3770562816234366  0.5924482644423300
  0.7600738054485330  0.3770562816234366  0.5924482644423300
  0.7850738054485331  0.3770562816234366  0.5924482644423300
  0.8100738054485330  0.3770562816234366  0.5924482644423300
  0.8350738054485332  0.3770562816234366  0.5924482644423300
  0.8600738054485331  0.3770562816234366  0.5924482644423300
  0.8850738054485330  0.3770562816234366  0.5924482644423300
  0.9100738054485329  0.3770562816234366  0.5924482644423300
  0.9350738054485330  0.3770562816234366  0.5924482644423300
  0.9600738054485332  0.3770562816234366  0.5924482644423300
  0.9850738054485333  0.3770562816234366  0.5924482644423300
  0.0100738054485330  0.4020562816234365  0.5924482644423300
  0.0350738054485331  0.4020562816234365  0.5924482644423300
  0.0600738054485330  0.4020562816234365  0.5924482644423300
  0.0850738054485330  0.4020562816234365  0.5924482644423300
  0.1100738054485330  0.4020562816234365  0.5924482644423300
  0.1350738054485330  0.4020562816234365  0.5924482644423300
  0.1600738054485330  0.4020562816234365  0.5924482644423300
  0.1850738054485331  0.4020562816234365  0.5924482644423300
  0.2100738054485330  0.4020562816234365  0.5924482644423300
  0.2350738054485330  0.4020562816234365  0.5924482644423300
  0.2600738054485330  0.4020562816234365  0.5924482644423300
  0.2850738054485330  0.4020562816234365  0.5924482644423300
  0.3100738054485330  0.4020562816234365  0.5924482644423300
  0.3350738054485330  0.4020562816234365  0.5924482644423300
  0.3600738054485330  0.4020562816234365  0.5924482644423300
  0.3850738054485329  0.4020562816234365  0.5924482644423300
  0.4100738054485329  0.4020562816234365  0.5924482644423300
  0.4350738054485331  0.4020562816234365  0.5924482644423300
  0.4600738054485330  0.4020562816234365  0.5924482644423300
  0.4850738054485329  0.4020562816234365  0.5924482644423300
  0.5100738054485329  0.4020562816234365  0.5924482644423300
  0.5350738054485329  0.4020562816234365  0.5924482644423300
  0.5600738054485330  0.4020562816234365  0.5924482644423300
  0.5850738054485329  0.4020562816234365  0.5924482644423300
  0.6100738054485330  0.4020562816234365  0.5924482644423300
  0.6350738054485329  0.4020562816234365  0.5924482644423300
  0.6600738054485330  0.4020562816234365  0.5924482644423300
  0.6850738054485329  0.4020562816234365  0.5924482644423300
  0.7100738054485329  0.4020562816234365  0.5924482644423300
  0.7350738054485332  0.4020562816234365  0.5924482644423300
  0.7600738054485330  0.4020562816234365  0.5924482644423300
  0.7850738054485329  0.4020562816234365  0.5924482644423300
  0.8100738054485330  0.4020562816234365  0.5924482644423300
  0.8350738054485332  0.4020562816234365  0.5924482644423300
  0.8600738054485331  0.4020562816234365  0.5924482644423300
  0.8850738054485330  0.4020562816234365  0.5924482644423300
  0.9100738054485329  0.4020562816234365  0.5924482644423300
  0.9350738054485328  0.4020562816234365  0.5924482644423300
  0.9600738054485329  0.4020562816234365  0.5924482644423300
  0.9850738054485331  0.4020562816234365  0.5924482644423300
  0.0100738054485330  0.4270562816234366  0.5924482644423300
  0.0350738054485330  0.4270562816234366  0.5924482644423300
  0.0600738054485330  0.4270562816234366  0.5924482644423300
  0.0850738054485330  0.4270562816234366  0.5924482644423300
  0.1100738054485330  0.4270562816234366  0.5924482644423300
  0.1350738054485330  0.4270562816234366  0.5924482644423300
  0.1600738054485330  0.4270562816234366  0.5924482644423300
  0.1850738054485330  0.4270562816234366  0.5924482644423300
  0.2100738054485330  0.4270562816234366  0.5924482644423300
  0.2350738054485330  0.4270562816234366  0.5924482644423300
  0.2600738054485330  0.4270562816234366  0.5924482644423300
  0.2850738054485330  0.4270562816234366  0.5924482644423300
  0.3100738054485330  0.4270562816234366  0.5924482644423300
  0.3350738054485329  0.4270562816234366  0.5924482644423300
  0.3600738054485330  0.4270562816234366  0.5924482644423300
  0.3850738054485330  0.4270562816234366  0.5924482644423300
  0.4100738054485329  0.4270562816234366  0.5924482644423300
  0.4350738054485330  0.4270562816234366  0.5924482644423300
  0.4600738054485329  0.4270562816234366  0.5924482644423300
  0.4850738054485330  0.4270562816234366  0.5924482644423300
  0.5100738054485329  0.4270562816234366  0.5924482644423300
  0.5350738054485329  0.4270562816234366  0.5924482644423300
  0.5600738054485330  0.4270562816234366  0.5924482644423300
  0.5850738054485330  0.4270562816234366  0.5924482644423300
  0.6100738054485330  0.4270562816234366  0.5924482644423300
  0.6350738054485329  0.4270562816234366  0.5924482644423300
  0.6600738054485330  0.4270562816234366  0.5924482644423300
  0.6850738054485330  0.4270562816234366  0.5924482644423300
  0.7100738054485329  0.4270562816234366  0.5924482644423300
  0.7350738054485331  0.4270562816234366  0.5924482644423300
  0.7600738054485330  0.4270562816234366  0.5924482644423300
  0.7850738054485331  0.4270562816234366  0.5924482644423300
  0.8100738054485329  0.4270562816234366  0.5924482644423300
  0.8350738054485330  0.4270562816234366  0.5924482644423300
  0.8600738054485332  0.4270562816234366  0.5924482644423300
  0.8850738054485331  0.4270562816234366  0.5924482644423300
  0.9100738054485330  0.4270562816234366  0.5924482644423300
  0.9350738054485331  0.4270562816234366  0.5924482644423300
  0.9600738054485330  0.4270562816234366  0.5924482644423300
  0.9850738054485332  0.4270562816234366  0.5924482644423300
  0.0100738054485330  0.4520562816234366  0.5924482644423300
  0.0350738054485330  0.4520562816234366  0.5924482644423300
  0.0600738054485330  0.4520562816234366  0.5924482644423300
  0.0850738054485330  0.4520562816234366  0.5924482644423300
  0.1100738054485331  0.4520562816234366  0.5924482644423300
  0.1350738054485330  0.4520562816234366  0.5924482644423300
  0.1600738054485331  0.4520562816234366  0.5924482644423300
  0.1850738054485330  0.4520562816234366  0.5924482644423300
  0.2100738054485330  0.4520562816234366  0.5924482644423300
  0.2350738054485330  0.4520562816234366  0.5924482644423300
  0.2600738054485330  0.4520562816234366  0.5924482644423300
  0.2850738054485331  0.4520562816234366  0.5924482644423300
  0.3100738054485331  0.4520562816234366  0.5924482644423300
  0.3350738054485331  0.4520562816234366  0.5924482644423300
  0.3600738054485330  0.4520562816234366  0.5924482644423300
  0.3850738054485330  0.4520562816234366  0.5924482644423300
  0.4100738054485331  0.4520562816234366  0.5924482644423300
  0.4350738054485331  0.4520562816234366  0.5924482644423300
  0.4600738054485330  0.4520562816234366  0.5924482644423300
  0.4850738054485330  0.4520562816234366  0.5924482644423300
  0.5100738054485331  0.4520562816234366  0.5924482644423300
  0.5350738054485331  0.4520562816234366  0.5924482644423300
  0.5600738054485331  0.4520562816234366  0.5924482644423300
  0.5850738054485332  0.4520562816234366  0.5924482644423300
  0.6100738054485332  0.4520562816234366  0.5924482644423300
  0.6350738054485331  0.4520562816234366  0.5924482644423300
  0.6600738054485331  0.4520562816234366  0.5924482644423300
  0.6850738054485331  0.4520562816234366  0.5924482644423300
  0.7100738054485332  0.4520562816234366  0.5924482644423300
  0.7350738054485332  0.4520562816234366  0.5924482644423300
  0.7600738054485331  0.4520562816234366  0.5924482644423300
  0.7850738054485331  0.4520562816234366  0.5924482644423300
  0.8100738054485330  0.4520562816234366  0.5924482644423300
  0.8350738054485332  0.4520562816234366  0.5924482644423300
  0.8600738054485331  0.4520562816234366  0.5924482644423300
  0.8850738054485330  0.4520562816234366  0.5924482644423300
  0.9100738054485331  0.4520562816234366  0.5924482644423300
  0.9350738054485330  0.4520562816234366  0.5924482644423300
  0.9600738054485332  0.4520562816234366  0.5924482644423300
  0.9850738054485331  0.4520562816234366  0.5924482644423300
  0.0100738054485330  0.4770562816234366  0.5924482644423300
  0.0350738054485330  0.4770562816234366  0.5924482644423300
  0.0600738054485330  0.4770562816234366  0.5924482644423300
  0.0850738054485330  0.4770562816234366  0.5924482644423300
  0.1100738054485331  0.4770562816234366  0.5924482644423300
  0.1350738054485330  0.4770562816234366  0.5924482644423300
  0.1600738054485331  0.4770562816234366  0.5924482644423300
  0.1850738054485330  0.4770562816234366  0.5924482644423300
  0.2100738054485330  0.4770562816234366  0.5924482644423300
  0.2350738054485330  0.4770562816234366  0.5924482644423300
  0.2600738054485330  0.4770562816234366  0.5924482644423300
  0.2850738054485330  0.4770562816234366  0.5924482644423300
  0.3100738054485330  0.4770562816234366  0.5924482644423300
  0.3350738054485330  0.4770562816234366  0.5924482644423300
  0.3600738054485331  0.4770562816234366  0.5924482644423300
  0.3850738054485330  0.4770562816234366  0.5924482644423300
  0.4100738054485330  0.4770562816234366  0.5924482644423300
  0.4350738054485330  0.4770562816234366  0.5924482644423300
  0.4600738054485330  0.4770562816234366  0.5924482644423300
  0.4850738054485330  0.4770562816234366  0.5924482644423300
  0.5100738054485330  0.4770562816234366  0.5924482644423300
  0.5350738054485330  0.4770562816234366  0.5924482644423300
  0.5600738054485331  0.4770562816234366  0.5924482644423300
  0.5850738054485330  0.4770562816234366  0.5924482644423300
  0.6100738054485331  0.4770562816234366  0.5924482644423300
  0.6350738054485330  0.4770562816234366  0.5924482644423300
  0.6600738054485331  0.4770562816234366  0.5924482644423300
  0.6850738054485330  0.4770562816234366  0.5924482644423300
  0.7100738054485329  0.4770562816234366  0.5924482644423300
  0.7350738054485331  0.4770562816234366  0.5924482644423300
  0.7600738054485330  0.4770562816234366  0.5924482644423300
  0.7850738054485331  0.4770562816234366  0.5924482644423300
  0.8100738054485330  0.4770562816234366  0.5924482644423300
  0.8350738054485329  0.4770562816234366  0.5924482644423300
  0.8600738054485331  0.4770562816234366  0.5924482644423300
  0.8850738054485330  0.4770562816234366  0.5924482644423300
  0.9100738054485329  0.4770562816234366  0.5924482644423300
  0.9350738054485330  0.4770562816234366  0.5924482644423300
  0.9600738054485332  0.4770562816234366  0.5924482644423300
  0.9850738054485333  0.4770562816234366  0.5924482644423300
  0.0100738054485330  0.5020562816234365  0.5924482644423300
  0.0350738054485330  0.5020562816234365  0.5924482644423300
  0.0600738054485330  0.5020562816234365  0.5924482644423300
  0.0850738054485330  0.5020562816234365  0.5924482644423300
  0.1100738054485330  0.5020562816234365  0.5924482644423300
  0.1350738054485330  0.5020562816234365  0.5924482644423300
  0.1600738054485330  0.5020562816234365  0.5924482644423300
  0.1850738054485331  0.5020562816234365  0.5924482644423300
  0.2100738054485330  0.5020562816234365  0.5924482644423300
  0.2350738054485330  0.5020562816234365  0.5924482644423300
  0.2600738054485330  0.5020562816234365  0.5924482644423300
  0.2850738054485330  0.5020562816234365  0.5924482644423300
  0.3100738054485330  0.5020562816234365  0.5924482644423300
  0.3350738054485329  0.5020562816234365  0.5924482644423300
  0.3600738054485330  0.5020562816234365  0.5924482644423300
  0.3850738054485330  0.5020562816234365  0.5924482644423300
  0.4100738054485330  0.5020562816234365  0.5924482644423300
  0.4350738054485330  0.5020562816234365  0.5924482644423300
  0.4600738054485329  0.5020562816234365  0.5924482644423300
  0.4850738054485330  0.5020562816234365  0.5924482644423300
  0.5100738054485330  0.5020562816234365  0.5924482644423300
  0.5350738054485329  0.5020562816234365  0.5924482644423300
  0.5600738054485330  0.5020562816234365  0.5924482644423300
  0.5850738054485330  0.5020562816234365  0.5924482644423300
  0.6100738054485331  0.5020562816234365  0.5924482644423300
  0.6350738054485329  0.5020562816234365  0.5924482644423300
  0.6600738054485330  0.5020562816234365  0.5924482644423300
  0.6850738054485330  0.5020562816234365  0.5924482644423300
  0.7100738054485330  0.5020562816234365  0.5924482644423300
  0.7350738054485332  0.5020562816234365  0.5924482644423300
  0.7600738054485331  0.5020562816234365  0.5924482644423300
  0.7850738054485330  0.5020562816234365  0.5924482644423300
  0.8100738054485331  0.5020562816234365  0.5924482644423300
  0.8350738054485333  0.5020562816234365  0.5924482644423300
  0.8600738054485330  0.5020562816234365  0.5924482644423300
  0.8850738054485329  0.5020562816234365  0.5924482644423300
  0.9100738054485330  0.5020562816234365  0.5924482644423300
  0.9350738054485329  0.5020562816234365  0.5924482644423300
  0.9600738054485330  0.5020562816234365  0.5924482644423300
  0.9850738054485332  0.5020562816234365  0.5924482644423300
  0.0100738054485330  0.5270562816234365  0.5924482644423300
  0.0350738054485331  0.5270562816234365  0.5924482644423300
  0.0600738054485330  0.5270562816234365  0.5924482644423300
  0.0850738054485330  0.5270562816234365  0.5924482644423300
  0.1100738054485331  0.5270562816234365  0.5924482644423300
  0.1350738054485331  0.5270562816234365  0.5924482644423300
  0.1600738054485331  0.5270562816234365  0.5924482644423300
  0.1850738054485331  0.5270562816234365  0.5924482644423300
  0.2100738054485330  0.5270562816234365  0.5924482644423300
  0.2350738054485330  0.5270562816234365  0.5924482644423300
  0.2600738054485330  0.5270562816234365  0.5924482644423300
  0.2850738054485331  0.5270562816234365  0.5924482644423300
  0.3100738054485331  0.5270562816234365  0.5924482644423300
  0.3350738054485331  0.5270562816234365  0.5924482644423300
  0.3600738054485330  0.5270562816234365  0.5924482644423300
  0.3850738054485330  0.5270562816234365  0.5924482644423300
  0.4100738054485331  0.5270562816234365  0.5924482644423300
  0.4350738054485331  0.5270562816234365  0.5924482644423300
  0.4600738054485330  0.5270562816234365  0.5924482644423300
  0.4850738054485330  0.5270562816234365  0.5924482644423300
  0.5100738054485330  0.5270562816234365  0.5924482644423300
  0.5350738054485330  0.5270562816234365  0.5924482644423300
  0.5600738054485330  0.5270562816234365  0.5924482644423300
  0.5850738054485330  0.5270562816234365  0.5924482644423300
  0.6100738054485331  0.5270562816234365  0.5924482644423300
  0.6350738054485330  0.5270562816234365  0.5924482644423300
  0.6600738054485330  0.5270562816234365  0.5924482644423300
  0.6850738054485330  0.5270562816234365  0.5924482644423300
  0.7100738054485329  0.5270562816234365  0.5924482644423300
  0.7350738054485331  0.5270562816234365  0.5924482644423300
  0.7600738054485329  0.5270562816234365  0.5924482644423300
  0.7850738054485330  0.5270562816234365  0.5924482644423300
  0.8100738054485329  0.5270562816234365  0.5924482644423300
  0.8350738054485330  0.5270562816234365  0.5924482644423300
  0.8600738054485332  0.5270562816234365  0.5924482644423300
  0.8850738054485331  0.5270562816234365  0.5924482644423300
  0.9100738054485328  0.5270562816234365  0.5924482644423300
  0.9350738054485329  0.5270562816234365  0.5924482644423300
  0.9600738054485330  0.5270562816234365  0.5924482644423300
  0.9850738054485332  0.5270562816234365  0.5924482644423300
  0.0100738054485330  0.5520562816234366  0.5924482644423300
  0.0350738054485330  0.5520562816234366  0.5924482644423300
  0.0600738054485330  0.5520562816234366  0.5924482644423300
  0.0850738054485330  0.5520562816234366  0.5924482644423300
  0.1100738054485330  0.5520562816234366  0.5924482644423300
  0.1350738054485330  0.5520562816234366  0.5924482644423300
  0.1600738054485330  0.5520562816234366  0.5924482644423300
  0.1850738054485330  0.5520562816234366  0.5924482644423300
  0.2100738054485330  0.5520562816234366  0.5924482644423300
  0.2350738054485329  0.5520562816234366  0.5924482644423300
  0.2600738054485329  0.5520562816234366  0.5924482644423300
  0.2850738054485331  0.5520562816234366  0.5924482644423300
  0.3100738054485330  0.5520562816234366  0.5924482644423300
  0.3350738054485330  0.5520562816234366  0.5924482644423300
  0.3600738054485330  0.5520562816234366  0.5924482644423300
  0.3850738054485330  0.5520562816234366  0.5924482644423300
  0.4100738054485329  0.5520562816234366  0.5924482644423300
  0.4350738054485330  0.5520562816234366  0.5924482644423300
  0.4600738054485330  0.5520562816234366  0.5924482644423300
  0.4850738054485330  0.5520562816234366  0.5924482644423300
  0.5100738054485330  0.5520562816234366  0.5924482644423300
  0.5350738054485330  0.5520562816234366  0.5924482644423300
  0.5600738054485331  0.5520562816234366  0.5924482644423300
  0.5850738054485332  0.5520562816234366  0.5924482644423300
  0.6100738054485331  0.5520562816234366  0.5924482644423300
  0.6350738054485330  0.5520562816234366  0.5924482644423300
  0.6600738054485331  0.5520562816234366  0.5924482644423300
  0.6850738054485330  0.5520562816234366  0.5924482644423300
  0.7100738054485330  0.5520562816234366  0.5924482644423300
  0.7350738054485331  0.5520562816234366  0.5924482644423300
  0.7600738054485330  0.5520562816234366  0.5924482644423300
  0.7850738054485329  0.5520562816234366  0.5924482644423300
  0.8100738054485330  0.5520562816234366  0.5924482644423300
  0.8350738054485332  0.5520562816234366  0.5924482644423300
  0.8600738054485331  0.5520562816234366  0.5924482644423300
  0.8850738054485330  0.5520562816234366  0.5924482644423300
  0.9100738054485331  0.5520562816234366  0.5924482644423300
  0.9350738054485330  0.5520562816234366  0.5924482644423300
  0.9600738054485329  0.5520562816234366  0.5924482644423300
  0.9850738054485331  0.5520562816234366  0.5924482644423300
  0.0100738054485331  0.5770562816234366  0.5924482644423300
  0.0350738054485330  0.5770562816234366  0.5924482644423300
  0.0600738054485331  0.5770562816234366  0.5924482644423300
  0.0850738054485330  0.5770562816234366  0.5924482644423300
  0.1100738054485330  0.5770562816234366  0.5924482644423300
  0.1350738054485330  0.5770562816234366  0.5924482644423300
  0.1600738054485330  0.5770562816234366  0.5924482644423300
  0.1850738054485331  0.5770562816234366  0.5924482644423300
  0.2100738054485331  0.5770562816234366  0.5924482644423300
  0.2350738054485330  0.5770562816234366  0.5924482644423300
  0.2600738054485329  0.5770562816234366  0.5924482644423300
  0.2850738054485330  0.5770562816234366  0.5924482644423300
  0.3100738054485330  0.5770562816234366  0.5924482644423300
  0.3350738054485330  0.5770562816234366  0.5924482644423300
  0.3600738054485330  0.5770562816234366  0.5924482644423300
  0.3850738054485330  0.5770562816234366  0.5924482644423300
  0.4100738054485330  0.5770562816234366  0.5924482644423300
  0.4350738054485330  0.5770562816234366  0.5924482644423300
  0.4600738054485329  0.5770562816234366  0.5924482644423300
  0.4850738054485330  0.5770562816234366  0.5924482644423300
  0.5100738054485330  0.5770562816234366  0.5924482644423300
  0.5350738054485330  0.5770562816234366  0.5924482644423300
  0.5600738054485330  0.5770562816234366  0.5924482644423300
  0.5850738054485330  0.5770562816234366  0.5924482644423300
  0.6100738054485331  0.5770562816234366  0.5924482644423300
  0.6350738054485329  0.5770562816234366  0.5924482644423300
  0.6600738054485329  0.5770562816234366  0.5924482644423300
  0.6850738054485330  0.5770562816234366  0.5924482644423300
  0.7100738054485329  0.5770562816234366  0.5924482644423300
  0.7350738054485331  0.5770562816234366  0.5924482644423300
  0.7600738054485330  0.5770562816234366  0.5924482644423300
  0.7850738054485329  0.5770562816234366  0.5924482644423300
  0.8100738054485328  0.5770562816234366  0.5924482644423300
  0.8350738054485329  0.5770562816234366  0.5924482644423300
  0.8600738054485331  0.5770562816234366  0.5924482644423300
  0.8850738054485330  0.5770562816234366  0.5924482644423300
  0.9100738054485329  0.5770562816234366  0.5924482644423300
  0.9350738054485330  0.5770562816234366  0.5924482644423300
  0.9600738054485332  0.5770562816234366  0.5924482644423300
  0.9850738054485331  0.5770562816234366  0.5924482644423300
  0.0100738054485330  0.6020562816234366  0.5924482644423300
  0.0350738054485330  0.6020562816234366  0.5924482644423300
  0.0600738054485330  0.6020562816234366  0.5924482644423300
  0.0850738054485330  0.6020562816234366  0.5924482644423300
  0.1100738054485330  0.6020562816234366  0.5924482644423300
  0.1350738054485331  0.6020562816234366  0.5924482644423300
  0.1600738054485330  0.6020562816234366  0.5924482644423300
  0.1850738054485331  0.6020562816234366  0.5924482644423300
  0.2100738054485330  0.6020562816234366  0.5924482644423300
  0.2350738054485330  0.6020562816234366  0.5924482644423300
  0.2600738054485331  0.6020562816234366  0.5924482644423300
  0.2850738054485330  0.6020562816234366  0.5924482644423300
  0.3100738054485330  0.6020562816234366  0.5924482644423300
  0.3350738054485330  0.6020562816234366  0.5924482644423300
  0.3600738054485331  0.6020562816234366  0.5924482644423300
  0.3850738054485330  0.6020562816234366  0.5924482644423300
  0.4100738054485330  0.6020562816234366  0.5924482644423300
  0.4350738054485331  0.6020562816234366  0.5924482644423300
  0.4600738054485330  0.6020562816234366  0.5924482644423300
  0.4850738054485330  0.6020562816234366  0.5924482644423300
  0.5100738054485330  0.6020562816234366  0.5924482644423300
  0.5350738054485330  0.6020562816234366  0.5924482644423300
  0.5600738054485331  0.6020562816234366  0.5924482644423300
  0.5850738054485330  0.6020562816234366  0.5924482644423300
  0.6100738054485331  0.6020562816234366  0.5924482644423300
  0.6350738054485330  0.6020562816234366  0.5924482644423300
  0.6600738054485331  0.6020562816234366  0.5924482644423300
  0.6850738054485331  0.6020562816234366  0.5924482644423300
  0.7100738054485330  0.6020562816234366  0.5924482644423300
  0.7350738054485332  0.6020562816234366  0.5924482644423300
  0.7600738054485331  0.6020562816234366  0.5924482644423300
  0.7850738054485332  0.6020562816234366  0.5924482644423300
  0.8100738054485331  0.6020562816234366  0.5924482644423300
  0.8350738054485330  0.6020562816234366  0.5924482644423300
  0.8600738054485332  0.6020562816234366  0.5924482644423300
  0.8850738054485331  0.6020562816234366  0.5924482644423300
  0.9100738054485330  0.6020562816234366  0.5924482644423300
  0.9350738054485331  0.6020562816234366  0.5924482644423300
  0.9600738054485333  0.6020562816234366  0.5924482644423300
  0.9850738054485334  0.6020562816234366  0.5924482644423300
  0.0100738054485330  0.6270562816234366  0.5924482644423300
  0.0350738054485330  0.6270562816234366  0.5924482644423300
  0.0600738054485330  0.6270562816234366  0.5924482644423300
  0.0850738054485331  0.6270562816234366  0.5924482644423300
  0.1100738054485331  0.6270562816234366  0.5924482644423300
  0.1350738054485331  0.6270562816234366  0.5924482644423300
  0.1600738054485330  0.6270562816234366  0.5924482644423300
  0.1850738054485331  0.6270562816234366  0.5924482644423300
  0.2100738054485331  0.6270562816234366  0.5924482644423300
  0.2350738054485330  0.6270562816234366  0.5924482644423300
  0.2600738054485330  0.6270562816234366  0.5924482644423300
  0.2850738054485331  0.6270562816234366  0.5924482644423300
  0.3100738054485331  0.6270562816234366  0.5924482644423300
  0.3350738054485330  0.6270562816234366  0.5924482644423300
  0.3600738054485330  0.6270562816234366  0.5924482644423300
  0.3850738054485330  0.6270562816234366  0.5924482644423300
  0.4100738054485331  0.6270562816234366  0.5924482644423300
  0.4350738054485331  0.6270562816234366  0.5924482644423300
  0.4600738054485330  0.6270562816234366  0.5924482644423300
  0.4850738054485330  0.6270562816234366  0.5924482644423300
  0.5100738054485330  0.6270562816234366  0.5924482644423300
  0.5350738054485329  0.6270562816234366  0.5924482644423300
  0.5600738054485330  0.6270562816234366  0.5924482644423300
  0.5850738054485330  0.6270562816234366  0.5924482644423300
  0.6100738054485330  0.6270562816234366  0.5924482644423300
  0.6350738054485330  0.6270562816234366  0.5924482644423300
  0.6600738054485331  0.6270562816234366  0.5924482644423300
  0.6850738054485330  0.6270562816234366  0.5924482644423300
  0.7100738054485330  0.6270562816234366  0.5924482644423300
  0.7350738054485332  0.6270562816234366  0.5924482644423300
  0.7600738054485331  0.6270562816234366  0.5924482644423300
  0.7850738054485330  0.6270562816234366  0.5924482644423300
  0.8100738054485331  0.6270562816234366  0.5924482644423300
  0.8350738054485333  0.6270562816234366  0.5924482644423300
  0.8600738054485330  0.6270562816234366  0.5924482644423300
  0.8850738054485329  0.6270562816234366  0.5924482644423300
  0.9100738054485330  0.6270562816234366  0.5924482644423300
  0.9350738054485329  0.6270562816234366  0.5924482644423300
  0.9600738054485330  0.6270562816234366  0.5924482644423300
  0.9850738054485332  0.6270562816234366  0.5924482644423300
  0.0100738054485331  0.6520562816234365  0.5924482644423300
  0.0350738054485331  0.6520562816234365  0.5924482644423300
  0.0600738054485331  0.6520562816234365  0.5924482644423300
  0.0850738054485330  0.6520562816234365  0.5924482644423300
  0.1100738054485331  0.6520562816234365  0.5924482644423300
  0.1350738054485330  0.6520562816234365  0.5924482644423300
  0.1600738054485331  0.6520562816234365  0.5924482644423300
  0.1850738054485331  0.6520562816234365  0.5924482644423300
  0.2100738054485331  0.6520562816234365  0.5924482644423300
  0.2350738054485330  0.6520562816234365  0.5924482644423300
  0.2600738054485330  0.6520562816234365  0.5924482644423300
  0.2850738054485331  0.6520562816234365  0.5924482644423300
  0.3100738054485331  0.6520562816234365  0.5924482644423300
  0.3350738054485331  0.6520562816234365  0.5924482644423300
  0.3600738054485330  0.6520562816234365  0.5924482644423300
  0.3850738054485330  0.6520562816234365  0.5924482644423300
  0.4100738054485331  0.6520562816234365  0.5924482644423300
  0.4350738054485331  0.6520562816234365  0.5924482644423300
  0.4600738054485330  0.6520562816234365  0.5924482644423300
  0.4850738054485330  0.6520562816234365  0.5924482644423300
  0.5100738054485330  0.6520562816234365  0.5924482644423300
  0.5350738054485330  0.6520562816234365  0.5924482644423300
  0.5600738054485330  0.6520562816234365  0.5924482644423300
  0.5850738054485330  0.6520562816234365  0.5924482644423300
  0.6100738054485331  0.6520562816234365  0.5924482644423300
  0.6350738054485330  0.6520562816234365  0.5924482644423300
  0.6600738054485330  0.6520562816234365  0.5924482644423300
  0.6850738054485330  0.6520562816234365  0.5924482644423300
  0.7100738054485329  0.6520562816234365  0.5924482644423300
  0.7350738054485331  0.6520562816234365  0.5924482644423300
  0.7600738054485330  0.6520562816234365  0.5924482644423300
  0.7850738054485329  0.6520562816234365  0.5924482644423300
  0.8100738054485330  0.6520562816234365  0.5924482644423300
  0.8350738054485332  0.6520562816234365  0.5924482644423300
  0.8600738054485331  0.6520562816234365  0.5924482644423300
  0.8850738054485330  0.6520562816234365  0.5924482644423300
  0.9100738054485329  0.6520562816234365  0.5924482644423300
  0.9350738054485328  0.6520562816234365  0.5924482644423300
  0.9600738054485329  0.6520562816234365  0.5924482644423300
  0.9850738054485331  0.6520562816234365  0.5924482644423300
  0.0100738054485330  0.6770562816234367  0.5924482644423300
  0.0350738054485330  0.6770562816234367  0.5924482644423300
  0.0600738054485330  0.6770562816234367  0.5924482644423300
  0.0850738054485330  0.6770562816234367  0.5924482644423300
  0.1100738054485330  0.6770562816234367  0.5924482644423300
  0.1350738054485330  0.6770562816234367  0.5924482644423300
  0.1600738054485331  0.6770562816234367  0.5924482644423300
  0.1850738054485331  0.6770562816234367  0.5924482644423300
  0.2100738054485330  0.6770562816234367  0.5924482644423300
  0.2350738054485329  0.6770562816234367  0.5924482644423300
  0.2600738054485329  0.6770562816234367  0.5924482644423300
  0.2850738054485331  0.6770562816234367  0.5924482644423300
  0.3100738054485330  0.6770562816234367  0.5924482644423300
  0.3350738054485330  0.6770562816234367  0.5924482644423300
  0.3600738054485330  0.6770562816234367  0.5924482644423300
  0.3850738054485330  0.6770562816234367  0.5924482644423300
  0.4100738054485329  0.6770562816234367  0.5924482644423300
  0.4350738054485330  0.6770562816234367  0.5924482644423300
  0.4600738054485330  0.6770562816234367  0.5924482644423300
  0.4850738054485330  0.6770562816234367  0.5924482644423300
  0.5100738054485329  0.6770562816234367  0.5924482644423300
  0.5350738054485329  0.6770562816234367  0.5924482644423300
  0.5600738054485330  0.6770562816234367  0.5924482644423300
  0.5850738054485329  0.6770562816234367  0.5924482644423300
  0.6100738054485328  0.6770562816234367  0.5924482644423300
  0.6350738054485328  0.6770562816234367  0.5924482644423300
  0.6600738054485329  0.6770562816234367  0.5924482644423300
  0.6850738054485330  0.6770562816234367  0.5924482644423300
  0.7100738054485329  0.6770562816234367  0.5924482644423300
  0.7350738054485328  0.6770562816234367  0.5924482644423300
  0.7600738054485328  0.6770562816234367  0.5924482644423300
  0.7850738054485329  0.6770562816234367  0.5924482644423300
  0.8100738054485328  0.6770562816234367  0.5924482644423300
  0.8350738054485329  0.6770562816234367  0.5924482644423300
  0.8600738054485331  0.6770562816234367  0.5924482644423300
  0.8850738054485330  0.6770562816234367  0.5924482644423300
  0.9100738054485329  0.6770562816234367  0.5924482644423300
  0.9350738054485328  0.6770562816234367  0.5924482644423300
  0.9600738054485329  0.6770562816234367  0.5924482644423300
  0.9850738054485331  0.6770562816234367  0.5924482644423300
  0.0100738054485330  0.7020562816234367  0.5924482644423300
  0.0350738054485330  0.7020562816234367  0.5924482644423300
  0.0600738054485330  0.7020562816234367  0.5924482644423300
  0.0850738054485330  0.7020562816234367  0.5924482644423300
  0.1100738054485330  0.7020562816234367  0.5924482644423300
  0.1350738054485330  0.7020562816234367  0.5924482644423300
  0.1600738054485330  0.7020562816234367  0.5924482644423300
  0.1850738054485330  0.7020562816234367  0.5924482644423300
  0.2100738054485330  0.7020562816234367  0.5924482644423300
  0.2350738054485330  0.7020562816234367  0.5924482644423300
  0.2600738054485330  0.7020562816234367  0.5924482644423300
  0.2850738054485330  0.7020562816234367  0.5924482644423300
  0.3100738054485330  0.7020562816234367  0.5924482644423300
  0.3350738054485329  0.7020562816234367  0.5924482644423300
  0.3600738054485330  0.7020562816234367  0.5924482644423300
  0.3850738054485330  0.7020562816234367  0.5924482644423300
  0.4100738054485330  0.7020562816234367  0.5924482644423300
  0.4350738054485330  0.7020562816234367  0.5924482644423300
  0.4600738054485329  0.7020562816234367  0.5924482644423300
  0.4850738054485330  0.7020562816234367  0.5924482644423300
  0.5100738054485330  0.7020562816234367  0.5924482644423300
  0.5350738054485329  0.7020562816234367  0.5924482644423300
  0.5600738054485330  0.7020562816234367  0.5924482644423300
  0.5850738054485332  0.7020562816234367  0.5924482644423300
  0.6100738054485331  0.7020562816234367  0.5924482644423300
  0.6350738054485329  0.7020562816234367  0.5924482644423300
  0.6600738054485330  0.7020562816234367  0.5924482644423300
  0.6850738054485331  0.7020562816234367  0.5924482644423300
  0.7100738054485330  0.7020562816234367  0.5924482644423300
  0.7350738054485332  0.7020562816234367  0.5924482644423300
  0.7600738054485331  0.7020562816234367  0.5924482644423300
  0.7850738054485330  0.7020562816234367  0.5924482644423300
  0.8100738054485329  0.7020562816234367  0.5924482644423300
  0.8350738054485330  0.7020562816234367  0.5924482644423300
  0.8600738054485332  0.7020562816234367  0.5924482644423300
  0.8850738054485331  0.7020562816234367  0.5924482644423300
  0.9100738054485330  0.7020562816234367  0.5924482644423300
  0.9350738054485331  0.7020562816234367  0.5924482644423300
  0.9600738054485330  0.7020562816234367  0.5924482644423300
  0.9850738054485332  0.7020562816234367  0.5924482644423300
  0.0100738054485330  0.7270562816234367  0.5924482644423300
  0.0350738054485331  0.7270562816234367  0.5924482644423300
  0.0600738054485330  0.7270562816234367  0.5924482644423300
  0.0850738054485330  0.7270562816234367  0.5924482644423300
  0.1100738054485330  0.7270562816234367  0.5924482644423300
  0.1350738054485330  0.7270562816234367  0.5924482644423300
  0.1600738054485331  0.7270562816234367  0.5924482644423300
  0.1850738054485330  0.7270562816234367  0.5924482644423300
  0.2100738054485330  0.7270562816234367  0.5924482644423300
  0.2350738054485330  0.7270562816234367  0.5924482644423300
  0.2600738054485330  0.7270562816234367  0.5924482644423300
  0.2850738054485329  0.7270562816234367  0.5924482644423300
  0.3100738054485330  0.7270562816234367  0.5924482644423300
  0.3350738054485330  0.7270562816234367  0.5924482644423300
  0.3600738054485330  0.7270562816234367  0.5924482644423300
  0.3850738054485329  0.7270562816234367  0.5924482644423300
  0.4100738054485329  0.7270562816234367  0.5924482644423300
  0.4350738054485331  0.7270562816234367  0.5924482644423300
  0.4600738054485330  0.7270562816234367  0.5924482644423300
  0.4850738054485329  0.7270562816234367  0.5924482644423300
  0.5100738054485330  0.7270562816234367  0.5924482644423300
  0.5350738054485330  0.7270562816234367  0.5924482644423300
  0.5600738054485331  0.7270562816234367  0.5924482644423300
  0.5850738054485330  0.7270562816234367  0.5924482644423300
  0.6100738054485332  0.7270562816234367  0.5924482644423300
  0.6350738054485331  0.7270562816234367  0.5924482644423300
  0.6600738054485331  0.7270562816234367  0.5924482644423300
  0.6850738054485330  0.7270562816234367  0.5924482644423300
  0.7100738054485332  0.7270562816234367  0.5924482644423300
  0.7350738054485333  0.7270562816234367  0.5924482644423300
  0.7600738054485332  0.7270562816234367  0.5924482644423300
  0.7850738054485331  0.7270562816234367  0.5924482644423300
  0.8100738054485330  0.7270562816234367  0.5924482644423300
  0.8350738054485332  0.7270562816234367  0.5924482644423300
  0.8600738054485331  0.7270562816234367  0.5924482644423300
  0.8850738054485330  0.7270562816234367  0.5924482644423300
  0.9100738054485331  0.7270562816234367  0.5924482644423300
  0.9350738054485330  0.7270562816234367  0.5924482644423300
  0.9600738054485332  0.7270562816234367  0.5924482644423300
  0.9850738054485333  0.7270562816234367  0.5924482644423300
  0.0100738054485330  0.7520562816234366  0.5924482644423300
  0.0350738054485331  0.7520562816234366  0.5924482644423300
  0.0600738054485330  0.7520562816234366  0.5924482644423300
  0.0850738054485331  0.7520562816234366  0.5924482644423300
  0.1100738054485330  0.7520562816234366  0.5924482644423300
  0.1350738054485330  0.7520562816234366  0.5924482644423300
  0.1600738054485330  0.7520562816234366  0.5924482644423300
  0.1850738054485330  0.7520562816234366  0.5924482644423300
  0.2100738054485329  0.7520562816234366  0.5924482644423300
  0.2350738054485330  0.7520562816234366  0.5924482644423300
  0.2600738054485330  0.7520562816234366  0.5924482644423300
  0.2850738054485330  0.7520562816234366  0.5924482644423300
  0.3100738054485329  0.7520562816234366  0.5924482644423300
  0.3350738054485329  0.7520562816234366  0.5924482644423300
  0.3600738054485330  0.7520562816234366  0.5924482644423300
  0.3850738054485330  0.7520562816234366  0.5924482644423300
  0.4100738054485329  0.7520562816234366  0.5924482644423300
  0.4350738054485330  0.7520562816234366  0.5924482644423300
  0.4600738054485329  0.7520562816234366  0.5924482644423300
  0.4850738054485330  0.7520562816234366  0.5924482644423300
  0.5100738054485329  0.7520562816234366  0.5924482644423300
  0.5350738054485329  0.7520562816234366  0.5924482644423300
  0.5600738054485330  0.7520562816234366  0.5924482644423300
  0.5850738054485332  0.7520562816234366  0.5924482644423300
  0.6100738054485330  0.7520562816234366  0.5924482644423300
  0.6350738054485330  0.7520562816234366  0.5924482644423300
  0.6600738054485329  0.7520562816234366  0.5924482644423300
  0.6850738054485330  0.7520562816234366  0.5924482644423300
  0.7100738054485329  0.7520562816234366  0.5924482644423300
  0.7350738054485331  0.7520562816234366  0.5924482644423300
  0.7600738054485330  0.7520562816234366  0.5924482644423300
  0.7850738054485331  0.7520562816234366  0.5924482644423300
  0.8100738054485330  0.7520562816234366  0.5924482644423300
  0.8350738054485332  0.7520562816234366  0.5924482644423300
  0.8600738054485331  0.7520562816234366  0.5924482644423300
  0.8850738054485330  0.7520562816234366  0.5924482644423300
  0.9100738054485329  0.7520562816234366  0.5924482644423300
  0.9350738054485330  0.7520562816234366  0.5924482644423300
  0.9600738054485332  0.7520562816234366  0.5924482644423300
  0.9850738054485333  0.7520562816234366  0.5924482644423300
  0.0100738054485331  0.7770562816234365  0.5924482644423300
  0.0350738054485330  0.7770562816234365  0.5924482644423300
  0.0600738054485330  0.7770562816234365  0.5924482644423300
  0.0850738054485331  0.7770562816234365  0.5924482644423300
  0.1100738054485331  0.7770562816234365  0.5924482644423300
  0.1350738054485331  0.7770562816234365  0.5924482644423300
  0.1600738054485330  0.7770562816234365  0.5924482644423300
  0.1850738054485331  0.7770562816234365  0.5924482644423300
  0.2100738054485331  0.7770562816234365  0.5924482644423300
  0.2350738054485331  0.7770562816234365  0.5924482644423300
  0.2600738054485330  0.7770562816234365  0.5924482644423300
  0.2850738054485330  0.7770562816234365  0.5924482644423300
  0.3100738054485330  0.7770562816234365  0.5924482644423300
  0.3350738054485330  0.7770562816234365  0.5924482644423300
  0.3600738054485330  0.7770562816234365  0.5924482644423300
  0.3850738054485330  0.7770562816234365  0.5924482644423300
  0.4100738054485330  0.7770562816234365  0.5924482644423300
  0.4350738054485331  0.7770562816234365  0.5924482644423300
  0.4600738054485329  0.7770562816234365  0.5924482644423300
  0.4850738054485330  0.7770562816234365  0.5924482644423300
  0.5100738054485330  0.7770562816234365  0.5924482644423300
  0.5350738054485330  0.7770562816234365  0.5924482644423300
  0.5600738054485331  0.7770562816234365  0.5924482644423300
  0.5850738054485330  0.7770562816234365  0.5924482644423300
  0.6100738054485332  0.7770562816234365  0.5924482644423300
  0.6350738054485331  0.7770562816234365  0.5924482644423300
  0.6600738054485332  0.7770562816234365  0.5924482644423300
  0.6850738054485331  0.7770562816234365  0.5924482644423300
  0.7100738054485330  0.7770562816234365  0.5924482644423300
  0.7350738054485332  0.7770562816234365  0.5924482644423300
  0.7600738054485331  0.7770562816234365  0.5924482644423300
  0.7850738054485330  0.7770562816234365  0.5924482644423300
  0.8100738054485331  0.7770562816234365  0.5924482644423300
  0.8350738054485333  0.7770562816234365  0.5924482644423300
  0.8600738054485332  0.7770562816234365  0.5924482644423300
  0.8850738054485331  0.7770562816234365  0.5924482644423300
  0.9100738054485330  0.7770562816234365  0.5924482644423300
  0.9350738054485329  0.7770562816234365  0.5924482644423300
  0.9600738054485330  0.7770562816234365  0.5924482644423300
  0.9850738054485332  0.7770562816234365  0.5924482644423300
  0.0100738054485331  0.8020562816234366  0.5924482644423300
  0.0350738054485330  0.8020562816234366  0.5924482644423300
  0.0600738054485331  0.8020562816234366  0.5924482644423300
  0.0850738054485331  0.8020562816234366  0.5924482644423300
  0.1100738054485330  0.8020562816234366  0.5924482644423300
  0.1350738054485331  0.8020562816234366  0.5924482644423300
  0.1600738054485331  0.8020562816234366  0.5924482644423300
  0.1850738054485331  0.8020562816234366  0.5924482644423300
  0.2100738054485330  0.8020562816234366  0.5924482644423300
  0.2350738054485330  0.8020562816234366  0.5924482644423300
  0.2600738054485331  0.8020562816234366  0.5924482644423300
  0.2850738054485331  0.8020562816234366  0.5924482644423300
  0.3100738054485330  0.8020562816234366  0.5924482644423300
  0.3350738054485330  0.8020562816234366  0.5924482644423300
  0.3600738054485331  0.8020562816234366  0.5924482644423300
  0.3850738054485331  0.8020562816234366  0.5924482644423300
  0.4100738054485330  0.8020562816234366  0.5924482644423300
  0.4350738054485331  0.8020562816234366  0.5924482644423300
  0.4600738054485330  0.8020562816234366  0.5924482644423300
  0.4850738054485331  0.8020562816234366  0.5924482644423300
  0.5100738054485330  0.8020562816234366  0.5924482644423300
  0.5350738054485330  0.8020562816234366  0.5924482644423300
  0.5600738054485331  0.8020562816234366  0.5924482644423300
  0.5850738054485332  0.8020562816234366  0.5924482644423300
  0.6100738054485331  0.8020562816234366  0.5924482644423300
  0.6350738054485330  0.8020562816234366  0.5924482644423300
  0.6600738054485331  0.8020562816234366  0.5924482644423300
  0.6850738054485332  0.8020562816234366  0.5924482644423300
  0.7100738054485332  0.8020562816234366  0.5924482644423300
  0.7350738054485331  0.8020562816234366  0.5924482644423300
  0.7600738054485330  0.8020562816234366  0.5924482644423300
  0.7850738054485331  0.8020562816234366  0.5924482644423300
  0.8100738054485330  0.8020562816234366  0.5924482644423300
  0.8350738054485332  0.8020562816234366  0.5924482644423300
  0.8600738054485333  0.8020562816234366  0.5924482644423300
  0.8850738054485332  0.8020562816234366  0.5924482644423300
  0.9100738054485331  0.8020562816234366  0.5924482644423300
  0.9350738054485330  0.8020562816234366  0.5924482644423300
  0.9600738054485332  0.8020562816234366  0.5924482644423300
  0.9850738054485333  0.8020562816234366  0.5924482644423300
  0.0100738054485331  0.8270562816234366  0.5924482644423300
  0.0350738054485331  0.8270562816234366  0.5924482644423300
  0.0600738054485331  0.8270562816234366  0.5924482644423300
  0.0850738054485331  0.8270562816234366  0.5924482644423300
  0.1100738054485331  0.8270562816234366  0.5924482644423300
  0.1350738054485330  0.8270562816234366  0.5924482644423300
  0.1600738054485330  0.8270562816234366  0.5924482644423300
  0.1850738054485331  0.8270562816234366  0.5924482644423300
  0.2100738054485331  0.8270562816234366  0.5924482644423300
  0.2350738054485330  0.8270562816234366  0.5924482644423300
  0.2600738054485330  0.8270562816234366  0.5924482644423300
  0.2850738054485331  0.8270562816234366  0.5924482644423300
  0.3100738054485331  0.8270562816234366  0.5924482644423300
  0.3350738054485330  0.8270562816234366  0.5924482644423300
  0.3600738054485330  0.8270562816234366  0.5924482644423300
  0.3850738054485330  0.8270562816234366  0.5924482644423300
  0.4100738054485331  0.8270562816234366  0.5924482644423300
  0.4350738054485331  0.8270562816234366  0.5924482644423300
  0.4600738054485330  0.8270562816234366  0.5924482644423300
  0.4850738054485330  0.8270562816234366  0.5924482644423300
  0.5100738054485330  0.8270562816234366  0.5924482644423300
  0.5350738054485330  0.8270562816234366  0.5924482644423300
  0.5600738054485331  0.8270562816234366  0.5924482644423300
  0.5850738054485330  0.8270562816234366  0.5924482644423300
  0.6100738054485331  0.8270562816234366  0.5924482644423300
  0.6350738054485330  0.8270562816234366  0.5924482644423300
  0.6600738054485331  0.8270562816234366  0.5924482644423300
  0.6850738054485330  0.8270562816234366  0.5924482644423300
  0.7100738054485332  0.8270562816234366  0.5924482644423300
  0.7350738054485333  0.8270562816234366  0.5924482644423300
  0.7600738054485330  0.8270562816234366  0.5924482644423300
  0.7850738054485329  0.8270562816234366  0.5924482644423300
  0.8100738054485330  0.8270562816234366  0.5924482644423300
  0.8350738054485332  0.8270562816234366  0.5924482644423300
  0.8600738054485331  0.8270562816234366  0.5924482644423300
  0.8850738054485330  0.8270562816234366  0.5924482644423300
  0.9100738054485331  0.8270562816234366  0.5924482644423300
  0.9350738054485330  0.8270562816234366  0.5924482644423300
  0.9600738054485329  0.8270562816234366  0.5924482644423300
  0.9850738054485331  0.8270562816234366  0.5924482644423300
  0.0100738054485330  0.8520562816234367  0.5924482644423300
  0.0350738054485330  0.8520562816234367  0.5924482644423300
  0.0600738054485330  0.8520562816234367  0.5924482644423300
  0.0850738054485330  0.8520562816234367  0.5924482644423300
  0.1100738054485330  0.8520562816234367  0.5924482644423300
  0.1350738054485330  0.8520562816234367  0.5924482644423300
  0.1600738054485330  0.8520562816234367  0.5924482644423300
  0.1850738054485331  0.8520562816234367  0.5924482644423300
  0.2100738054485330  0.8520562816234367  0.5924482644423300
  0.2350738054485330  0.8520562816234367  0.5924482644423300
  0.2600738054485330  0.8520562816234367  0.5924482644423300
  0.2850738054485331  0.8520562816234367  0.5924482644423300
  0.3100738054485331  0.8520562816234367  0.5924482644423300
  0.3350738054485331  0.8520562816234367  0.5924482644423300
  0.3600738054485330  0.8520562816234367  0.5924482644423300
  0.3850738054485330  0.8520562816234367  0.5924482644423300
  0.4100738054485331  0.8520562816234367  0.5924482644423300
  0.4350738054485331  0.8520562816234367  0.5924482644423300
  0.4600738054485330  0.8520562816234367  0.5924482644423300
  0.4850738054485330  0.8520562816234367  0.5924482644423300
  0.5100738054485330  0.8520562816234367  0.5924482644423300
  0.5350738054485329  0.8520562816234367  0.5924482644423300
  0.5600738054485329  0.8520562816234367  0.5924482644423300
  0.5850738054485332  0.8520562816234367  0.5924482644423300
  0.6100738054485328  0.8520562816234367  0.5924482644423300
  0.6350738054485328  0.8520562816234367  0.5924482644423300
  0.6600738054485329  0.8520562816234367  0.5924482644423300
  0.6850738054485330  0.8520562816234367  0.5924482644423300
  0.7100738054485329  0.8520562816234367  0.5924482644423300
  0.7350738054485331  0.8520562816234367  0.5924482644423300
  0.7600738054485330  0.8520562816234367  0.5924482644423300
  0.7850738054485331  0.8520562816234367  0.5924482644423300
  0.8100738054485328  0.8520562816234367  0.5924482644423300
  0.8350738054485329  0.8520562816234367  0.5924482644423300
  0.8600738054485331  0.8520562816234367  0.5924482644423300
  0.8850738054485330  0.8520562816234367  0.5924482644423300
  0.9100738054485329  0.8520562816234367  0.5924482644423300
  0.9350738054485330  0.8520562816234367  0.5924482644423300
  0.9600738054485332  0.8520562816234367  0.5924482644423300
  0.9850738054485331  0.8520562816234367  0.5924482644423300
  0.0100738054485330  0.8770562816234367  0.5924482644423300
  0.0350738054485330  0.8770562816234367  0.5924482644423300
  0.0600738054485330  0.8770562816234367  0.5924482644423300
  0.0850738054485330  0.8770562816234367  0.5924482644423300
  0.1100738054485329  0.8770562816234367  0.5924482644423300
  0.1350738054485330  0.8770562816234367  0.5924482644423300
  0.1600738054485330  0.8770562816234367  0.5924482644423300
  0.1850738054485331  0.8770562816234367  0.5924482644423300
  0.2100738054485329  0.8770562816234367  0.5924482644423300
  0.2350738054485329  0.8770562816234367  0.5924482644423300
  0.2600738054485330  0.8770562816234367  0.5924482644423300
  0.2850738054485331  0.8770562816234367  0.5924482644423300
  0.3100738054485330  0.8770562816234367  0.5924482644423300
  0.3350738054485330  0.8770562816234367  0.5924482644423300
  0.3600738054485331  0.8770562816234367  0.5924482644423300
  0.3850738054485331  0.8770562816234367  0.5924482644423300
  0.4100738054485330  0.8770562816234367  0.5924482644423300
  0.4350738054485330  0.8770562816234367  0.5924482644423300
  0.4600738054485330  0.8770562816234367  0.5924482644423300
  0.4850738054485331  0.8770562816234367  0.5924482644423300
  0.5100738054485329  0.8770562816234367  0.5924482644423300
  0.5350738054485330  0.8770562816234367  0.5924482644423300
  0.5600738054485331  0.8770562816234367  0.5924482644423300
  0.5850738054485330  0.8770562816234367  0.5924482644423300
  0.6100738054485332  0.8770562816234367  0.5924482644423300
  0.6350738054485331  0.8770562816234367  0.5924482644423300
  0.6600738054485330  0.8770562816234367  0.5924482644423300
  0.6850738054485329  0.8770562816234367  0.5924482644423300
  0.7100738054485330  0.8770562816234367  0.5924482644423300
  0.7350738054485332  0.8770562816234367  0.5924482644423300
  0.7600738054485331  0.8770562816234367  0.5924482644423300
  0.7850738054485330  0.8770562816234367  0.5924482644423300
  0.8100738054485331  0.8770562816234367  0.5924482644423300
  0.8350738054485330  0.8770562816234367  0.5924482644423300
  0.8600738054485330  0.8770562816234367  0.5924482644423300
  0.8850738054485329  0.8770562816234367  0.5924482644423300
  0.9100738054485330  0.8770562816234367  0.5924482644423300
  0.9350738054485329  0.8770562816234367  0.5924482644423300
  0.9600738054485330  0.8770562816234367  0.5924482644423300
  0.9850738054485332  0.8770562816234367  0.5924482644423300
  0.0100738054485331  0.9020562816234365  0.5924482644423300
  0.0350738054485331  0.9020562816234365  0.5924482644423300
  0.0600738054485330  0.9020562816234365  0.5924482644423300
  0.0850738054485330  0.9020562816234365  0.5924482644423300
  0.1100738054485331  0.9020562816234365  0.5924482644423300
  0.1350738054485331  0.9020562816234365  0.5924482644423300
  0.1600738054485330  0.9020562816234365  0.5924482644423300
  0.1850738054485330  0.9020562816234365  0.5924482644423300
  0.2100738054485330  0.9020562816234365  0.5924482644423300
  0.2350738054485331  0.9020562816234365  0.5924482644423300
  0.2600738054485330  0.9020562816234365  0.5924482644423300
  0.2850738054485330  0.9020562816234365  0.5924482644423300
  0.3100738054485330  0.9020562816234365  0.5924482644423300
  0.3350738054485330  0.9020562816234365  0.5924482644423300
  0.3600738054485330  0.9020562816234365  0.5924482644423300
  0.3850738054485330  0.9020562816234365  0.5924482644423300
  0.4100738054485330  0.9020562816234365  0.5924482644423300
  0.4350738054485330  0.9020562816234365  0.5924482644423300
  0.4600738054485329  0.9020562816234365  0.5924482644423300
  0.4850738054485330  0.9020562816234365  0.5924482644423300
  0.5100738054485331  0.9020562816234365  0.5924482644423300
  0.5350738054485330  0.9020562816234365  0.5924482644423300
  0.5600738054485330  0.9020562816234365  0.5924482644423300
  0.5850738054485332  0.9020562816234365  0.5924482644423300
  0.6100738054485331  0.9020562816234365  0.5924482644423300
  0.6350738054485330  0.9020562816234365  0.5924482644423300
  0.6600738054485331  0.9020562816234365  0.5924482644423300
  0.6850738054485330  0.9020562816234365  0.5924482644423300
  0.7100738054485329  0.9020562816234365  0.5924482644423300
  0.7350738054485331  0.9020562816234365  0.5924482644423300
  0.7600738054485330  0.9020562816234365  0.5924482644423300
  0.7850738054485331  0.9020562816234365  0.5924482644423300
  0.8100738054485330  0.9020562816234365  0.5924482644423300
  0.8350738054485332  0.9020562816234365  0.5924482644423300
  0.8600738054485333  0.9020562816234365  0.5924482644423300
  0.8850738054485330  0.9020562816234365  0.5924482644423300
  0.9100738054485329  0.9020562816234365  0.5924482644423300
  0.9350738054485330  0.9020562816234365  0.5924482644423300
  0.9600738054485332  0.9020562816234365  0.5924482644423300
  0.9850738054485333  0.9020562816234365  0.5924482644423300
  0.0100738054485330  0.9270562816234366  0.5924482644423300
  0.0350738054485331  0.9270562816234366  0.5924482644423300
  0.0600738054485331  0.9270562816234366  0.5924482644423300
  0.0850738054485330  0.9270562816234366  0.5924482644423300
  0.1100738054485330  0.9270562816234366  0.5924482644423300
  0.1350738054485330  0.9270562816234366  0.5924482644423300
  0.1600738054485331  0.9270562816234366  0.5924482644423300
  0.1850738054485330  0.9270562816234366  0.5924482644423300
  0.2100738054485330  0.9270562816234366  0.5924482644423300
  0.2350738054485330  0.9270562816234366  0.5924482644423300
  0.2600738054485330  0.9270562816234366  0.5924482644423300
  0.2850738054485329  0.9270562816234366  0.5924482644423300
  0.3100738054485330  0.9270562816234366  0.5924482644423300
  0.3350738054485330  0.9270562816234366  0.5924482644423300
  0.3600738054485330  0.9270562816234366  0.5924482644423300
  0.3850738054485329  0.9270562816234366  0.5924482644423300
  0.4100738054485329  0.9270562816234366  0.5924482644423300
  0.4350738054485331  0.9270562816234366  0.5924482644423300
  0.4600738054485330  0.9270562816234366  0.5924482644423300
  0.4850738054485330  0.9270562816234366  0.5924482644423300
  0.5100738054485329  0.9270562816234366  0.5924482644423300
  0.5350738054485330  0.9270562816234366  0.5924482644423300
  0.5600738054485330  0.9270562816234366  0.5924482644423300
  0.5850738054485329  0.9270562816234366  0.5924482644423300
  0.6100738054485331  0.9270562816234366  0.5924482644423300
  0.6350738054485330  0.9270562816234366  0.5924482644423300
  0.6600738054485331  0.9270562816234366  0.5924482644423300
  0.6850738054485330  0.9270562816234366  0.5924482644423300
  0.7100738054485332  0.9270562816234366  0.5924482644423300
  0.7350738054485331  0.9270562816234366  0.5924482644423300
  0.7600738054485330  0.9270562816234366  0.5924482644423300
  0.7850738054485329  0.9270562816234366  0.5924482644423300
  0.8100738054485330  0.9270562816234366  0.5924482644423300
  0.8350738054485332  0.9270562816234366  0.5924482644423300
  0.8600738054485331  0.9270562816234366  0.5924482644423300
  0.8850738054485330  0.9270562816234366  0.5924482644423300
  0.9100738054485331  0.9270562816234366  0.5924482644423300
  0.9350738054485328  0.9270562816234366  0.5924482644423300
  0.9600738054485329  0.9270562816234366  0.5924482644423300
  0.9850738054485331  0.9270562816234366  0.5924482644423300
  0.0100738054485330  0.9520562816234366  0.5924482644423300
  0.0350738054485330  0.9520562816234366  0.5924482644423300
  0.0600738054485330  0.9520562816234366  0.5924482644423300
  0.0850738054485330  0.9520562816234366  0.5924482644423300
  0.1100738054485331  0.9520562816234366  0.5924482644423300
  0.1350738054485330  0.9520562816234366  0.5924482644423300
  0.1600738054485330  0.9520562816234366  0.5924482644423300
  0.1850738054485331  0.9520562816234366  0.5924482644423300
  0.2100738054485330  0.9520562816234366  0.5924482644423300
  0.2350738054485330  0.9520562816234366  0.5924482644423300
  0.2600738054485330  0.9520562816234366  0.5924482644423300
  0.2850738054485331  0.9520562816234366  0.5924482644423300
  0.3100738054485331  0.9520562816234366  0.5924482644423300
  0.3350738054485330  0.9520562816234366  0.5924482644423300
  0.3600738054485331  0.9520562816234366  0.5924482644423300
  0.3850738054485331  0.9520562816234366  0.5924482644423300
  0.4100738054485331  0.9520562816234366  0.5924482644423300
  0.4350738054485330  0.9520562816234366  0.5924482644423300
  0.4600738054485330  0.9520562816234366  0.5924482644423300
  0.4850738054485330  0.9520562816234366  0.5924482644423300
  0.5100738054485331  0.9520562816234366  0.5924482644423300
  0.5350738054485330  0.9520562816234366  0.5924482644423300
  0.5600738054485331  0.9520562816234366  0.5924482644423300
  0.5850738054485330  0.9520562816234366  0.5924482644423300
  0.6100738054485330  0.9520562816234366  0.5924482644423300
  0.6350738054485329  0.9520562816234366  0.5924482644423300
  0.6600738054485330  0.9520562816234366  0.5924482644423300
  0.6850738054485331  0.9520562816234366  0.5924482644423300
  0.7100738054485330  0.9520562816234366  0.5924482644423300
  0.7350738054485332  0.9520562816234366  0.5924482644423300
  0.7600738054485329  0.9520562816234366  0.5924482644423300
  0.7850738054485330  0.9520562816234366  0.5924482644423300
  0.8100738054485329  0.9520562816234366  0.5924482644423300
  0.8350738054485330  0.9520562816234366  0.5924482644423300
  0.8600738054485332  0.9520562816234366  0.5924482644423300
  0.8850738054485331  0.9520562816234366  0.5924482644423300
  0.9100738054485330  0.9520562816234366  0.5924482644423300
  0.9350738054485331  0.9520562816234366  0.5924482644423300
  0.9600738054485330  0.9520562816234366  0.5924482644423300
  0.9850738054485332  0.9520562816234366  0.5924482644423300
  0.0100738054485330  0.9770562816234366  0.5924482644423300
  0.0350738054485331  0.9770562816234366  0.5924482644423300
  0.0600738054485331  0.9770562816234366  0.5924482644423300
  0.0850738054485330  0.9770562816234366  0.5924482644423300
  0.1100738054485331  0.9770562816234366  0.5924482644423300
  0.1350738054485331  0.9770562816234366  0.5924482644423300
  0.1600738054485331  0.9770562816234366  0.5924482644423300
  0.1850738054485331  0.9770562816234366  0.5924482644423300
  0.2100738054485331  0.9770562816234366  0.5924482644423300
  0.2350738054485330  0.9770562816234366  0.5924482644423300
  0.2600738054485329  0.9770562816234366  0.5924482644423300
  0.2850738054485331  0.9770562816234366  0.5924482644423300
  0.3100738054485331  0.9770562816234366  0.5924482644423300
  0.3350738054485331  0.9770562816234366  0.5924482644423300
  0.3600738054485330  0.9770562816234366  0.5924482644423300
  0.3850738054485330  0.9770562816234366  0.5924482644423300
  0.4100738054485331  0.9770562816234366  0.5924482644423300
  0.4350738054485331  0.9770562816234366  0.5924482644423300
  0.4600738054485329  0.9770562816234366  0.5924482644423300
  0.4850738054485330  0.9770562816234366  0.5924482644423300
  0.5100738054485330  0.9770562816234366  0.5924482644423300
  0.5350738054485331  0.9770562816234366  0.5924482644423300
  0.5600738054485332  0.9770562816234366  0.5924482644423300
  0.5850738054485332  0.9770562816234366  0.5924482644423300
  0.6100738054485331  0.9770562816234366  0.5924482644423300
  0.6350738054485330  0.9770562816234366  0.5924482644423300
  0.6600738054485331  0.9770562816234366  0.5924482644423300
  0.6850738054485330  0.9770562816234366  0.5924482644423300
  0.7100738054485332  0.9770562816234366  0.5924482644423300
  0.7350738054485333  0.9770562816234366  0.5924482644423300
  0.7600738054485332  0.9770562816234366  0.5924482644423300
  0.7850738054485331  0.9770562816234366  0.5924482644423300
  0.8100738054485330  0.9770562816234366  0.5924482644423300
  0.8350738054485332  0.9770562816234366  0.5924482644423300
  0.8600738054485331  0.9770562816234366  0.5924482644423300
  0.8850738054485330  0.9770562816234366  0.5924482644423300
  0.9100738054485331  0.9770562816234366  0.5924482644423300
  0.9350738054485330  0.9770562816234366  0.5924482644423300
  0.9600738054485332  0.9770562816234366  0.5924482644423300
  0.9850738054485331  0.9770562816234366  0.5924482644423300
  0.0169193707119340  0.0133651114092140  0.5778109184832200
  0.0419193707119340  0.0133651114092140  0.5778109184832200
  0.0669193707119340  0.0133651114092140  0.5778109184832200
  0.0919193707119340  0.0133651114092140  0.5778109184832200
  0.1169193707119340  0.0133651114092140  0.5778109184832200
  0.1419193707119340  0.0133651114092140  0.5778109184832200
  0.1669193707119340  0.0133651114092140  0.5778109184832200
  0.1919193707119340  0.0133651114092140  0.5778109184832200
  0.2169193707119340  0.0133651114092140  0.5778109184832200
  0.2419193707119340  0.0133651114092140  0.5778109184832200
  0.2669193707119341  0.0133651114092140  0.5778109184832200
  0.2919193707119341  0.0133651114092140  0.5778109184832200
  0.3169193707119340  0.0133651114092140  0.5778109184832200
  0.3419193707119341  0.0133651114092140  0.5778109184832200
  0.3669193707119341  0.0133651114092140  0.5778109184832200
  0.3919193707119340  0.0133651114092140  0.5778109184832200
  0.4169193707119341  0.0133651114092140  0.5778109184832200
  0.4419193707119340  0.0133651114092140  0.5778109184832200
  0.4669193707119341  0.0133651114092140  0.5778109184832200
  0.4919193707119340  0.0133651114092140  0.5778109184832200
  0.5169193707119341  0.0133651114092140  0.5778109184832200
  0.5419193707119340  0.0133651114092140  0.5778109184832200
  0.5669193707119339  0.0133651114092140  0.5778109184832200
  0.5919193707119340  0.0133651114092140  0.5778109184832200
  0.6169193707119340  0.0133651114092140  0.5778109184832200
  0.6419193707119341  0.0133651114092140  0.5778109184832200
  0.6669193707119341  0.0133651114092140  0.5778109184832200
  0.6919193707119340  0.0133651114092140  0.5778109184832200
  0.7169193707119340  0.0133651114092140  0.5778109184832200
  0.7419193707119340  0.0133651114092140  0.5778109184832200
  0.7669193707119341  0.0133651114092140  0.5778109184832200
  0.7919193707119341  0.0133651114092140  0.5778109184832200
  0.8169193707119341  0.0133651114092140  0.5778109184832200
  0.8419193707119340  0.0133651114092140  0.5778109184832200
  0.8669193707119341  0.0133651114092140  0.5778109184832200
  0.8919193707119342  0.0133651114092140  0.5778109184832200
  0.9169193707119341  0.0133651114092140  0.5778109184832200
  0.9419193707119341  0.0133651114092140  0.5778109184832200
  0.9669193707119340  0.0133651114092140  0.5778109184832200
  0.9919193707119341  0.0133651114092140  0.5778109184832200
  0.0169193707119340  0.0383651114092140  0.5778109184832200
  0.0419193707119340  0.0383651114092140  0.5778109184832200
  0.0669193707119340  0.0383651114092140  0.5778109184832200
  0.0919193707119340  0.0383651114092140  0.5778109184832200
  0.1169193707119340  0.0383651114092140  0.5778109184832200
  0.1419193707119340  0.0383651114092140  0.5778109184832200
  0.1669193707119340  0.0383651114092140  0.5778109184832200
  0.1919193707119340  0.0383651114092140  0.5778109184832200
  0.2169193707119340  0.0383651114092140  0.5778109184832200
  0.2419193707119340  0.0383651114092140  0.5778109184832200
  0.2669193707119340  0.0383651114092140  0.5778109184832200
  0.2919193707119341  0.0383651114092140  0.5778109184832200
  0.3169193707119340  0.0383651114092140  0.5778109184832200
  0.3419193707119341  0.0383651114092140  0.5778109184832200
  0.3669193707119340  0.0383651114092140  0.5778109184832200
  0.3919193707119340  0.0383651114092140  0.5778109184832200
  0.4169193707119340  0.0383651114092140  0.5778109184832200
  0.4419193707119340  0.0383651114092140  0.5778109184832200
  0.4669193707119340  0.0383651114092140  0.5778109184832200
  0.4919193707119340  0.0383651114092140  0.5778109184832200
  0.5169193707119339  0.0383651114092140  0.5778109184832200
  0.5419193707119339  0.0383651114092140  0.5778109184832200
  0.5669193707119339  0.0383651114092140  0.5778109184832200
  0.5919193707119339  0.0383651114092140  0.5778109184832200
  0.6169193707119339  0.0383651114092140  0.5778109184832200
  0.6419193707119339  0.0383651114092140  0.5778109184832200
  0.6669193707119341  0.0383651114092140  0.5778109184832200
  0.6919193707119339  0.0383651114092140  0.5778109184832200
  0.7169193707119339  0.0383651114092140  0.5778109184832200
  0.7419193707119339  0.0383651114092140  0.5778109184832200
  0.7669193707119341  0.0383651114092140  0.5778109184832200
  0.7919193707119340  0.0383651114092140  0.5778109184832200
  0.8169193707119340  0.0383651114092140  0.5778109184832200
  0.8419193707119340  0.0383651114092140  0.5778109184832200
  0.8669193707119341  0.0383651114092140  0.5778109184832200
  0.8919193707119341  0.0383651114092140  0.5778109184832200
  0.9169193707119341  0.0383651114092140  0.5778109184832200
  0.9419193707119342  0.0383651114092140  0.5778109184832200
  0.9669193707119341  0.0383651114092140  0.5778109184832200
  0.9919193707119341  0.0383651114092140  0.5778109184832200
  0.0169193707119340  0.0633651114092140  0.5778109184832200
  0.0419193707119340  0.0633651114092140  0.5778109184832200
  0.0669193707119340  0.0633651114092140  0.5778109184832200
  0.0919193707119340  0.0633651114092140  0.5778109184832200
  0.1169193707119340  0.0633651114092140  0.5778109184832200
  0.1419193707119340  0.0633651114092140  0.5778109184832200
  0.1669193707119340  0.0633651114092140  0.5778109184832200
  0.1919193707119340  0.0633651114092140  0.5778109184832200
  0.2169193707119340  0.0633651114092140  0.5778109184832200
  0.2419193707119340  0.0633651114092140  0.5778109184832200
  0.2669193707119340  0.0633651114092140  0.5778109184832200
  0.2919193707119341  0.0633651114092140  0.5778109184832200
  0.3169193707119340  0.0633651114092140  0.5778109184832200
  0.3419193707119341  0.0633651114092140  0.5778109184832200
  0.3669193707119340  0.0633651114092140  0.5778109184832200
  0.3919193707119340  0.0633651114092140  0.5778109184832200
  0.4169193707119340  0.0633651114092140  0.5778109184832200
  0.4419193707119339  0.0633651114092140  0.5778109184832200
  0.4669193707119340  0.0633651114092140  0.5778109184832200
  0.4919193707119340  0.0633651114092140  0.5778109184832200
  0.5169193707119341  0.0633651114092140  0.5778109184832200
  0.5419193707119339  0.0633651114092140  0.5778109184832200
  0.5669193707119339  0.0633651114092140  0.5778109184832200
  0.5919193707119340  0.0633651114092140  0.5778109184832200
  0.6169193707119340  0.0633651114092140  0.5778109184832200
  0.6419193707119339  0.0633651114092140  0.5778109184832200
  0.6669193707119341  0.0633651114092140  0.5778109184832200
  0.6919193707119340  0.0633651114092140  0.5778109184832200
  0.7169193707119340  0.0633651114092140  0.5778109184832200
  0.7419193707119339  0.0633651114092140  0.5778109184832200
  0.7669193707119341  0.0633651114092140  0.5778109184832200
  0.7919193707119341  0.0633651114092140  0.5778109184832200
  0.8169193707119340  0.0633651114092140  0.5778109184832200
  0.8419193707119340  0.0633651114092140  0.5778109184832200
  0.8669193707119341  0.0633651114092140  0.5778109184832200
  0.8919193707119342  0.0633651114092140  0.5778109184832200
  0.9169193707119340  0.0633651114092140  0.5778109184832200
  0.9419193707119341  0.0633651114092140  0.5778109184832200
  0.9669193707119340  0.0633651114092140  0.5778109184832200
  0.9919193707119340  0.0633651114092140  0.5778109184832200
  0.0169193707119340  0.0883651114092140  0.5778109184832200
  0.0419193707119340  0.0883651114092140  0.5778109184832200
  0.0669193707119340  0.0883651114092140  0.5778109184832200
  0.0919193707119340  0.0883651114092140  0.5778109184832200
  0.1169193707119340  0.0883651114092140  0.5778109184832200
  0.1419193707119340  0.0883651114092140  0.5778109184832200
  0.1669193707119340  0.0883651114092140  0.5778109184832200
  0.1919193707119340  0.0883651114092140  0.5778109184832200
  0.2169193707119340  0.0883651114092140  0.5778109184832200
  0.2419193707119340  0.0883651114092140  0.5778109184832200
  0.2669193707119340  0.0883651114092140  0.5778109184832200
  0.2919193707119340  0.0883651114092140  0.5778109184832200
  0.3169193707119340  0.0883651114092140  0.5778109184832200
  0.3419193707119340  0.0883651114092140  0.5778109184832200
  0.3669193707119340  0.0883651114092140  0.5778109184832200
  0.3919193707119340  0.0883651114092140  0.5778109184832200
  0.4169193707119340  0.0883651114092140  0.5778109184832200
  0.4419193707119339  0.0883651114092140  0.5778109184832200
  0.4669193707119340  0.0883651114092140  0.5778109184832200
  0.4919193707119340  0.0883651114092140  0.5778109184832200
  0.5169193707119339  0.0883651114092140  0.5778109184832200
  0.5419193707119339  0.0883651114092140  0.5778109184832200
  0.5669193707119339  0.0883651114092140  0.5778109184832200
  0.5919193707119339  0.0883651114092140  0.5778109184832200
  0.6169193707119339  0.0883651114092140  0.5778109184832200
  0.6419193707119339  0.0883651114092140  0.5778109184832200
  0.6669193707119340  0.0883651114092140  0.5778109184832200
  0.6919193707119339  0.0883651114092140  0.5778109184832200
  0.7169193707119339  0.0883651114092140  0.5778109184832200
  0.7419193707119339  0.0883651114092140  0.5778109184832200
  0.7669193707119339  0.0883651114092140  0.5778109184832200
  0.7919193707119340  0.0883651114092140  0.5778109184832200
  0.8169193707119340  0.0883651114092140  0.5778109184832200
  0.8419193707119340  0.0883651114092140  0.5778109184832200
  0.8669193707119340  0.0883651114092140  0.5778109184832200
  0.8919193707119342  0.0883651114092140  0.5778109184832200
  0.9169193707119341  0.0883651114092140  0.5778109184832200
  0.9419193707119341  0.0883651114092140  0.5778109184832200
  0.9669193707119341  0.0883651114092140  0.5778109184832200
  0.9919193707119340  0.0883651114092140  0.5778109184832200
  0.0169193707119340  0.1133651114092140  0.5778109184832200
  0.0419193707119340  0.1133651114092140  0.5778109184832200
  0.0669193707119340  0.1133651114092140  0.5778109184832200
  0.0919193707119340  0.1133651114092140  0.5778109184832200
  0.1169193707119340  0.1133651114092140  0.5778109184832200
  0.1419193707119340  0.1133651114092140  0.5778109184832200
  0.1669193707119340  0.1133651114092140  0.5778109184832200
  0.1919193707119340  0.1133651114092140  0.5778109184832200
  0.2169193707119340  0.1133651114092140  0.5778109184832200
  0.2419193707119340  0.1133651114092140  0.5778109184832200
  0.2669193707119340  0.1133651114092140  0.5778109184832200
  0.2919193707119340  0.1133651114092140  0.5778109184832200
  0.3169193707119340  0.1133651114092140  0.5778109184832200
  0.3419193707119340  0.1133651114092140  0.5778109184832200
  0.3669193707119340  0.1133651114092140  0.5778109184832200
  0.3919193707119339  0.1133651114092140  0.5778109184832200
  0.4169193707119340  0.1133651114092140  0.5778109184832200
  0.4419193707119340  0.1133651114092140  0.5778109184832200
  0.4669193707119341  0.1133651114092140  0.5778109184832200
  0.4919193707119341  0.1133651114092140  0.5778109184832200
  0.5169193707119341  0.1133651114092140  0.5778109184832200
  0.5419193707119340  0.1133651114092140  0.5778109184832200
  0.5669193707119340  0.1133651114092140  0.5778109184832200
  0.5919193707119341  0.1133651114092140  0.5778109184832200
  0.6169193707119340  0.1133651114092140  0.5778109184832200
  0.6419193707119341  0.1133651114092140  0.5778109184832200
  0.6669193707119342  0.1133651114092140  0.5778109184832200
  0.6919193707119341  0.1133651114092140  0.5778109184832200
  0.7169193707119340  0.1133651114092140  0.5778109184832200
  0.7419193707119340  0.1133651114092140  0.5778109184832200
  0.7669193707119342  0.1133651114092140  0.5778109184832200
  0.7919193707119341  0.1133651114092140  0.5778109184832200
  0.8169193707119341  0.1133651114092140  0.5778109184832200
  0.8419193707119341  0.1133651114092140  0.5778109184832200
  0.8669193707119343  0.1133651114092140  0.5778109184832200
  0.8919193707119341  0.1133651114092140  0.5778109184832200
  0.9169193707119340  0.1133651114092140  0.5778109184832200
  0.9419193707119341  0.1133651114092140  0.5778109184832200
  0.9669193707119340  0.1133651114092140  0.5778109184832200
  0.9919193707119341  0.1133651114092140  0.5778109184832200
  0.0169193707119340  0.1383651114092140  0.5778109184832200
  0.0419193707119340  0.1383651114092140  0.5778109184832200
  0.0669193707119340  0.1383651114092140  0.5778109184832200
  0.0919193707119340  0.1383651114092140  0.5778109184832200
  0.1169193707119340  0.1383651114092140  0.5778109184832200
  0.1419193707119340  0.1383651114092140  0.5778109184832200
  0.1669193707119340  0.1383651114092140  0.5778109184832200
  0.1919193707119340  0.1383651114092140  0.5778109184832200
  0.2169193707119340  0.1383651114092140  0.5778109184832200
  0.2419193707119340  0.1383651114092140  0.5778109184832200
  0.2669193707119340  0.1383651114092140  0.5778109184832200
  0.2919193707119340  0.1383651114092140  0.5778109184832200
  0.3169193707119340  0.1383651114092140  0.5778109184832200
  0.3419193707119340  0.1383651114092140  0.5778109184832200
  0.3669193707119340  0.1383651114092140  0.5778109184832200
  0.3919193707119339  0.1383651114092140  0.5778109184832200
  0.4169193707119340  0.1383651114092140  0.5778109184832200
  0.4419193707119340  0.1383651114092140  0.5778109184832200
  0.4669193707119341  0.1383651114092140  0.5778109184832200
  0.4919193707119341  0.1383651114092140  0.5778109184832200
  0.5169193707119342  0.1383651114092140  0.5778109184832200
  0.5419193707119340  0.1383651114092140  0.5778109184832200
  0.5669193707119340  0.1383651114092140  0.5778109184832200
  0.5919193707119341  0.1383651114092140  0.5778109184832200
  0.6169193707119341  0.1383651114092140  0.5778109184832200
  0.6419193707119341  0.1383651114092140  0.5778109184832200
  0.6669193707119342  0.1383651114092140  0.5778109184832200
  0.6919193707119341  0.1383651114092140  0.5778109184832200
  0.7169193707119341  0.1383651114092140  0.5778109184832200
  0.7419193707119340  0.1383651114092140  0.5778109184832200
  0.7669193707119342  0.1383651114092140  0.5778109184832200
  0.7919193707119342  0.1383651114092140  0.5778109184832200
  0.8169193707119342  0.1383651114092140  0.5778109184832200
  0.8419193707119341  0.1383651114092140  0.5778109184832200
  0.8669193707119341  0.1383651114092140  0.5778109184832200
  0.8919193707119343  0.1383651114092140  0.5778109184832200
  0.9169193707119342  0.1383651114092140  0.5778109184832200
  0.9419193707119342  0.1383651114092140  0.5778109184832200
  0.9669193707119341  0.1383651114092140  0.5778109184832200
  0.9919193707119343  0.1383651114092140  0.5778109184832200
  0.0169193707119340  0.1633651114092140  0.5778109184832200
  0.0419193707119340  0.1633651114092140  0.5778109184832200
  0.0669193707119340  0.1633651114092140  0.5778109184832200
  0.0919193707119340  0.1633651114092140  0.5778109184832200
  0.1169193707119340  0.1633651114092140  0.5778109184832200
  0.1419193707119340  0.1633651114092140  0.5778109184832200
  0.1669193707119340  0.1633651114092140  0.5778109184832200
  0.1919193707119340  0.1633651114092140  0.5778109184832200
  0.2169193707119340  0.1633651114092140  0.5778109184832200
  0.2419193707119340  0.1633651114092140  0.5778109184832200
  0.2669193707119339  0.1633651114092140  0.5778109184832200
  0.2919193707119340  0.1633651114092140  0.5778109184832200
  0.3169193707119339  0.1633651114092140  0.5778109184832200
  0.3419193707119340  0.1633651114092140  0.5778109184832200
  0.3669193707119340  0.1633651114092140  0.5778109184832200
  0.3919193707119340  0.1633651114092140  0.5778109184832200
  0.4169193707119340  0.1633651114092140  0.5778109184832200
  0.4419193707119340  0.1633651114092140  0.5778109184832200
  0.4669193707119341  0.1633651114092140  0.5778109184832200
  0.4919193707119340  0.1633651114092140  0.5778109184832200
  0.5169193707119341  0.1633651114092140  0.5778109184832200
  0.5419193707119340  0.1633651114092140  0.5778109184832200
  0.5669193707119340  0.1633651114092140  0.5778109184832200
  0.5919193707119340  0.1633651114092140  0.5778109184832200
  0.6169193707119340  0.1633651114092140  0.5778109184832200
  0.6419193707119341  0.1633651114092140  0.5778109184832200
  0.6669193707119341  0.1633651114092140  0.5778109184832200
  0.6919193707119340  0.1633651114092140  0.5778109184832200
  0.7169193707119340  0.1633651114092140  0.5778109184832200
  0.7419193707119340  0.1633651114092140  0.5778109184832200
  0.7669193707119341  0.1633651114092140  0.5778109184832200
  0.7919193707119341  0.1633651114092140  0.5778109184832200
  0.8169193707119341  0.1633651114092140  0.5778109184832200
  0.8419193707119341  0.1633651114092140  0.5778109184832200
  0.8669193707119341  0.1633651114092140  0.5778109184832200
  0.8919193707119341  0.1633651114092140  0.5778109184832200
  0.9169193707119340  0.1633651114092140  0.5778109184832200
  0.9419193707119340  0.1633651114092140  0.5778109184832200
  0.9669193707119339  0.1633651114092140  0.5778109184832200
  0.9919193707119340  0.1633651114092140  0.5778109184832200
  0.0169193707119340  0.1883651114092140  0.5778109184832200
  0.0419193707119340  0.1883651114092140  0.5778109184832200
  0.0669193707119340  0.1883651114092140  0.5778109184832200
  0.0919193707119340  0.1883651114092140  0.5778109184832200
  0.1169193707119340  0.1883651114092140  0.5778109184832200
  0.1419193707119340  0.1883651114092140  0.5778109184832200
  0.1669193707119340  0.1883651114092140  0.5778109184832200
  0.1919193707119340  0.1883651114092140  0.5778109184832200
  0.2169193707119340  0.1883651114092140  0.5778109184832200
  0.2419193707119340  0.1883651114092140  0.5778109184832200
  0.2669193707119340  0.1883651114092140  0.5778109184832200
  0.2919193707119341  0.1883651114092140  0.5778109184832200
  0.3169193707119340  0.1883651114092140  0.5778109184832200
  0.3419193707119341  0.1883651114092140  0.5778109184832200
  0.3669193707119340  0.1883651114092140  0.5778109184832200
  0.3919193707119341  0.1883651114092140  0.5778109184832200
  0.4169193707119341  0.1883651114092140  0.5778109184832200
  0.4419193707119340  0.1883651114092140  0.5778109184832200
  0.4669193707119341  0.1883651114092140  0.5778109184832200
  0.4919193707119341  0.1883651114092140  0.5778109184832200
  0.5169193707119341  0.1883651114092140  0.5778109184832200
  0.5419193707119340  0.1883651114092140  0.5778109184832200
  0.5669193707119340  0.1883651114092140  0.5778109184832200
  0.5919193707119341  0.1883651114092140  0.5778109184832200
  0.6169193707119340  0.1883651114092140  0.5778109184832200
  0.6419193707119341  0.1883651114092140  0.5778109184832200
  0.6669193707119342  0.1883651114092140  0.5778109184832200
  0.6919193707119341  0.1883651114092140  0.5778109184832200
  0.7169193707119340  0.1883651114092140  0.5778109184832200
  0.7419193707119340  0.1883651114092140  0.5778109184832200
  0.7669193707119342  0.1883651114092140  0.5778109184832200
  0.7919193707119342  0.1883651114092140  0.5778109184832200
  0.8169193707119341  0.1883651114092140  0.5778109184832200
  0.8419193707119340  0.1883651114092140  0.5778109184832200
  0.8669193707119341  0.1883651114092140  0.5778109184832200
  0.8919193707119343  0.1883651114092140  0.5778109184832200
  0.9169193707119342  0.1883651114092140  0.5778109184832200
  0.9419193707119343  0.1883651114092140  0.5778109184832200
  0.9669193707119340  0.1883651114092140  0.5778109184832200
  0.9919193707119341  0.1883651114092140  0.5778109184832200
  0.0169193707119340  0.2133651114092140  0.5778109184832200
  0.0419193707119340  0.2133651114092140  0.5778109184832200
  0.0669193707119340  0.2133651114092140  0.5778109184832200
  0.0919193707119340  0.2133651114092140  0.5778109184832200
  0.1169193707119340  0.2133651114092140  0.5778109184832200
  0.1419193707119340  0.2133651114092140  0.5778109184832200
  0.1669193707119340  0.2133651114092140  0.5778109184832200
  0.1919193707119340  0.2133651114092140  0.5778109184832200
  0.2169193707119340  0.2133651114092140  0.5778109184832200
  0.2419193707119340  0.2133651114092140  0.5778109184832200
  0.2669193707119341  0.2133651114092140  0.5778109184832200
  0.2919193707119341  0.2133651114092140  0.5778109184832200
  0.3169193707119340  0.2133651114092140  0.5778109184832200
  0.3419193707119341  0.2133651114092140  0.5778109184832200
  0.3669193707119340  0.2133651114092140  0.5778109184832200
  0.3919193707119340  0.2133651114092140  0.5778109184832200
  0.4169193707119340  0.2133651114092140  0.5778109184832200
  0.4419193707119340  0.2133651114092140  0.5778109184832200
  0.4669193707119341  0.2133651114092140  0.5778109184832200
  0.4919193707119341  0.2133651114092140  0.5778109184832200
  0.5169193707119341  0.2133651114092140  0.5778109184832200
  0.5419193707119340  0.2133651114092140  0.5778109184832200
  0.5669193707119339  0.2133651114092140  0.5778109184832200
  0.5919193707119340  0.2133651114092140  0.5778109184832200
  0.6169193707119340  0.2133651114092140  0.5778109184832200
  0.6419193707119341  0.2133651114092140  0.5778109184832200
  0.6669193707119341  0.2133651114092140  0.5778109184832200
  0.6919193707119340  0.2133651114092140  0.5778109184832200
  0.7169193707119340  0.2133651114092140  0.5778109184832200
  0.7419193707119340  0.2133651114092140  0.5778109184832200
  0.7669193707119341  0.2133651114092140  0.5778109184832200
  0.7919193707119341  0.2133651114092140  0.5778109184832200
  0.8169193707119341  0.2133651114092140  0.5778109184832200
  0.8419193707119340  0.2133651114092140  0.5778109184832200
  0.8669193707119341  0.2133651114092140  0.5778109184832200
  0.8919193707119341  0.2133651114092140  0.5778109184832200
  0.9169193707119340  0.2133651114092140  0.5778109184832200
  0.9419193707119341  0.2133651114092140  0.5778109184832200
  0.9669193707119340  0.2133651114092140  0.5778109184832200
  0.9919193707119339  0.2133651114092140  0.5778109184832200
  0.0169193707119340  0.2383651114092140  0.5778109184832200
  0.0419193707119340  0.2383651114092140  0.5778109184832200
  0.0669193707119340  0.2383651114092140  0.5778109184832200
  0.0919193707119340  0.2383651114092140  0.5778109184832200
  0.1169193707119340  0.2383651114092140  0.5778109184832200
  0.1419193707119340  0.2383651114092140  0.5778109184832200
  0.1669193707119340  0.2383651114092140  0.5778109184832200
  0.1919193707119340  0.2383651114092140  0.5778109184832200
  0.2169193707119340  0.2383651114092140  0.5778109184832200
  0.2419193707119340  0.2383651114092140  0.5778109184832200
  0.2669193707119341  0.2383651114092140  0.5778109184832200
  0.2919193707119341  0.2383651114092140  0.5778109184832200
  0.3169193707119340  0.2383651114092140  0.5778109184832200
  0.3419193707119341  0.2383651114092140  0.5778109184832200
  0.3669193707119340  0.2383651114092140  0.5778109184832200
  0.3919193707119341  0.2383651114092140  0.5778109184832200
  0.4169193707119340  0.2383651114092140  0.5778109184832200
  0.4419193707119340  0.2383651114092140  0.5778109184832200
  0.4669193707119341  0.2383651114092140  0.5778109184832200
  0.4919193707119340  0.2383651114092140  0.5778109184832200
  0.5169193707119341  0.2383651114092140  0.5778109184832200
  0.5419193707119340  0.2383651114092140  0.5778109184832200
  0.5669193707119340  0.2383651114092140  0.5778109184832200
  0.5919193707119340  0.2383651114092140  0.5778109184832200
  0.6169193707119340  0.2383651114092140  0.5778109184832200
  0.6419193707119341  0.2383651114092140  0.5778109184832200
  0.6669193707119342  0.2383651114092140  0.5778109184832200
  0.6919193707119340  0.2383651114092140  0.5778109184832200
  0.7169193707119340  0.2383651114092140  0.5778109184832200
  0.7419193707119340  0.2383651114092140  0.5778109184832200
  0.7669193707119342  0.2383651114092140  0.5778109184832200
  0.7919193707119341  0.2383651114092140  0.5778109184832200
  0.8169193707119341  0.2383651114092140  0.5778109184832200
  0.8419193707119340  0.2383651114092140  0.5778109184832200
  0.8669193707119341  0.2383651114092140  0.5778109184832200
  0.8919193707119342  0.2383651114092140  0.5778109184832200
  0.9169193707119341  0.2383651114092140  0.5778109184832200
  0.9419193707119342  0.2383651114092140  0.5778109184832200
  0.9669193707119341  0.2383651114092140  0.5778109184832200
  0.9919193707119343  0.2383651114092140  0.5778109184832200
  0.0169193707119340  0.2633651114092140  0.5778109184832200
  0.0419193707119340  0.2633651114092140  0.5778109184832200
  0.0669193707119340  0.2633651114092140  0.5778109184832200
  0.0919193707119340  0.2633651114092140  0.5778109184832200
  0.1169193707119340  0.2633651114092140  0.5778109184832200
  0.1419193707119340  0.2633651114092140  0.5778109184832200
  0.1669193707119340  0.2633651114092140  0.5778109184832200
  0.1919193707119340  0.2633651114092140  0.5778109184832200
  0.2169193707119340  0.2633651114092140  0.5778109184832200
  0.2419193707119340  0.2633651114092140  0.5778109184832200
  0.2669193707119340  0.2633651114092140  0.5778109184832200
  0.2919193707119341  0.2633651114092140  0.5778109184832200
  0.3169193707119340  0.2633651114092140  0.5778109184832200
  0.3419193707119340  0.2633651114092140  0.5778109184832200
  0.3669193707119340  0.2633651114092140  0.5778109184832200
  0.3919193707119340  0.2633651114092140  0.5778109184832200
  0.4169193707119340  0.2633651114092140  0.5778109184832200
  0.4419193707119339  0.2633651114092140  0.5778109184832200
  0.4669193707119341  0.2633651114092140  0.5778109184832200
  0.4919193707119341  0.2633651114092140  0.5778109184832200
  0.5169193707119341  0.2633651114092140  0.5778109184832200
  0.5419193707119339  0.2633651114092140  0.5778109184832200
  0.5669193707119339  0.2633651114092140  0.5778109184832200
  0.5919193707119340  0.2633651114092140  0.5778109184832200
  0.6169193707119340  0.2633651114092140  0.5778109184832200
  0.6419193707119339  0.2633651114092140  0.5778109184832200
  0.6669193707119341  0.2633651114092140  0.5778109184832200
  0.6919193707119340  0.2633651114092140  0.5778109184832200
  0.7169193707119340  0.2633651114092140  0.5778109184832200
  0.7419193707119339  0.2633651114092140  0.5778109184832200
  0.7669193707119341  0.2633651114092140  0.5778109184832200
  0.7919193707119341  0.2633651114092140  0.5778109184832200
  0.8169193707119340  0.2633651114092140  0.5778109184832200
  0.8419193707119340  0.2633651114092140  0.5778109184832200
  0.8669193707119341  0.2633651114092140  0.5778109184832200
  0.8919193707119339  0.2633651114092140  0.5778109184832200
  0.9169193707119339  0.2633651114092140  0.5778109184832200
  0.9419193707119340  0.2633651114092140  0.5778109184832200
  0.9669193707119339  0.2633651114092140  0.5778109184832200
  0.9919193707119340  0.2633651114092140  0.5778109184832200
  0.0169193707119340  0.2883651114092140  0.5778109184832200
  0.0419193707119340  0.2883651114092140  0.5778109184832200
  0.0669193707119340  0.2883651114092140  0.5778109184832200
  0.0919193707119340  0.2883651114092140  0.5778109184832200
  0.1169193707119340  0.2883651114092140  0.5778109184832200
  0.1419193707119340  0.2883651114092140  0.5778109184832200
  0.1669193707119340  0.2883651114092140  0.5778109184832200
  0.1919193707119340  0.2883651114092140  0.5778109184832200
  0.2169193707119340  0.2883651114092140  0.5778109184832200
  0.2419193707119340  0.2883651114092140  0.5778109184832200
  0.2669193707119340  0.2883651114092140  0.5778109184832200
  0.2919193707119341  0.2883651114092140  0.5778109184832200
  0.3169193707119340  0.2883651114092140  0.5778109184832200
  0.3419193707119340  0.2883651114092140  0.5778109184832200
  0.3669193707119340  0.2883651114092140  0.5778109184832200
  0.3919193707119339  0.2883651114092140  0.5778109184832200
  0.4169193707119340  0.2883651114092140  0.5778109184832200
  0.4419193707119340  0.2883651114092140  0.5778109184832200
  0.4669193707119341  0.2883651114092140  0.5778109184832200
  0.4919193707119340  0.2883651114092140  0.5778109184832200
  0.5169193707119341  0.2883651114092140  0.5778109184832200
  0.5419193707119340  0.2883651114092140  0.5778109184832200
  0.5669193707119340  0.2883651114092140  0.5778109184832200
  0.5919193707119340  0.2883651114092140  0.5778109184832200
  0.6169193707119340  0.2883651114092140  0.5778109184832200
  0.6419193707119341  0.2883651114092140  0.5778109184832200
  0.6669193707119341  0.2883651114092140  0.5778109184832200
  0.6919193707119340  0.2883651114092140  0.5778109184832200
  0.7169193707119340  0.2883651114092140  0.5778109184832200
  0.7419193707119340  0.2883651114092140  0.5778109184832200
  0.7669193707119341  0.2883651114092140  0.5778109184832200
  0.7919193707119340  0.2883651114092140  0.5778109184832200
  0.8169193707119341  0.2883651114092140  0.5778109184832200
  0.8419193707119340  0.2883651114092140  0.5778109184832200
  0.8669193707119341  0.2883651114092140  0.5778109184832200
  0.8919193707119343  0.2883651114092140  0.5778109184832200
  0.9169193707119340  0.2883651114092140  0.5778109184832200
  0.9419193707119341  0.2883651114092140  0.5778109184832200
  0.9669193707119340  0.2883651114092140  0.5778109184832200
  0.9919193707119341  0.2883651114092140  0.5778109184832200
  0.0169193707119340  0.3133651114092141  0.5778109184832200
  0.0419193707119340  0.3133651114092141  0.5778109184832200
  0.0669193707119340  0.3133651114092141  0.5778109184832200
  0.0919193707119340  0.3133651114092141  0.5778109184832200
  0.1169193707119340  0.3133651114092141  0.5778109184832200
  0.1419193707119340  0.3133651114092141  0.5778109184832200
  0.1669193707119340  0.3133651114092141  0.5778109184832200
  0.1919193707119340  0.3133651114092141  0.5778109184832200
  0.2169193707119340  0.3133651114092141  0.5778109184832200
  0.2419193707119340  0.3133651114092141  0.5778109184832200
  0.2669193707119340  0.3133651114092141  0.5778109184832200
  0.2919193707119340  0.3133651114092141  0.5778109184832200
  0.3169193707119340  0.3133651114092141  0.5778109184832200
  0.3419193707119341  0.3133651114092141  0.5778109184832200
  0.3669193707119341  0.3133651114092141  0.5778109184832200
  0.3919193707119340  0.3133651114092141  0.5778109184832200
  0.4169193707119340  0.3133651114092141  0.5778109184832200
  0.4419193707119339  0.3133651114092141  0.5778109184832200
  0.4669193707119341  0.3133651114092141  0.5778109184832200
  0.4919193707119341  0.3133651114092141  0.5778109184832200
  0.5169193707119339  0.3133651114092141  0.5778109184832200
  0.5419193707119339  0.3133651114092141  0.5778109184832200
  0.5669193707119339  0.3133651114092141  0.5778109184832200
  0.5919193707119340  0.3133651114092141  0.5778109184832200
  0.6169193707119339  0.3133651114092141  0.5778109184832200
  0.6419193707119339  0.3133651114092141  0.5778109184832200
  0.6669193707119341  0.3133651114092141  0.5778109184832200
  0.6919193707119340  0.3133651114092141  0.5778109184832200
  0.7169193707119339  0.3133651114092141  0.5778109184832200
  0.7419193707119339  0.3133651114092141  0.5778109184832200
  0.7669193707119341  0.3133651114092141  0.5778109184832200
  0.7919193707119341  0.3133651114092141  0.5778109184832200
  0.8169193707119341  0.3133651114092141  0.5778109184832200
  0.8419193707119340  0.3133651114092141  0.5778109184832200
  0.8669193707119341  0.3133651114092141  0.5778109184832200
  0.8919193707119343  0.3133651114092141  0.5778109184832200
  0.9169193707119342  0.3133651114092141  0.5778109184832200
  0.9419193707119341  0.3133651114092141  0.5778109184832200
  0.9669193707119340  0.3133651114092141  0.5778109184832200
  0.9919193707119341  0.3133651114092141  0.5778109184832200
  0.0169193707119340  0.3383651114092140  0.5778109184832200
  0.0419193707119340  0.3383651114092140  0.5778109184832200
  0.0669193707119340  0.3383651114092140  0.5778109184832200
  0.0919193707119340  0.3383651114092140  0.5778109184832200
  0.1169193707119340  0.3383651114092140  0.5778109184832200
  0.1419193707119340  0.3383651114092140  0.5778109184832200
  0.1669193707119340  0.3383651114092140  0.5778109184832200
  0.1919193707119340  0.3383651114092140  0.5778109184832200
  0.2169193707119340  0.3383651114092140  0.5778109184832200
  0.2419193707119340  0.3383651114092140  0.5778109184832200
  0.2669193707119340  0.3383651114092140  0.5778109184832200
  0.2919193707119340  0.3383651114092140  0.5778109184832200
  0.3169193707119340  0.3383651114092140  0.5778109184832200
  0.3419193707119341  0.3383651114092140  0.5778109184832200
  0.3669193707119340  0.3383651114092140  0.5778109184832200
  0.3919193707119339  0.3383651114092140  0.5778109184832200
  0.4169193707119341  0.3383651114092140  0.5778109184832200
  0.4419193707119340  0.3383651114092140  0.5778109184832200
  0.4669193707119340  0.3383651114092140  0.5778109184832200
  0.4919193707119340  0.3383651114092140  0.5778109184832200
  0.5169193707119341  0.3383651114092140  0.5778109184832200
  0.5419193707119340  0.3383651114092140  0.5778109184832200
  0.5669193707119339  0.3383651114092140  0.5778109184832200
  0.5919193707119340  0.3383651114092140  0.5778109184832200
  0.6169193707119340  0.3383651114092140  0.5778109184832200
  0.6419193707119341  0.3383651114092140  0.5778109184832200
  0.6669193707119341  0.3383651114092140  0.5778109184832200
  0.6919193707119340  0.3383651114092140  0.5778109184832200
  0.7169193707119340  0.3383651114092140  0.5778109184832200
  0.7419193707119340  0.3383651114092140  0.5778109184832200
  0.7669193707119341  0.3383651114092140  0.5778109184832200
  0.7919193707119342  0.3383651114092140  0.5778109184832200
  0.8169193707119341  0.3383651114092140  0.5778109184832200
  0.8419193707119341  0.3383651114092140  0.5778109184832200
  0.8669193707119343  0.3383651114092140  0.5778109184832200
  0.8919193707119342  0.3383651114092140  0.5778109184832200
  0.9169193707119341  0.3383651114092140  0.5778109184832200
  0.9419193707119342  0.3383651114092140  0.5778109184832200
  0.9669193707119341  0.3383651114092140  0.5778109184832200
  0.9919193707119340  0.3383651114092140  0.5778109184832200
  0.0169193707119340  0.3633651114092140  0.5778109184832200
  0.0419193707119340  0.3633651114092140  0.5778109184832200
  0.0669193707119340  0.3633651114092140  0.5778109184832200
  0.0919193707119341  0.3633651114092140  0.5778109184832200
  0.1169193707119340  0.3633651114092140  0.5778109184832200
  0.1419193707119341  0.3633651114092140  0.5778109184832200
  0.1669193707119341  0.3633651114092140  0.5778109184832200
  0.1919193707119340  0.3633651114092140  0.5778109184832200
  0.2169193707119341  0.3633651114092140  0.5778109184832200
  0.2419193707119340  0.3633651114092140  0.5778109184832200
  0.2669193707119341  0.3633651114092140  0.5778109184832200
  0.2919193707119341  0.3633651114092140  0.5778109184832200
  0.3169193707119340  0.3633651114092140  0.5778109184832200
  0.3419193707119341  0.3633651114092140  0.5778109184832200
  0.3669193707119341  0.3633651114092140  0.5778109184832200
  0.3919193707119341  0.3633651114092140  0.5778109184832200
  0.4169193707119341  0.3633651114092140  0.5778109184832200
  0.4419193707119340  0.3633651114092140  0.5778109184832200
  0.4669193707119341  0.3633651114092140  0.5778109184832200
  0.4919193707119340  0.3633651114092140  0.5778109184832200
  0.5169193707119341  0.3633651114092140  0.5778109184832200
  0.5419193707119340  0.3633651114092140  0.5778109184832200
  0.5669193707119340  0.3633651114092140  0.5778109184832200
  0.5919193707119340  0.3633651114092140  0.5778109184832200
  0.6169193707119340  0.3633651114092140  0.5778109184832200
  0.6419193707119341  0.3633651114092140  0.5778109184832200
  0.6669193707119342  0.3633651114092140  0.5778109184832200
  0.6919193707119340  0.3633651114092140  0.5778109184832200
  0.7169193707119340  0.3633651114092140  0.5778109184832200
  0.7419193707119340  0.3633651114092140  0.5778109184832200
  0.7669193707119343  0.3633651114092140  0.5778109184832200
  0.7919193707119341  0.3633651114092140  0.5778109184832200
  0.8169193707119342  0.3633651114092140  0.5778109184832200
  0.8419193707119340  0.3633651114092140  0.5778109184832200
  0.8669193707119341  0.3633651114092140  0.5778109184832200
  0.8919193707119343  0.3633651114092140  0.5778109184832200
  0.9169193707119342  0.3633651114092140  0.5778109184832200
  0.9419193707119343  0.3633651114092140  0.5778109184832200
  0.9669193707119342  0.3633651114092140  0.5778109184832200
  0.9919193707119344  0.3633651114092140  0.5778109184832200
  0.0169193707119340  0.3883651114092141  0.5778109184832200
  0.0419193707119340  0.3883651114092141  0.5778109184832200
  0.0669193707119340  0.3883651114092141  0.5778109184832200
  0.0919193707119340  0.3883651114092141  0.5778109184832200
  0.1169193707119339  0.3883651114092141  0.5778109184832200
  0.1419193707119340  0.3883651114092141  0.5778109184832200
  0.1669193707119340  0.3883651114092141  0.5778109184832200
  0.1919193707119340  0.3883651114092141  0.5778109184832200
  0.2169193707119340  0.3883651114092141  0.5778109184832200
  0.2419193707119340  0.3883651114092141  0.5778109184832200
  0.2669193707119339  0.3883651114092141  0.5778109184832200
  0.2919193707119341  0.3883651114092141  0.5778109184832200
  0.3169193707119340  0.3883651114092141  0.5778109184832200
  0.3419193707119340  0.3883651114092141  0.5778109184832200
  0.3669193707119340  0.3883651114092141  0.5778109184832200
  0.3919193707119339  0.3883651114092141  0.5778109184832200
  0.4169193707119341  0.3883651114092141  0.5778109184832200
  0.4419193707119339  0.3883651114092141  0.5778109184832200
  0.4669193707119340  0.3883651114092141  0.5778109184832200
  0.4919193707119340  0.3883651114092141  0.5778109184832200
  0.5169193707119341  0.3883651114092141  0.5778109184832200
  0.5419193707119339  0.3883651114092141  0.5778109184832200
  0.5669193707119339  0.3883651114092141  0.5778109184832200
  0.5919193707119340  0.3883651114092141  0.5778109184832200
  0.6169193707119340  0.3883651114092141  0.5778109184832200
  0.6419193707119339  0.3883651114092141  0.5778109184832200
  0.6669193707119341  0.3883651114092141  0.5778109184832200
  0.6919193707119340  0.3883651114092141  0.5778109184832200
  0.7169193707119340  0.3883651114092141  0.5778109184832200
  0.7419193707119339  0.3883651114092141  0.5778109184832200
  0.7669193707119341  0.3883651114092141  0.5778109184832200
  0.7919193707119342  0.3883651114092141  0.5778109184832200
  0.8169193707119341  0.3883651114092141  0.5778109184832200
  0.8419193707119342  0.3883651114092141  0.5778109184832200
  0.8669193707119341  0.3883651114092141  0.5778109184832200
  0.8919193707119341  0.3883651114092141  0.5778109184832200
  0.9169193707119340  0.3883651114092141  0.5778109184832200
  0.9419193707119341  0.3883651114092141  0.5778109184832200
  0.9669193707119340  0.3883651114092141  0.5778109184832200
  0.9919193707119341  0.3883651114092141  0.5778109184832200
  0.0169193707119340  0.4133651114092140  0.5778109184832200
  0.0419193707119340  0.4133651114092140  0.5778109184832200
  0.0669193707119340  0.4133651114092140  0.5778109184832200
  0.0919193707119341  0.4133651114092140  0.5778109184832200
  0.1169193707119340  0.4133651114092140  0.5778109184832200
  0.1419193707119341  0.4133651114092140  0.5778109184832200
  0.1669193707119340  0.4133651114092140  0.5778109184832200
  0.1919193707119340  0.4133651114092140  0.5778109184832200
  0.2169193707119340  0.4133651114092140  0.5778109184832200
  0.2419193707119340  0.4133651114092140  0.5778109184832200
  0.2669193707119340  0.4133651114092140  0.5778109184832200
  0.2919193707119341  0.4133651114092140  0.5778109184832200
  0.3169193707119340  0.4133651114092140  0.5778109184832200
  0.3419193707119341  0.4133651114092140  0.5778109184832200
  0.3669193707119340  0.4133651114092140  0.5778109184832200
  0.3919193707119339  0.4133651114092140  0.5778109184832200
  0.4169193707119341  0.4133651114092140  0.5778109184832200
  0.4419193707119340  0.4133651114092140  0.5778109184832200
  0.4669193707119340  0.4133651114092140  0.5778109184832200
  0.4919193707119340  0.4133651114092140  0.5778109184832200
  0.5169193707119341  0.4133651114092140  0.5778109184832200
  0.5419193707119340  0.4133651114092140  0.5778109184832200
  0.5669193707119340  0.4133651114092140  0.5778109184832200
  0.5919193707119340  0.4133651114092140  0.5778109184832200
  0.6169193707119340  0.4133651114092140  0.5778109184832200
  0.6419193707119341  0.4133651114092140  0.5778109184832200
  0.6669193707119341  0.4133651114092140  0.5778109184832200
  0.6919193707119340  0.4133651114092140  0.5778109184832200
  0.7169193707119340  0.4133651114092140  0.5778109184832200
  0.7419193707119341  0.4133651114092140  0.5778109184832200
  0.7669193707119342  0.4133651114092140  0.5778109184832200
  0.7919193707119341  0.4133651114092140  0.5778109184832200
  0.8169193707119342  0.4133651114092140  0.5778109184832200
  0.8419193707119341  0.4133651114092140  0.5778109184832200
  0.8669193707119343  0.4133651114092140  0.5778109184832200
  0.8919193707119342  0.4133651114092140  0.5778109184832200
  0.9169193707119341  0.4133651114092140  0.5778109184832200
  0.9419193707119342  0.4133651114092140  0.5778109184832200
  0.9669193707119341  0.4133651114092140  0.5778109184832200
  0.9919193707119343  0.4133651114092140  0.5778109184832200
  0.0169193707119340  0.4383651114092140  0.5778109184832200
  0.0419193707119340  0.4383651114092140  0.5778109184832200
  0.0669193707119340  0.4383651114092140  0.5778109184832200
  0.0919193707119341  0.4383651114092140  0.5778109184832200
  0.1169193707119340  0.4383651114092140  0.5778109184832200
  0.1419193707119340  0.4383651114092140  0.5778109184832200
  0.1669193707119341  0.4383651114092140  0.5778109184832200
  0.1919193707119340  0.4383651114092140  0.5778109184832200
  0.2169193707119340  0.4383651114092140  0.5778109184832200
  0.2419193707119340  0.4383651114092140  0.5778109184832200
  0.2669193707119341  0.4383651114092140  0.5778109184832200
  0.2919193707119342  0.4383651114092140  0.5778109184832200
  0.3169193707119340  0.4383651114092140  0.5778109184832200
  0.3419193707119341  0.4383651114092140  0.5778109184832200
  0.3669193707119341  0.4383651114092140  0.5778109184832200
  0.3919193707119341  0.4383651114092140  0.5778109184832200
  0.4169193707119341  0.4383651114092140  0.5778109184832200
  0.4419193707119340  0.4383651114092140  0.5778109184832200
  0.4669193707119341  0.4383651114092140  0.5778109184832200
  0.4919193707119341  0.4383651114092140  0.5778109184832200
  0.5169193707119341  0.4383651114092140  0.5778109184832200
  0.5419193707119340  0.4383651114092140  0.5778109184832200
  0.5669193707119340  0.4383651114092140  0.5778109184832200
  0.5919193707119341  0.4383651114092140  0.5778109184832200
  0.6169193707119340  0.4383651114092140  0.5778109184832200
  0.6419193707119341  0.4383651114092140  0.5778109184832200
  0.6669193707119342  0.4383651114092140  0.5778109184832200
  0.6919193707119341  0.4383651114092140  0.5778109184832200
  0.7169193707119341  0.4383651114092140  0.5778109184832200
  0.7419193707119340  0.4383651114092140  0.5778109184832200
  0.7669193707119342  0.4383651114092140  0.5778109184832200
  0.7919193707119342  0.4383651114092140  0.5778109184832200
  0.8169193707119341  0.4383651114092140  0.5778109184832200
  0.8419193707119342  0.4383651114092140  0.5778109184832200
  0.8669193707119344  0.4383651114092140  0.5778109184832200
  0.8919193707119343  0.4383651114092140  0.5778109184832200
  0.9169193707119342  0.4383651114092140  0.5778109184832200
  0.9419193707119341  0.4383651114092140  0.5778109184832200
  0.9669193707119340  0.4383651114092140  0.5778109184832200
  0.9919193707119341  0.4383651114092140  0.5778109184832200
  0.0169193707119340  0.4633651114092140  0.5778109184832200
  0.0419193707119340  0.4633651114092140  0.5778109184832200
  0.0669193707119341  0.4633651114092140  0.5778109184832200
  0.0919193707119340  0.4633651114092140  0.5778109184832200
  0.1169193707119340  0.4633651114092140  0.5778109184832200
  0.1419193707119340  0.4633651114092140  0.5778109184832200
  0.1669193707119340  0.4633651114092140  0.5778109184832200
  0.1919193707119340  0.4633651114092140  0.5778109184832200
  0.2169193707119340  0.4633651114092140  0.5778109184832200
  0.2419193707119340  0.4633651114092140  0.5778109184832200
  0.2669193707119340  0.4633651114092140  0.5778109184832200
  0.2919193707119341  0.4633651114092140  0.5778109184832200
  0.3169193707119340  0.4633651114092140  0.5778109184832200
  0.3419193707119340  0.4633651114092140  0.5778109184832200
  0.3669193707119340  0.4633651114092140  0.5778109184832200
  0.3919193707119339  0.4633651114092140  0.5778109184832200
  0.4169193707119341  0.4633651114092140  0.5778109184832200
  0.4419193707119340  0.4633651114092140  0.5778109184832200
  0.4669193707119340  0.4633651114092140  0.5778109184832200
  0.4919193707119340  0.4633651114092140  0.5778109184832200
  0.5169193707119341  0.4633651114092140  0.5778109184832200
  0.5419193707119340  0.4633651114092140  0.5778109184832200
  0.5669193707119339  0.4633651114092140  0.5778109184832200
  0.5919193707119340  0.4633651114092140  0.5778109184832200
  0.6169193707119340  0.4633651114092140  0.5778109184832200
  0.6419193707119339  0.4633651114092140  0.5778109184832200
  0.6669193707119341  0.4633651114092140  0.5778109184832200
  0.6919193707119340  0.4633651114092140  0.5778109184832200
  0.7169193707119340  0.4633651114092140  0.5778109184832200
  0.7419193707119340  0.4633651114092140  0.5778109184832200
  0.7669193707119342  0.4633651114092140  0.5778109184832200
  0.7919193707119340  0.4633651114092140  0.5778109184832200
  0.8169193707119341  0.4633651114092140  0.5778109184832200
  0.8419193707119340  0.4633651114092140  0.5778109184832200
  0.8669193707119341  0.4633651114092140  0.5778109184832200
  0.8919193707119343  0.4633651114092140  0.5778109184832200
  0.9169193707119342  0.4633651114092140  0.5778109184832200
  0.9419193707119343  0.4633651114092140  0.5778109184832200
  0.9669193707119342  0.4633651114092140  0.5778109184832200
  0.9919193707119341  0.4633651114092140  0.5778109184832200
  0.0169193707119340  0.4883651114092141  0.5778109184832200
  0.0419193707119340  0.4883651114092141  0.5778109184832200
  0.0669193707119340  0.4883651114092141  0.5778109184832200
  0.0919193707119340  0.4883651114092141  0.5778109184832200
  0.1169193707119340  0.4883651114092141  0.5778109184832200
  0.1419193707119340  0.4883651114092141  0.5778109184832200
  0.1669193707119340  0.4883651114092141  0.5778109184832200
  0.1919193707119340  0.4883651114092141  0.5778109184832200
  0.2169193707119340  0.4883651114092141  0.5778109184832200
  0.2419193707119340  0.4883651114092141  0.5778109184832200
  0.2669193707119340  0.4883651114092141  0.5778109184832200
  0.2919193707119340  0.4883651114092141  0.5778109184832200
  0.3169193707119339  0.4883651114092141  0.5778109184832200
  0.3419193707119341  0.4883651114092141  0.5778109184832200
  0.3669193707119341  0.4883651114092141  0.5778109184832200
  0.3919193707119339  0.4883651114092141  0.5778109184832200
  0.4169193707119340  0.4883651114092141  0.5778109184832200
  0.4419193707119339  0.4883651114092141  0.5778109184832200
  0.4669193707119341  0.4883651114092141  0.5778109184832200
  0.4919193707119340  0.4883651114092141  0.5778109184832200
  0.5169193707119341  0.4883651114092141  0.5778109184832200
  0.5419193707119340  0.4883651114092141  0.5778109184832200
  0.5669193707119340  0.4883651114092141  0.5778109184832200
  0.5919193707119340  0.4883651114092141  0.5778109184832200
  0.6169193707119340  0.4883651114092141  0.5778109184832200
  0.6419193707119341  0.4883651114092141  0.5778109184832200
  0.6669193707119342  0.4883651114092141  0.5778109184832200
  0.6919193707119340  0.4883651114092141  0.5778109184832200
  0.7169193707119341  0.4883651114092141  0.5778109184832200
  0.7419193707119340  0.4883651114092141  0.5778109184832200
  0.7669193707119342  0.4883651114092141  0.5778109184832200
  0.7919193707119343  0.4883651114092141  0.5778109184832200
  0.8169193707119342  0.4883651114092141  0.5778109184832200
  0.8419193707119341  0.4883651114092141  0.5778109184832200
  0.8669193707119343  0.4883651114092141  0.5778109184832200
  0.8919193707119342  0.4883651114092141  0.5778109184832200
  0.9169193707119341  0.4883651114092141  0.5778109184832200
  0.9419193707119342  0.4883651114092141  0.5778109184832200
  0.9669193707119341  0.4883651114092141  0.5778109184832200
  0.9919193707119343  0.4883651114092141  0.5778109184832200
  0.0169193707119340  0.5133651114092140  0.5778109184832200
  0.0419193707119340  0.5133651114092140  0.5778109184832200
  0.0669193707119340  0.5133651114092140  0.5778109184832200
  0.0919193707119340  0.5133651114092140  0.5778109184832200
  0.1169193707119340  0.5133651114092140  0.5778109184832200
  0.1419193707119340  0.5133651114092140  0.5778109184832200
  0.1669193707119340  0.5133651114092140  0.5778109184832200
  0.1919193707119340  0.5133651114092140  0.5778109184832200
  0.2169193707119340  0.5133651114092140  0.5778109184832200
  0.2419193707119340  0.5133651114092140  0.5778109184832200
  0.2669193707119339  0.5133651114092140  0.5778109184832200
  0.2919193707119341  0.5133651114092140  0.5778109184832200
  0.3169193707119340  0.5133651114092140  0.5778109184832200
  0.3419193707119340  0.5133651114092140  0.5778109184832200
  0.3669193707119340  0.5133651114092140  0.5778109184832200
  0.3919193707119339  0.5133651114092140  0.5778109184832200
  0.4169193707119341  0.5133651114092140  0.5778109184832200
  0.4419193707119339  0.5133651114092140  0.5778109184832200
  0.4669193707119340  0.5133651114092140  0.5778109184832200
  0.4919193707119340  0.5133651114092140  0.5778109184832200
  0.5169193707119341  0.5133651114092140  0.5778109184832200
  0.5419193707119339  0.5133651114092140  0.5778109184832200
  0.5669193707119339  0.5133651114092140  0.5778109184832200
  0.5919193707119340  0.5133651114092140  0.5778109184832200
  0.6169193707119340  0.5133651114092140  0.5778109184832200
  0.6419193707119339  0.5133651114092140  0.5778109184832200
  0.6669193707119341  0.5133651114092140  0.5778109184832200
  0.6919193707119341  0.5133651114092140  0.5778109184832200
  0.7169193707119339  0.5133651114092140  0.5778109184832200
  0.7419193707119340  0.5133651114092140  0.5778109184832200
  0.7669193707119342  0.5133651114092140  0.5778109184832200
  0.7919193707119341  0.5133651114092140  0.5778109184832200
  0.8169193707119342  0.5133651114092140  0.5778109184832200
  0.8419193707119341  0.5133651114092140  0.5778109184832200
  0.8669193707119340  0.5133651114092140  0.5778109184832200
  0.8919193707119342  0.5133651114092140  0.5778109184832200
  0.9169193707119341  0.5133651114092140  0.5778109184832200
  0.9419193707119342  0.5133651114092140  0.5778109184832200
  0.9669193707119341  0.5133651114092140  0.5778109184832200
  0.9919193707119343  0.5133651114092140  0.5778109184832200
  0.0169193707119340  0.5383651114092139  0.5778109184832200
  0.0419193707119340  0.5383651114092139  0.5778109184832200
  0.0669193707119340  0.5383651114092139  0.5778109184832200
  0.0919193707119340  0.5383651114092139  0.5778109184832200
  0.1169193707119340  0.5383651114092139  0.5778109184832200
  0.1419193707119340  0.5383651114092139  0.5778109184832200
  0.1669193707119340  0.5383651114092139  0.5778109184832200
  0.1919193707119340  0.5383651114092139  0.5778109184832200
  0.2169193707119340  0.5383651114092139  0.5778109184832200
  0.2419193707119340  0.5383651114092139  0.5778109184832200
  0.2669193707119339  0.5383651114092139  0.5778109184832200
  0.2919193707119341  0.5383651114092139  0.5778109184832200
  0.3169193707119340  0.5383651114092139  0.5778109184832200
  0.3419193707119341  0.5383651114092139  0.5778109184832200
  0.3669193707119340  0.5383651114092139  0.5778109184832200
  0.3919193707119339  0.5383651114092139  0.5778109184832200
  0.4169193707119341  0.5383651114092139  0.5778109184832200
  0.4419193707119340  0.5383651114092139  0.5778109184832200
  0.4669193707119340  0.5383651114092139  0.5778109184832200
  0.4919193707119340  0.5383651114092139  0.5778109184832200
  0.5169193707119341  0.5383651114092139  0.5778109184832200
  0.5419193707119340  0.5383651114092139  0.5778109184832200
  0.5669193707119339  0.5383651114092139  0.5778109184832200
  0.5919193707119340  0.5383651114092139  0.5778109184832200
  0.6169193707119340  0.5383651114092139  0.5778109184832200
  0.6419193707119341  0.5383651114092139  0.5778109184832200
  0.6669193707119341  0.5383651114092139  0.5778109184832200
  0.6919193707119340  0.5383651114092139  0.5778109184832200
  0.7169193707119341  0.5383651114092139  0.5778109184832200
  0.7419193707119339  0.5383651114092139  0.5778109184832200
  0.7669193707119341  0.5383651114092139  0.5778109184832200
  0.7919193707119342  0.5383651114092139  0.5778109184832200
  0.8169193707119341  0.5383651114092139  0.5778109184832200
  0.8419193707119342  0.5383651114092139  0.5778109184832200
  0.8669193707119344  0.5383651114092139  0.5778109184832200
  0.8919193707119341  0.5383651114092139  0.5778109184832200
  0.9169193707119340  0.5383651114092139  0.5778109184832200
  0.9419193707119341  0.5383651114092139  0.5778109184832200
  0.9669193707119340  0.5383651114092139  0.5778109184832200
  0.9919193707119341  0.5383651114092139  0.5778109184832200
  0.0169193707119341  0.5633651114092140  0.5778109184832200
  0.0419193707119340  0.5633651114092140  0.5778109184832200
  0.0669193707119340  0.5633651114092140  0.5778109184832200
  0.0919193707119340  0.5633651114092140  0.5778109184832200
  0.1169193707119340  0.5633651114092140  0.5778109184832200
  0.1419193707119340  0.5633651114092140  0.5778109184832200
  0.1669193707119340  0.5633651114092140  0.5778109184832200
  0.1919193707119340  0.5633651114092140  0.5778109184832200
  0.2169193707119340  0.5633651114092140  0.5778109184832200
  0.2419193707119340  0.5633651114092140  0.5778109184832200
  0.2669193707119340  0.5633651114092140  0.5778109184832200
  0.2919193707119341  0.5633651114092140  0.5778109184832200
  0.3169193707119339  0.5633651114092140  0.5778109184832200
  0.3419193707119341  0.5633651114092140  0.5778109184832200
  0.3669193707119341  0.5633651114092140  0.5778109184832200
  0.3919193707119340  0.5633651114092140  0.5778109184832200
  0.4169193707119340  0.5633651114092140  0.5778109184832200
  0.4419193707119339  0.5633651114092140  0.5778109184832200
  0.4669193707119341  0.5633651114092140  0.5778109184832200
  0.4919193707119341  0.5633651114092140  0.5778109184832200
  0.5169193707119341  0.5633651114092140  0.5778109184832200
  0.5419193707119340  0.5633651114092140  0.5778109184832200
  0.5669193707119340  0.5633651114092140  0.5778109184832200
  0.5919193707119341  0.5633651114092140  0.5778109184832200
  0.6169193707119340  0.5633651114092140  0.5778109184832200
  0.6419193707119341  0.5633651114092140  0.5778109184832200
  0.6669193707119343  0.5633651114092140  0.5778109184832200
  0.6919193707119341  0.5633651114092140  0.5778109184832200
  0.7169193707119340  0.5633651114092140  0.5778109184832200
  0.7419193707119340  0.5633651114092140  0.5778109184832200
  0.7669193707119342  0.5633651114092140  0.5778109184832200
  0.7919193707119341  0.5633651114092140  0.5778109184832200
  0.8169193707119342  0.5633651114092140  0.5778109184832200
  0.8419193707119341  0.5633651114092140  0.5778109184832200
  0.8669193707119343  0.5633651114092140  0.5778109184832200
  0.8919193707119344  0.5633651114092140  0.5778109184832200
  0.9169193707119343  0.5633651114092140  0.5778109184832200
  0.9419193707119342  0.5633651114092140  0.5778109184832200
  0.9669193707119341  0.5633651114092140  0.5778109184832200
  0.9919193707119343  0.5633651114092140  0.5778109184832200
  0.0169193707119341  0.5883651114092140  0.5778109184832200
  0.0419193707119340  0.5883651114092140  0.5778109184832200
  0.0669193707119341  0.5883651114092140  0.5778109184832200
  0.0919193707119340  0.5883651114092140  0.5778109184832200
  0.1169193707119340  0.5883651114092140  0.5778109184832200
  0.1419193707119340  0.5883651114092140  0.5778109184832200
  0.1669193707119340  0.5883651114092140  0.5778109184832200
  0.1919193707119340  0.5883651114092140  0.5778109184832200
  0.2169193707119340  0.5883651114092140  0.5778109184832200
  0.2419193707119340  0.5883651114092140  0.5778109184832200
  0.2669193707119339  0.5883651114092140  0.5778109184832200
  0.2919193707119341  0.5883651114092140  0.5778109184832200
  0.3169193707119340  0.5883651114092140  0.5778109184832200
  0.3419193707119340  0.5883651114092140  0.5778109184832200
  0.3669193707119340  0.5883651114092140  0.5778109184832200
  0.3919193707119339  0.5883651114092140  0.5778109184832200
  0.4169193707119341  0.5883651114092140  0.5778109184832200
  0.4419193707119340  0.5883651114092140  0.5778109184832200
  0.4669193707119340  0.5883651114092140  0.5778109184832200
  0.4919193707119340  0.5883651114092140  0.5778109184832200
  0.5169193707119341  0.5883651114092140  0.5778109184832200
  0.5419193707119339  0.5883651114092140  0.5778109184832200
  0.5669193707119339  0.5883651114092140  0.5778109184832200
  0.5919193707119340  0.5883651114092140  0.5778109184832200
  0.6169193707119340  0.5883651114092140  0.5778109184832200
  0.6419193707119339  0.5883651114092140  0.5778109184832200
  0.6669193707119341  0.5883651114092140  0.5778109184832200
  0.6919193707119340  0.5883651114092140  0.5778109184832200
  0.7169193707119341  0.5883651114092140  0.5778109184832200
  0.7419193707119340  0.5883651114092140  0.5778109184832200
  0.7669193707119342  0.5883651114092140  0.5778109184832200
  0.7919193707119341  0.5883651114092140  0.5778109184832200
  0.8169193707119340  0.5883651114092140  0.5778109184832200
  0.8419193707119341  0.5883651114092140  0.5778109184832200
  0.8669193707119343  0.5883651114092140  0.5778109184832200
  0.8919193707119342  0.5883651114092140  0.5778109184832200
  0.9169193707119341  0.5883651114092140  0.5778109184832200
  0.9419193707119342  0.5883651114092140  0.5778109184832200
  0.9669193707119341  0.5883651114092140  0.5778109184832200
  0.9919193707119340  0.5883651114092140  0.5778109184832200
  0.0169193707119340  0.6133651114092140  0.5778109184832200
  0.0419193707119340  0.6133651114092140  0.5778109184832200
  0.0669193707119340  0.6133651114092140  0.5778109184832200
  0.0919193707119341  0.6133651114092140  0.5778109184832200
  0.1169193707119340  0.6133651114092140  0.5778109184832200
  0.1419193707119341  0.6133651114092140  0.5778109184832200
  0.1669193707119340  0.6133651114092140  0.5778109184832200
  0.1919193707119340  0.6133651114092140  0.5778109184832200
  0.2169193707119341  0.6133651114092140  0.5778109184832200
  0.2419193707119341  0.6133651114092140  0.5778109184832200
  0.2669193707119341  0.6133651114092140  0.5778109184832200
  0.2919193707119340  0.6133651114092140  0.5778109184832200
  0.3169193707119340  0.6133651114092140  0.5778109184832200
  0.3419193707119341  0.6133651114092140  0.5778109184832200
  0.3669193707119341  0.6133651114092140  0.5778109184832200
  0.3919193707119340  0.6133651114092140  0.5778109184832200
  0.4169193707119340  0.6133651114092140  0.5778109184832200
  0.4419193707119340  0.6133651114092140  0.5778109184832200
  0.4669193707119341  0.6133651114092140  0.5778109184832200
  0.4919193707119341  0.6133651114092140  0.5778109184832200
  0.5169193707119342  0.6133651114092140  0.5778109184832200
  0.5419193707119341  0.6133651114092140  0.5778109184832200
  0.5669193707119341  0.6133651114092140  0.5778109184832200
  0.5919193707119341  0.6133651114092140  0.5778109184832200
  0.6169193707119341  0.6133651114092140  0.5778109184832200
  0.6419193707119342  0.6133651114092140  0.5778109184832200
  0.6669193707119342  0.6133651114092140  0.5778109184832200
  0.6919193707119341  0.6133651114092140  0.5778109184832200
  0.7169193707119340  0.6133651114092140  0.5778109184832200
  0.7419193707119341  0.6133651114092140  0.5778109184832200
  0.7669193707119343  0.6133651114092140  0.5778109184832200
  0.7919193707119342  0.6133651114092140  0.5778109184832200
  0.8169193707119341  0.6133651114092140  0.5778109184832200
  0.8419193707119340  0.6133651114092140  0.5778109184832200
  0.8669193707119341  0.6133651114092140  0.5778109184832200
  0.8919193707119343  0.6133651114092140  0.5778109184832200
  0.9169193707119342  0.6133651114092140  0.5778109184832200
  0.9419193707119343  0.6133651114092140  0.5778109184832200
  0.9669193707119342  0.6133651114092140  0.5778109184832200
  0.9919193707119344  0.6133651114092140  0.5778109184832200
  0.0169193707119340  0.6383651114092140  0.5778109184832200
  0.0419193707119341  0.6383651114092140  0.5778109184832200
  0.0669193707119341  0.6383651114092140  0.5778109184832200
  0.0919193707119341  0.6383651114092140  0.5778109184832200
  0.1169193707119340  0.6383651114092140  0.5778109184832200
  0.1419193707119341  0.6383651114092140  0.5778109184832200
  0.1669193707119340  0.6383651114092140  0.5778109184832200
  0.1919193707119340  0.6383651114092140  0.5778109184832200
  0.2169193707119340  0.6383651114092140  0.5778109184832200
  0.2419193707119341  0.6383651114092140  0.5778109184832200
  0.2669193707119341  0.6383651114092140  0.5778109184832200
  0.2919193707119341  0.6383651114092140  0.5778109184832200
  0.3169193707119340  0.6383651114092140  0.5778109184832200
  0.3419193707119340  0.6383651114092140  0.5778109184832200
  0.3669193707119340  0.6383651114092140  0.5778109184832200
  0.3919193707119341  0.6383651114092140  0.5778109184832200
  0.4169193707119340  0.6383651114092140  0.5778109184832200
  0.4419193707119340  0.6383651114092140  0.5778109184832200
  0.4669193707119341  0.6383651114092140  0.5778109184832200
  0.4919193707119341  0.6383651114092140  0.5778109184832200
  0.5169193707119341  0.6383651114092140  0.5778109184832200
  0.5419193707119340  0.6383651114092140  0.5778109184832200
  0.5669193707119340  0.6383651114092140  0.5778109184832200
  0.5919193707119341  0.6383651114092140  0.5778109184832200
  0.6169193707119340  0.6383651114092140  0.5778109184832200
  0.6419193707119339  0.6383651114092140  0.5778109184832200
  0.6669193707119341  0.6383651114092140  0.5778109184832200
  0.6919193707119339  0.6383651114092140  0.5778109184832200
  0.7169193707119340  0.6383651114092140  0.5778109184832200
  0.7419193707119339  0.6383651114092140  0.5778109184832200
  0.7669193707119341  0.6383651114092140  0.5778109184832200
  0.7919193707119342  0.6383651114092140  0.5778109184832200
  0.8169193707119341  0.6383651114092140  0.5778109184832200
  0.8419193707119342  0.6383651114092140  0.5778109184832200
  0.8669193707119341  0.6383651114092140  0.5778109184832200
  0.8919193707119341  0.6383651114092140  0.5778109184832200
  0.9169193707119340  0.6383651114092140  0.5778109184832200
  0.9419193707119341  0.6383651114092140  0.5778109184832200
  0.9669193707119340  0.6383651114092140  0.5778109184832200
  0.9919193707119341  0.6383651114092140  0.5778109184832200
  0.0169193707119341  0.6633651114092141  0.5778109184832200
  0.0419193707119341  0.6633651114092141  0.5778109184832200
  0.0669193707119341  0.6633651114092141  0.5778109184832200
  0.0919193707119340  0.6633651114092141  0.5778109184832200
  0.1169193707119341  0.6633651114092141  0.5778109184832200
  0.1419193707119341  0.6633651114092141  0.5778109184832200
  0.1669193707119341  0.6633651114092141  0.5778109184832200
  0.1919193707119341  0.6633651114092141  0.5778109184832200
  0.2169193707119341  0.6633651114092141  0.5778109184832200
  0.2419193707119341  0.6633651114092141  0.5778109184832200
  0.2669193707119340  0.6633651114092141  0.5778109184832200
  0.2919193707119340  0.6633651114092141  0.5778109184832200
  0.3169193707119340  0.6633651114092141  0.5778109184832200
  0.3419193707119341  0.6633651114092141  0.5778109184832200
  0.3669193707119340  0.6633651114092141  0.5778109184832200
  0.3919193707119340  0.6633651114092141  0.5778109184832200
  0.4169193707119340  0.6633651114092141  0.5778109184832200
  0.4419193707119340  0.6633651114092141  0.5778109184832200
  0.4669193707119341  0.6633651114092141  0.5778109184832200
  0.4919193707119341  0.6633651114092141  0.5778109184832200
  0.5169193707119342  0.6633651114092141  0.5778109184832200
  0.5419193707119341  0.6633651114092141  0.5778109184832200
  0.5669193707119340  0.6633651114092141  0.5778109184832200
  0.5919193707119341  0.6633651114092141  0.5778109184832200
  0.6169193707119340  0.6633651114092141  0.5778109184832200
  0.6419193707119342  0.6633651114092141  0.5778109184832200
  0.6669193707119342  0.6633651114092141  0.5778109184832200
  0.6919193707119342  0.6633651114092141  0.5778109184832200
  0.7169193707119339  0.6633651114092141  0.5778109184832200
  0.7419193707119340  0.6633651114092141  0.5778109184832200
  0.7669193707119342  0.6633651114092141  0.5778109184832200
  0.7919193707119341  0.6633651114092141  0.5778109184832200
  0.8169193707119342  0.6633651114092141  0.5778109184832200
  0.8419193707119341  0.6633651114092141  0.5778109184832200
  0.8669193707119343  0.6633651114092141  0.5778109184832200
  0.8919193707119342  0.6633651114092141  0.5778109184832200
  0.9169193707119341  0.6633651114092141  0.5778109184832200
  0.9419193707119342  0.6633651114092141  0.5778109184832200
  0.9669193707119341  0.6633651114092141  0.5778109184832200
  0.9919193707119343  0.6633651114092141  0.5778109184832200
  0.0169193707119340  0.6883651114092141  0.5778109184832200
  0.0419193707119340  0.6883651114092141  0.5778109184832200
  0.0669193707119340  0.6883651114092141  0.5778109184832200
  0.0919193707119340  0.6883651114092141  0.5778109184832200
  0.1169193707119340  0.6883651114092141  0.5778109184832200
  0.1419193707119340  0.6883651114092141  0.5778109184832200
  0.1669193707119340  0.6883651114092141  0.5778109184832200
  0.1919193707119340  0.6883651114092141  0.5778109184832200
  0.2169193707119340  0.6883651114092141  0.5778109184832200
  0.2419193707119341  0.6883651114092141  0.5778109184832200
  0.2669193707119341  0.6883651114092141  0.5778109184832200
  0.2919193707119340  0.6883651114092141  0.5778109184832200
  0.3169193707119340  0.6883651114092141  0.5778109184832200
  0.3419193707119341  0.6883651114092141  0.5778109184832200
  0.3669193707119341  0.6883651114092141  0.5778109184832200
  0.3919193707119340  0.6883651114092141  0.5778109184832200
  0.4169193707119340  0.6883651114092141  0.5778109184832200
  0.4419193707119340  0.6883651114092141  0.5778109184832200
  0.4669193707119342  0.6883651114092141  0.5778109184832200
  0.4919193707119341  0.6883651114092141  0.5778109184832200
  0.5169193707119341  0.6883651114092141  0.5778109184832200
  0.5419193707119340  0.6883651114092141  0.5778109184832200
  0.5669193707119340  0.6883651114092141  0.5778109184832200
  0.5919193707119339  0.6883651114092141  0.5778109184832200
  0.6169193707119340  0.6883651114092141  0.5778109184832200
  0.6419193707119339  0.6883651114092141  0.5778109184832200
  0.6669193707119341  0.6883651114092141  0.5778109184832200
  0.6919193707119340  0.6883651114092141  0.5778109184832200
  0.7169193707119341  0.6883651114092141  0.5778109184832200
  0.7419193707119338  0.6883651114092141  0.5778109184832200
  0.7669193707119339  0.6883651114092141  0.5778109184832200
  0.7919193707119341  0.6883651114092141  0.5778109184832200
  0.8169193707119340  0.6883651114092141  0.5778109184832200
  0.8419193707119341  0.6883651114092141  0.5778109184832200
  0.8669193707119343  0.6883651114092141  0.5778109184832200
  0.8919193707119342  0.6883651114092141  0.5778109184832200
  0.9169193707119341  0.6883651114092141  0.5778109184832200
  0.9419193707119340  0.6883651114092141  0.5778109184832200
  0.9669193707119339  0.6883651114092141  0.5778109184832200
  0.9919193707119340  0.6883651114092141  0.5778109184832200
  0.0169193707119340  0.7133651114092141  0.5778109184832200
  0.0419193707119340  0.7133651114092141  0.5778109184832200
  0.0669193707119340  0.7133651114092141  0.5778109184832200
  0.0919193707119341  0.7133651114092141  0.5778109184832200
  0.1169193707119340  0.7133651114092141  0.5778109184832200
  0.1419193707119340  0.7133651114092141  0.5778109184832200
  0.1669193707119339  0.7133651114092141  0.5778109184832200
  0.1919193707119340  0.7133651114092141  0.5778109184832200
  0.2169193707119341  0.7133651114092141  0.5778109184832200
  0.2419193707119340  0.7133651114092141  0.5778109184832200
  0.2669193707119341  0.7133651114092141  0.5778109184832200
  0.2919193707119341  0.7133651114092141  0.5778109184832200
  0.3169193707119341  0.7133651114092141  0.5778109184832200
  0.3419193707119340  0.7133651114092141  0.5778109184832200
  0.3669193707119340  0.7133651114092141  0.5778109184832200
  0.3919193707119341  0.7133651114092141  0.5778109184832200
  0.4169193707119341  0.7133651114092141  0.5778109184832200
  0.4419193707119340  0.7133651114092141  0.5778109184832200
  0.4669193707119341  0.7133651114092141  0.5778109184832200
  0.4919193707119341  0.7133651114092141  0.5778109184832200
  0.5169193707119342  0.7133651114092141  0.5778109184832200
  0.5419193707119340  0.7133651114092141  0.5778109184832200
  0.5669193707119340  0.7133651114092141  0.5778109184832200
  0.5919193707119341  0.7133651114092141  0.5778109184832200
  0.6169193707119340  0.7133651114092141  0.5778109184832200
  0.6419193707119341  0.7133651114092141  0.5778109184832200
  0.6669193707119342  0.7133651114092141  0.5778109184832200
  0.6919193707119341  0.7133651114092141  0.5778109184832200
  0.7169193707119340  0.7133651114092141  0.5778109184832200
  0.7419193707119341  0.7133651114092141  0.5778109184832200
  0.7669193707119341  0.7133651114092141  0.5778109184832200
  0.7919193707119340  0.7133651114092141  0.5778109184832200
  0.8169193707119341  0.7133651114092141  0.5778109184832200
  0.8419193707119340  0.7133651114092141  0.5778109184832200
  0.8669193707119341  0.7133651114092141  0.5778109184832200
  0.8919193707119343  0.7133651114092141  0.5778109184832200
  0.9169193707119342  0.7133651114092141  0.5778109184832200
  0.9419193707119343  0.7133651114092141  0.5778109184832200
  0.9669193707119340  0.7133651114092141  0.5778109184832200
  0.9919193707119341  0.7133651114092141  0.5778109184832200
  0.0169193707119340  0.7383651114092140  0.5778109184832200
  0.0419193707119341  0.7383651114092140  0.5778109184832200
  0.0669193707119340  0.7383651114092140  0.5778109184832200
  0.0919193707119341  0.7383651114092140  0.5778109184832200
  0.1169193707119340  0.7383651114092140  0.5778109184832200
  0.1419193707119341  0.7383651114092140  0.5778109184832200
  0.1669193707119341  0.7383651114092140  0.5778109184832200
  0.1919193707119340  0.7383651114092140  0.5778109184832200
  0.2169193707119340  0.7383651114092140  0.5778109184832200
  0.2419193707119341  0.7383651114092140  0.5778109184832200
  0.2669193707119341  0.7383651114092140  0.5778109184832200
  0.2919193707119340  0.7383651114092140  0.5778109184832200
  0.3169193707119340  0.7383651114092140  0.5778109184832200
  0.3419193707119341  0.7383651114092140  0.5778109184832200
  0.3669193707119341  0.7383651114092140  0.5778109184832200
  0.3919193707119340  0.7383651114092140  0.5778109184832200
  0.4169193707119340  0.7383651114092140  0.5778109184832200
  0.4419193707119340  0.7383651114092140  0.5778109184832200
  0.4669193707119341  0.7383651114092140  0.5778109184832200
  0.4919193707119341  0.7383651114092140  0.5778109184832200
  0.5169193707119341  0.7383651114092140  0.5778109184832200
  0.5419193707119340  0.7383651114092140  0.5778109184832200
  0.5669193707119339  0.7383651114092140  0.5778109184832200
  0.5919193707119339  0.7383651114092140  0.5778109184832200
  0.6169193707119340  0.7383651114092140  0.5778109184832200
  0.6419193707119338  0.7383651114092140  0.5778109184832200
  0.6669193707119340  0.7383651114092140  0.5778109184832200
  0.6919193707119339  0.7383651114092140  0.5778109184832200
  0.7169193707119340  0.7383651114092140  0.5778109184832200
  0.7419193707119339  0.7383651114092140  0.5778109184832200
  0.7669193707119341  0.7383651114092140  0.5778109184832200
  0.7919193707119342  0.7383651114092140  0.5778109184832200
  0.8169193707119339  0.7383651114092140  0.5778109184832200
  0.8419193707119340  0.7383651114092140  0.5778109184832200
  0.8669193707119341  0.7383651114092140  0.5778109184832200
  0.8919193707119341  0.7383651114092140  0.5778109184832200
  0.9169193707119340  0.7383651114092140  0.5778109184832200
  0.9419193707119341  0.7383651114092140  0.5778109184832200
  0.9669193707119340  0.7383651114092140  0.5778109184832200
  0.9919193707119341  0.7383651114092140  0.5778109184832200
  0.0169193707119340  0.7633651114092140  0.5778109184832200
  0.0419193707119340  0.7633651114092140  0.5778109184832200
  0.0669193707119340  0.7633651114092140  0.5778109184832200
  0.0919193707119341  0.7633651114092140  0.5778109184832200
  0.1169193707119340  0.7633651114092140  0.5778109184832200
  0.1419193707119341  0.7633651114092140  0.5778109184832200
  0.1669193707119341  0.7633651114092140  0.5778109184832200
  0.1919193707119341  0.7633651114092140  0.5778109184832200
  0.2169193707119340  0.7633651114092140  0.5778109184832200
  0.2419193707119340  0.7633651114092140  0.5778109184832200
  0.2669193707119341  0.7633651114092140  0.5778109184832200
  0.2919193707119341  0.7633651114092140  0.5778109184832200
  0.3169193707119340  0.7633651114092140  0.5778109184832200
  0.3419193707119340  0.7633651114092140  0.5778109184832200
  0.3669193707119340  0.7633651114092140  0.5778109184832200
  0.3919193707119341  0.7633651114092140  0.5778109184832200
  0.4169193707119340  0.7633651114092140  0.5778109184832200
  0.4419193707119340  0.7633651114092140  0.5778109184832200
  0.4669193707119341  0.7633651114092140  0.5778109184832200
  0.4919193707119341  0.7633651114092140  0.5778109184832200
  0.5169193707119341  0.7633651114092140  0.5778109184832200
  0.5419193707119340  0.7633651114092140  0.5778109184832200
  0.5669193707119340  0.7633651114092140  0.5778109184832200
  0.5919193707119341  0.7633651114092140  0.5778109184832200
  0.6169193707119339  0.7633651114092140  0.5778109184832200
  0.6419193707119342  0.7633651114092140  0.5778109184832200
  0.6669193707119341  0.7633651114092140  0.5778109184832200
  0.6919193707119340  0.7633651114092140  0.5778109184832200
  0.7169193707119339  0.7633651114092140  0.5778109184832200
  0.7419193707119340  0.7633651114092140  0.5778109184832200
  0.7669193707119342  0.7633651114092140  0.5778109184832200
  0.7919193707119341  0.7633651114092140  0.5778109184832200
  0.8169193707119342  0.7633651114092140  0.5778109184832200
  0.8419193707119341  0.7633651114092140  0.5778109184832200
  0.8669193707119340  0.7633651114092140  0.5778109184832200
  0.8919193707119342  0.7633651114092140  0.5778109184832200
  0.9169193707119341  0.7633651114092140  0.5778109184832200
  0.9419193707119342  0.7633651114092140  0.5778109184832200
  0.9669193707119341  0.7633651114092140  0.5778109184832200
  0.9919193707119343  0.7633651114092140  0.5778109184832200
  0.0169193707119341  0.7883651114092141  0.5778109184832200
  0.0419193707119340  0.7883651114092141  0.5778109184832200
  0.0669193707119341  0.7883651114092141  0.5778109184832200
  0.0919193707119341  0.7883651114092141  0.5778109184832200
  0.1169193707119341  0.7883651114092141  0.5778109184832200
  0.1419193707119341  0.7883651114092141  0.5778109184832200
  0.1669193707119340  0.7883651114092141  0.5778109184832200
  0.1919193707119340  0.7883651114092141  0.5778109184832200
  0.2169193707119341  0.7883651114092141  0.5778109184832200
  0.2419193707119341  0.7883651114092141  0.5778109184832200
  0.2669193707119340  0.7883651114092141  0.5778109184832200
  0.2919193707119341  0.7883651114092141  0.5778109184832200
  0.3169193707119340  0.7883651114092141  0.5778109184832200
  0.3419193707119341  0.7883651114092141  0.5778109184832200
  0.3669193707119341  0.7883651114092141  0.5778109184832200
  0.3919193707119340  0.7883651114092141  0.5778109184832200
  0.4169193707119341  0.7883651114092141  0.5778109184832200
  0.4419193707119340  0.7883651114092141  0.5778109184832200
  0.4669193707119341  0.7883651114092141  0.5778109184832200
  0.4919193707119341  0.7883651114092141  0.5778109184832200
  0.5169193707119341  0.7883651114092141  0.5778109184832200
  0.5419193707119340  0.7883651114092141  0.5778109184832200
  0.5669193707119340  0.7883651114092141  0.5778109184832200
  0.5919193707119341  0.7883651114092141  0.5778109184832200
  0.6169193707119340  0.7883651114092141  0.5778109184832200
  0.6419193707119342  0.7883651114092141  0.5778109184832200
  0.6669193707119343  0.7883651114092141  0.5778109184832200
  0.6919193707119340  0.7883651114092141  0.5778109184832200
  0.7169193707119339  0.7883651114092141  0.5778109184832200
  0.7419193707119340  0.7883651114092141  0.5778109184832200
  0.7669193707119342  0.7883651114092141  0.5778109184832200
  0.7919193707119341  0.7883651114092141  0.5778109184832200
  0.8169193707119342  0.7883651114092141  0.5778109184832200
  0.8419193707119341  0.7883651114092141  0.5778109184832200
  0.8669193707119343  0.7883651114092141  0.5778109184832200
  0.8919193707119342  0.7883651114092141  0.5778109184832200
  0.9169193707119341  0.7883651114092141  0.5778109184832200
  0.9419193707119342  0.7883651114092141  0.5778109184832200
  0.9669193707119341  0.7883651114092141  0.5778109184832200
  0.9919193707119343  0.7883651114092141  0.5778109184832200
  0.0169193707119341  0.8133651114092141  0.5778109184832200
  0.0419193707119341  0.8133651114092141  0.5778109184832200
  0.0669193707119340  0.8133651114092141  0.5778109184832200
  0.0919193707119341  0.8133651114092141  0.5778109184832200
  0.1169193707119340  0.8133651114092141  0.5778109184832200
  0.1419193707119341  0.8133651114092141  0.5778109184832200
  0.1669193707119341  0.8133651114092141  0.5778109184832200
  0.1919193707119340  0.8133651114092141  0.5778109184832200
  0.2169193707119340  0.8133651114092141  0.5778109184832200
  0.2419193707119340  0.8133651114092141  0.5778109184832200
  0.2669193707119341  0.8133651114092141  0.5778109184832200
  0.2919193707119341  0.8133651114092141  0.5778109184832200
  0.3169193707119340  0.8133651114092141  0.5778109184832200
  0.3419193707119341  0.8133651114092141  0.5778109184832200
  0.3669193707119341  0.8133651114092141  0.5778109184832200
  0.3919193707119339  0.8133651114092141  0.5778109184832200
  0.4169193707119341  0.8133651114092141  0.5778109184832200
  0.4419193707119340  0.8133651114092141  0.5778109184832200
  0.4669193707119341  0.8133651114092141  0.5778109184832200
  0.4919193707119340  0.8133651114092141  0.5778109184832200
  0.5169193707119341  0.8133651114092141  0.5778109184832200
  0.5419193707119341  0.8133651114092141  0.5778109184832200
  0.5669193707119340  0.8133651114092141  0.5778109184832200
  0.5919193707119340  0.8133651114092141  0.5778109184832200
  0.6169193707119341  0.8133651114092141  0.5778109184832200
  0.6419193707119341  0.8133651114092141  0.5778109184832200
  0.6669193707119342  0.8133651114092141  0.5778109184832200
  0.6919193707119341  0.8133651114092141  0.5778109184832200
  0.7169193707119342  0.8133651114092141  0.5778109184832200
  0.7419193707119339  0.8133651114092141  0.5778109184832200
  0.7669193707119341  0.8133651114092141  0.5778109184832200
  0.7919193707119342  0.8133651114092141  0.5778109184832200
  0.8169193707119341  0.8133651114092141  0.5778109184832200
  0.8419193707119342  0.8133651114092141  0.5778109184832200
  0.8669193707119344  0.8133651114092141  0.5778109184832200
  0.8919193707119343  0.8133651114092141  0.5778109184832200
  0.9169193707119342  0.8133651114092141  0.5778109184832200
  0.9419193707119341  0.8133651114092141  0.5778109184832200
  0.9669193707119340  0.8133651114092141  0.5778109184832200
  0.9919193707119341  0.8133651114092141  0.5778109184832200
  0.0169193707119341  0.8383651114092141  0.5778109184832200
  0.0419193707119341  0.8383651114092141  0.5778109184832200
  0.0669193707119340  0.8383651114092141  0.5778109184832200
  0.0919193707119341  0.8383651114092141  0.5778109184832200
  0.1169193707119341  0.8383651114092141  0.5778109184832200
  0.1419193707119340  0.8383651114092141  0.5778109184832200
  0.1669193707119340  0.8383651114092141  0.5778109184832200
  0.1919193707119340  0.8383651114092141  0.5778109184832200
  0.2169193707119341  0.8383651114092141  0.5778109184832200
  0.2419193707119340  0.8383651114092141  0.5778109184832200
  0.2669193707119340  0.8383651114092141  0.5778109184832200
  0.2919193707119341  0.8383651114092141  0.5778109184832200
  0.3169193707119340  0.8383651114092141  0.5778109184832200
  0.3419193707119341  0.8383651114092141  0.5778109184832200
  0.3669193707119341  0.8383651114092141  0.5778109184832200
  0.3919193707119340  0.8383651114092141  0.5778109184832200
  0.4169193707119340  0.8383651114092141  0.5778109184832200
  0.4419193707119339  0.8383651114092141  0.5778109184832200
  0.4669193707119341  0.8383651114092141  0.5778109184832200
  0.4919193707119341  0.8383651114092141  0.5778109184832200
  0.5169193707119341  0.8383651114092141  0.5778109184832200
  0.5419193707119340  0.8383651114092141  0.5778109184832200
  0.5669193707119341  0.8383651114092141  0.5778109184832200
  0.5919193707119341  0.8383651114092141  0.5778109184832200
  0.6169193707119340  0.8383651114092141  0.5778109184832200
  0.6419193707119342  0.8383651114092141  0.5778109184832200
  0.6669193707119343  0.8383651114092141  0.5778109184832200
  0.6919193707119342  0.8383651114092141  0.5778109184832200
  0.7169193707119341  0.8383651114092141  0.5778109184832200
  0.7419193707119343  0.8383651114092141  0.5778109184832200
  0.7669193707119342  0.8383651114092141  0.5778109184832200
  0.7919193707119341  0.8383651114092141  0.5778109184832200
  0.8169193707119342  0.8383651114092141  0.5778109184832200
  0.8419193707119341  0.8383651114092141  0.5778109184832200
  0.8669193707119343  0.8383651114092141  0.5778109184832200
  0.8919193707119344  0.8383651114092141  0.5778109184832200
  0.9169193707119343  0.8383651114092141  0.5778109184832200
  0.9419193707119342  0.8383651114092141  0.5778109184832200
  0.9669193707119341  0.8383651114092141  0.5778109184832200
  0.9919193707119343  0.8383651114092141  0.5778109184832200
  0.0169193707119340  0.8633651114092142  0.5778109184832200
  0.0419193707119340  0.8633651114092142  0.5778109184832200
  0.0669193707119340  0.8633651114092142  0.5778109184832200
  0.0919193707119340  0.8633651114092142  0.5778109184832200
  0.1169193707119340  0.8633651114092142  0.5778109184832200
  0.1419193707119340  0.8633651114092142  0.5778109184832200
  0.1669193707119339  0.8633651114092142  0.5778109184832200
  0.1919193707119339  0.8633651114092142  0.5778109184832200
  0.2169193707119341  0.8633651114092142  0.5778109184832200
  0.2419193707119341  0.8633651114092142  0.5778109184832200
  0.2669193707119340  0.8633651114092142  0.5778109184832200
  0.2919193707119340  0.8633651114092142  0.5778109184832200
  0.3169193707119340  0.8633651114092142  0.5778109184832200
  0.3419193707119341  0.8633651114092142  0.5778109184832200
  0.3669193707119340  0.8633651114092142  0.5778109184832200
  0.3919193707119340  0.8633651114092142  0.5778109184832200
  0.4169193707119340  0.8633651114092142  0.5778109184832200
  0.4419193707119340  0.8633651114092142  0.5778109184832200
  0.4669193707119341  0.8633651114092142  0.5778109184832200
  0.4919193707119341  0.8633651114092142  0.5778109184832200
  0.5169193707119342  0.8633651114092142  0.5778109184832200
  0.5419193707119341  0.8633651114092142  0.5778109184832200
  0.5669193707119339  0.8633651114092142  0.5778109184832200
  0.5919193707119341  0.8633651114092142  0.5778109184832200
  0.6169193707119340  0.8633651114092142  0.5778109184832200
  0.6419193707119339  0.8633651114092142  0.5778109184832200
  0.6669193707119341  0.8633651114092142  0.5778109184832200
  0.6919193707119340  0.8633651114092142  0.5778109184832200
  0.7169193707119341  0.8633651114092142  0.5778109184832200
  0.7419193707119340  0.8633651114092142  0.5778109184832200
  0.7669193707119342  0.8633651114092142  0.5778109184832200
  0.7919193707119341  0.8633651114092142  0.5778109184832200
  0.8169193707119340  0.8633651114092142  0.5778109184832200
  0.8419193707119341  0.8633651114092142  0.5778109184832200
  0.8669193707119343  0.8633651114092142  0.5778109184832200
  0.8919193707119342  0.8633651114092142  0.5778109184832200
  0.9169193707119341  0.8633651114092142  0.5778109184832200
  0.9419193707119342  0.8633651114092142  0.5778109184832200
  0.9669193707119341  0.8633651114092142  0.5778109184832200
  0.9919193707119340  0.8633651114092142  0.5778109184832200
  0.0169193707119341  0.8883651114092143  0.5778109184832200
  0.0419193707119340  0.8883651114092143  0.5778109184832200
  0.0669193707119340  0.8883651114092143  0.5778109184832200
  0.0919193707119341  0.8883651114092143  0.5778109184832200
  0.1169193707119339  0.8883651114092143  0.5778109184832200
  0.1419193707119341  0.8883651114092143  0.5778109184832200
  0.1669193707119341  0.8883651114092143  0.5778109184832200
  0.1919193707119341  0.8883651114092143  0.5778109184832200
  0.2169193707119340  0.8883651114092143  0.5778109184832200
  0.2419193707119340  0.8883651114092143  0.5778109184832200
  0.2669193707119341  0.8883651114092143  0.5778109184832200
  0.2919193707119341  0.8883651114092143  0.5778109184832200
  0.3169193707119340  0.8883651114092143  0.5778109184832200
  0.3419193707119340  0.8883651114092143  0.5778109184832200
  0.3669193707119340  0.8883651114092143  0.5778109184832200
  0.3919193707119341  0.8883651114092143  0.5778109184832200
  0.4169193707119340  0.8883651114092143  0.5778109184832200
  0.4419193707119340  0.8883651114092143  0.5778109184832200
  0.4669193707119341  0.8883651114092143  0.5778109184832200
  0.4919193707119340  0.8883651114092143  0.5778109184832200
  0.5169193707119339  0.8883651114092143  0.5778109184832200
  0.5419193707119339  0.8883651114092143  0.5778109184832200
  0.5669193707119340  0.8883651114092143  0.5778109184832200
  0.5919193707119341  0.8883651114092143  0.5778109184832200
  0.6169193707119340  0.8883651114092143  0.5778109184832200
  0.6419193707119339  0.8883651114092143  0.5778109184832200
  0.6669193707119341  0.8883651114092143  0.5778109184832200
  0.6919193707119340  0.8883651114092143  0.5778109184832200
  0.7169193707119339  0.8883651114092143  0.5778109184832200
  0.7419193707119340  0.8883651114092143  0.5778109184832200
  0.7669193707119342  0.8883651114092143  0.5778109184832200
  0.7919193707119341  0.8883651114092143  0.5778109184832200
  0.8169193707119342  0.8883651114092143  0.5778109184832200
  0.8419193707119339  0.8883651114092143  0.5778109184832200
  0.8669193707119340  0.8883651114092143  0.5778109184832200
  0.8919193707119342  0.8883651114092143  0.5778109184832200
  0.9169193707119341  0.8883651114092143  0.5778109184832200
  0.9419193707119342  0.8883651114092143  0.5778109184832200
  0.9669193707119341  0.8883651114092143  0.5778109184832200
  0.9919193707119343  0.8883651114092143  0.5778109184832200
  0.0169193707119341  0.9133651114092141  0.5778109184832200
  0.0419193707119340  0.9133651114092141  0.5778109184832200
  0.0669193707119340  0.9133651114092141  0.5778109184832200
  0.0919193707119340  0.9133651114092141  0.5778109184832200
  0.1169193707119341  0.9133651114092141  0.5778109184832200
  0.1419193707119341  0.9133651114092141  0.5778109184832200
  0.1669193707119340  0.9133651114092141  0.5778109184832200
  0.1919193707119340  0.9133651114092141  0.5778109184832200
  0.2169193707119340  0.9133651114092141  0.5778109184832200
  0.2419193707119340  0.9133651114092141  0.5778109184832200
  0.2669193707119339  0.9133651114092141  0.5778109184832200
  0.2919193707119341  0.9133651114092141  0.5778109184832200
  0.3169193707119340  0.9133651114092141  0.5778109184832200
  0.3419193707119340  0.9133651114092141  0.5778109184832200
  0.3669193707119340  0.9133651114092141  0.5778109184832200
  0.3919193707119339  0.9133651114092141  0.5778109184832200
  0.4169193707119341  0.9133651114092141  0.5778109184832200
  0.4419193707119339  0.9133651114092141  0.5778109184832200
  0.4669193707119340  0.9133651114092141  0.5778109184832200
  0.4919193707119340  0.9133651114092141  0.5778109184832200
  0.5169193707119342  0.9133651114092141  0.5778109184832200
  0.5419193707119340  0.9133651114092141  0.5778109184832200
  0.5669193707119339  0.9133651114092141  0.5778109184832200
  0.5919193707119340  0.9133651114092141  0.5778109184832200
  0.6169193707119341  0.9133651114092141  0.5778109184832200
  0.6419193707119341  0.9133651114092141  0.5778109184832200
  0.6669193707119342  0.9133651114092141  0.5778109184832200
  0.6919193707119339  0.9133651114092141  0.5778109184832200
  0.7169193707119340  0.9133651114092141  0.5778109184832200
  0.7419193707119339  0.9133651114092141  0.5778109184832200
  0.7669193707119341  0.9133651114092141  0.5778109184832200
  0.7919193707119342  0.9133651114092141  0.5778109184832200
  0.8169193707119341  0.9133651114092141  0.5778109184832200
  0.8419193707119342  0.9133651114092141  0.5778109184832200
  0.8669193707119341  0.9133651114092141  0.5778109184832200
  0.8919193707119341  0.9133651114092141  0.5778109184832200
  0.9169193707119340  0.9133651114092141  0.5778109184832200
  0.9419193707119341  0.9133651114092141  0.5778109184832200
  0.9669193707119340  0.9133651114092141  0.5778109184832200
  0.9919193707119341  0.9133651114092141  0.5778109184832200
  0.0169193707119340  0.9383651114092141  0.5778109184832200
  0.0419193707119341  0.9383651114092141  0.5778109184832200
  0.0669193707119341  0.9383651114092141  0.5778109184832200
  0.0919193707119340  0.9383651114092141  0.5778109184832200
  0.1169193707119340  0.9383651114092141  0.5778109184832200
  0.1419193707119340  0.9383651114092141  0.5778109184832200
  0.1669193707119341  0.9383651114092141  0.5778109184832200
  0.1919193707119340  0.9383651114092141  0.5778109184832200
  0.2169193707119341  0.9383651114092141  0.5778109184832200
  0.2419193707119341  0.9383651114092141  0.5778109184832200
  0.2669193707119341  0.9383651114092141  0.5778109184832200
  0.2919193707119340  0.9383651114092141  0.5778109184832200
  0.3169193707119340  0.9383651114092141  0.5778109184832200
  0.3419193707119341  0.9383651114092141  0.5778109184832200
  0.3669193707119341  0.9383651114092141  0.5778109184832200
  0.3919193707119340  0.9383651114092141  0.5778109184832200
  0.4169193707119340  0.9383651114092141  0.5778109184832200
  0.4419193707119340  0.9383651114092141  0.5778109184832200
  0.4669193707119341  0.9383651114092141  0.5778109184832200
  0.4919193707119341  0.9383651114092141  0.5778109184832200
  0.5169193707119341  0.9383651114092141  0.5778109184832200
  0.5419193707119339  0.9383651114092141  0.5778109184832200
  0.5669193707119340  0.9383651114092141  0.5778109184832200
  0.5919193707119341  0.9383651114092141  0.5778109184832200
  0.6169193707119340  0.9383651114092141  0.5778109184832200
  0.6419193707119342  0.9383651114092141  0.5778109184832200
  0.6669193707119343  0.9383651114092141  0.5778109184832200
  0.6919193707119342  0.9383651114092141  0.5778109184832200
  0.7169193707119341  0.9383651114092141  0.5778109184832200
  0.7419193707119340  0.9383651114092141  0.5778109184832200
  0.7669193707119342  0.9383651114092141  0.5778109184832200
  0.7919193707119341  0.9383651114092141  0.5778109184832200
  0.8169193707119342  0.9383651114092141  0.5778109184832200
  0.8419193707119341  0.9383651114092141  0.5778109184832200
  0.8669193707119343  0.9383651114092141  0.5778109184832200
  0.8919193707119344  0.9383651114092141  0.5778109184832200
  0.9169193707119341  0.9383651114092141  0.5778109184832200
  0.9419193707119342  0.9383651114092141  0.5778109184832200
  0.9669193707119341  0.9383651114092141  0.5778109184832200
  0.9919193707119343  0.9383651114092141  0.5778109184832200
  0.0169193707119340  0.9633651114092141  0.5778109184832200
  0.0419193707119340  0.9633651114092141  0.5778109184832200
  0.0669193707119340  0.9633651114092141  0.5778109184832200
  0.0919193707119340  0.9633651114092141  0.5778109184832200
  0.1169193707119341  0.9633651114092141  0.5778109184832200
  0.1419193707119340  0.9633651114092141  0.5778109184832200
  0.1669193707119340  0.9633651114092141  0.5778109184832200
  0.1919193707119340  0.9633651114092141  0.5778109184832200
  0.2169193707119340  0.9633651114092141  0.5778109184832200
  0.2419193707119341  0.9633651114092141  0.5778109184832200
  0.2669193707119341  0.9633651114092141  0.5778109184832200
  0.2919193707119341  0.9633651114092141  0.5778109184832200
  0.3169193707119340  0.9633651114092141  0.5778109184832200
  0.3419193707119341  0.9633651114092141  0.5778109184832200
  0.3669193707119341  0.9633651114092141  0.5778109184832200
  0.3919193707119341  0.9633651114092141  0.5778109184832200
  0.4169193707119340  0.9633651114092141  0.5778109184832200
  0.4419193707119340  0.9633651114092141  0.5778109184832200
  0.4669193707119342  0.9633651114092141  0.5778109184832200
  0.4919193707119341  0.9633651114092141  0.5778109184832200
  0.5169193707119341  0.9633651114092141  0.5778109184832200
  0.5419193707119341  0.9633651114092141  0.5778109184832200
  0.5669193707119340  0.9633651114092141  0.5778109184832200
  0.5919193707119339  0.9633651114092141  0.5778109184832200
  0.6169193707119340  0.9633651114092141  0.5778109184832200
  0.6419193707119339  0.9633651114092141  0.5778109184832200
  0.6669193707119341  0.9633651114092141  0.5778109184832200
  0.6919193707119340  0.9633651114092141  0.5778109184832200
  0.7169193707119341  0.9633651114092141  0.5778109184832200
  0.7419193707119340  0.9633651114092141  0.5778109184832200
  0.7669193707119339  0.9633651114092141  0.5778109184832200
  0.7919193707119341  0.9633651114092141  0.5778109184832200
  0.8169193707119340  0.9633651114092141  0.5778109184832200
  0.8419193707119341  0.9633651114092141  0.5778109184832200
  0.8669193707119343  0.9633651114092141  0.5778109184832200
  0.8919193707119342  0.9633651114092141  0.5778109184832200
  0.9169193707119341  0.9633651114092141  0.5778109184832200
  0.9419193707119342  0.9633651114092141  0.5778109184832200
  0.9669193707119339  0.9633651114092141  0.5778109184832200
  0.9919193707119340  0.9633651114092141  0.5778109184832200
  0.0169193707119340  0.9883651114092141  0.5778109184832200
  0.0419193707119341  0.9883651114092141  0.5778109184832200
  0.0669193707119341  0.9883651114092141  0.5778109184832200
  0.0919193707119341  0.9883651114092141  0.5778109184832200
  0.1169193707119340  0.9883651114092141  0.5778109184832200
  0.1419193707119341  0.9883651114092141  0.5778109184832200
  0.1669193707119341  0.9883651114092141  0.5778109184832200
  0.1919193707119341  0.9883651114092141  0.5778109184832200
  0.2169193707119341  0.9883651114092141  0.5778109184832200
  0.2419193707119341  0.9883651114092141  0.5778109184832200
  0.2669193707119341  0.9883651114092141  0.5778109184832200
  0.2919193707119341  0.9883651114092141  0.5778109184832200
  0.3169193707119341  0.9883651114092141  0.5778109184832200
  0.3419193707119341  0.9883651114092141  0.5778109184832200
  0.3669193707119340  0.9883651114092141  0.5778109184832200
  0.3919193707119341  0.9883651114092141  0.5778109184832200
  0.4169193707119341  0.9883651114092141  0.5778109184832200
  0.4419193707119340  0.9883651114092141  0.5778109184832200
  0.4669193707119340  0.9883651114092141  0.5778109184832200
  0.4919193707119341  0.9883651114092141  0.5778109184832200
  0.5169193707119341  0.9883651114092141  0.5778109184832200
  0.5419193707119340  0.9883651114092141  0.5778109184832200
  0.5669193707119341  0.9883651114092141  0.5778109184832200
  0.5919193707119340  0.9883651114092141  0.5778109184832200
  0.6169193707119339  0.9883651114092141  0.5778109184832200
  0.6419193707119341  0.9883651114092141  0.5778109184832200
  0.6669193707119342  0.9883651114092141  0.5778109184832200
  0.6919193707119341  0.9883651114092141  0.5778109184832200
  0.7169193707119340  0.9883651114092141  0.5778109184832200
  0.7419193707119341  0.9883651114092141  0.5778109184832200
  0.7669193707119343  0.9883651114092141  0.5778109184832200
  0.7919193707119340  0.9883651114092141  0.5778109184832200
  0.8169193707119341  0.9883651114092141  0.5778109184832200
  0.8419193707119340  0.9883651114092141  0.5778109184832200
  0.8669193707119341  0.9883651114092141  0.5778109184832200
  0.8919193707119343  0.9883651114092141  0.5778109184832200
  0.9169193707119342  0.9883651114092141  0.5778109184832200
  0.9419193707119343  0.9883651114092141  0.5778109184832200
  0.9669193707119342  0.9883651114092141  0.5778109184832200
  0.9919193707119341  0.9883651114092141  0.5778109184832200
