LAMMPS (22 Jul 2025 - Update 1)
OMP_NUM_THREADS environment is not set. Defaulting to 1 thread.
  using 1 OpenMP thread(s) per MPI task
OMP_NUM_THREADS environment is not set. Defaulting to 1 thread.
  using 1 OpenMP thread(s) per MPI task
Reading data file ...
  triclinic box = (0 0 0) to (138.12499 216.61998 30) with tilt (69.063901 0 0)
  1 by 1 by 1 MPI processor grid
  reading atoms ...
  16000 atoms
  read_data CPU = 0.032 seconds
WARNING: Calling write_dump before a full system init (src/write_dump.cpp:89)
Total wall time: 0:00:00
