#---------------------------------------------
#    2D Ga2O3 bilayer - (001), AA-parallel
#    G. J. Gonzalez-Loera
#    2026, July
#
#    Constructed from the relaxed Ga2O3(001)
#    monolayer. The two copies are initially
#    separated by 3.0 Ang between their outermost
#    atomic planes.
#---------------------------------------------

SystemName       Ga2O3 bilayer (001) AA
SystemLabel      Ga2O3-GGA-BL-001

NumberOfAtoms    10
NumberOfSpecies  2
%block ChemicalSpeciesLabel
    1    8     O-gga
    2    31    Ga-gga-3d
%endblock ChemicalSpeciesLabel

#--------------------------------------------
#  Initial bilayer structure
#--------------------------------------------
LatticeConstant 1.0 Ang
%block LatticeVectors
      3.246626537       0.140350018       0.000000000
      1.253133791       5.730779279       0.000000000
      0.000000000       0.000000000      30.000000000
%endblock LatticeVectors

AtomicCoordinatesFormat Fractional
%block AtomicCoordinatesAndAtomicSpecies
# Lower Ga2O3(001) layer
  0.828286209  0.719307091  0.426476240   2
  0.518929636  0.302601192  0.400415339   2
  0.387762194  0.563207436  0.450000000   1
  0.425735158  0.005207577  0.413246357   1
  0.938462357  0.455812262  0.376974172   1
# Upper Ga2O3(001) layer
  0.828286209  0.719307091  0.599502068   2
  0.518929636  0.302601192  0.573441167   2
  0.387762194  0.563207436  0.623025828   1
  0.425735158  0.005207577  0.586272185   1
  0.938462357  0.455812262  0.550000000   1
%endblock AtomicCoordinatesAndAtomicSpecies

%block GeometryConstraints
 cell-vector c
%endblock GeometryConstraints

#-----------------------------------------------------------
#  DFT control
#-----------------------------------------------------------
PAO.BasisSize      DZP
PAO.EnergyShift    0.075 eV
XC.Functional      GGA
XC.Authors         PBE
MaxSCFIterations   150
MeshCutoff         500 Ry
DM.Tolerance       1.00E-4
DM.MixingWeight    0.2
DM.UseSaveDM       .False.
SolutionMethod     diagon

#-----------------------------------------------------------
#  Brillouin-zone sampling
#-----------------------------------------------------------
%block kgrid_Monkhorst_Pack
24      0       0       0.0
0       14      0       0.0
0       0       1       0.0
%endblock kgrid_Monkhorst_Pack

#-----------------------------------------------------------
#  Structural relaxation
#-----------------------------------------------------------
MD.TypeOfRun        CG
MD.NumCGsteps       200
MD.VariableCell     .True.
MD.MaxForceTol      0.01 eV/Ang
MD.TargetPressure   0.0 GPa
