generated by phonopy
   1.0
    27.6249981288698407    0.0000000000000000    0.0000000000000000
    10.3595851897078202   32.4929967641776756    0.0000000000000000
     0.0000000000000000    0.0000000000000000   30.0000000000000000
Ga O
 192  288
Direct
  0.0696610520058950  0.1325585573967616  0.4040940118915999
  0.1946610520058950  0.1319721242500217  0.4040940118915999
  0.3196610520058950  0.1319721242500217  0.4040940118915999
  0.4446610520058950  0.1319721242500217  0.4040940118915999
  0.5696610520058950  0.1319721242500217  0.4040940118915999
  0.6946610520058951  0.1319721242500217  0.4040940118915999
  0.8196610520058950  0.1319721242500217  0.4040940118915999
  0.9446610520058950  0.1319721242500217  0.4040940118915999
  0.0696610520058950  0.2986387909166883  0.4040940118915999
  0.1946610520058950  0.2986387909166883  0.4040940118915999
  0.3196610520058950  0.2986387909166883  0.4040940118915999
  0.4446610520058951  0.2986387909166883  0.4040940118915999
  0.5696610520058949  0.2986387909166883  0.4040940118915999
  0.6946610520058950  0.2986387909166883  0.4040940118915999
  0.8196610520058949  0.2986387909166883  0.4040940118915999
  0.9446610520058948  0.2986387909166883  0.4040940118915999
  0.0696610520058950  0.4653054575833550  0.4040940118915999
  0.1946610520058950  0.4653054575833550  0.4040940118915999
  0.3196610520058950  0.4653054575833550  0.4040940118915999
  0.4446610520058951  0.4653054575833550  0.4040940118915999
  0.5696610520058950  0.4653054575833550  0.4040940118915999
  0.6946610520058949  0.4653054575833550  0.4040940118915999
  0.8196610520058949  0.4653054575833550  0.4040940118915999
  0.9446610520058949  0.4653054575833550  0.4040940118915999
  0.0696610520058950  0.6319721242500216  0.4040940118915999
  0.1946610520058950  0.6319721242500216  0.4040940118915999
  0.3196610520058950  0.6319721242500216  0.4040940118915999
  0.4446610520058951  0.6319721242500216  0.4040940118915999
  0.5696610520058950  0.6319721242500216  0.4040940118915999
  0.6946610520058949  0.6319721242500216  0.4040940118915999
  0.8196610520058950  0.6319721242500216  0.4040940118915999
  0.9446610520058948  0.6319721242500216  0.4040940118915999
  0.0696610520058950  0.7986387909166883  0.4040940118915999
  0.1946610520058950  0.7986387909166883  0.4040940118915999
  0.3196610520058950  0.7986387909166883  0.4040940118915999
  0.4446610520058950  0.7986387909166883  0.4040940118915999
  0.5696610520058950  0.7986387909166883  0.4040940118915999
  0.6946610520058950  0.7986387909166883  0.4040940118915999
  0.8196610520058951  0.7986387909166883  0.4040940118915999
  0.9446610520058949  0.7986387909166883  0.4040940118915999
  0.0696610520058950  0.9653054575833551  0.4040940118915999
  0.1946610520058951  0.9653054575833551  0.4040940118915999
  0.3196610520058950  0.9653054575833551  0.4040940118915999
  0.4446610520058951  0.9653054575833551  0.4040940118915999
  0.5696610520058951  0.9653054575833551  0.4040940118915999
  0.6946610520058950  0.9653054575833551  0.4040940118915999
  0.8196610520058952  0.9653054575833551  0.4040940118915999
  0.9446610520058950  0.9653054575833551  0.4040940118915999
  0.0311323570191362  0.0680494544046050  0.3750824751567000
  0.1561323570191362  0.0680494544046050  0.3750824751567000
  0.2811323570191362  0.0680494544046050  0.3750824751567000
  0.4061323570191363  0.0680494544046050  0.3750824751567000
  0.5311323570191363  0.0680494544046050  0.3750824751567000
  0.6561323570191362  0.0680494544046050  0.3750824751567000
  0.7811323570191363  0.0680494544046050  0.3750824751567000
  0.9061323570191363  0.0680494544046050  0.3750824751567000
  0.0311323570191363  0.2347161210712717  0.3750824751567000
  0.1561323570191362  0.2347161210712717  0.3750824751567000
  0.2811323570191362  0.2347161210712717  0.3750824751567000
  0.4061323570191362  0.2347161210712717  0.3750824751567000
  0.5311323570191364  0.2347161210712717  0.3750824751567000
  0.6561323570191363  0.2347161210712717  0.3750824751567000
  0.7811323570191364  0.2347161210712717  0.3750824751567000
  0.9061323570191364  0.2347161210712717  0.3750824751567000
  0.0311323570191363  0.4013827877379383  0.3750824751567000
  0.1561323570191362  0.4013827877379383  0.3750824751567000
  0.2811323570191362  0.4013827877379383  0.3750824751567000
  0.4061323570191362  0.4013827877379383  0.3750824751567000
  0.5311323570191363  0.4013827877379383  0.3750824751567000
  0.6561323570191362  0.4013827877379383  0.3750824751567000
  0.7811323570191363  0.4013827877379383  0.3750824751567000
  0.9061323570191362  0.4013827877379383  0.3750824751567000
  0.0311323570191363  0.5680494544046049  0.3750824751567000
  0.1561323570191362  0.5680494544046049  0.3750824751567000
  0.2811323570191362  0.5680494544046049  0.3750824751567000
  0.4061323570191362  0.5680494544046049  0.3750824751567000
  0.5311323570191363  0.5680494544046049  0.3750824751567000
  0.6561323570191363  0.5680494544046049  0.3750824751567000
  0.7811323570191364  0.5680494544046049  0.3750824751567000
  0.9061323570191364  0.5680494544046049  0.3750824751567000
  0.0311323570191363  0.7347161210712715  0.3750824751567000
  0.1561323570191362  0.7347161210712715  0.3750824751567000
  0.2811323570191362  0.7347161210712715  0.3750824751567000
  0.4061323570191364  0.7347161210712715  0.3750824751567000
  0.5311323570191363  0.7347161210712715  0.3750824751567000
  0.6561323570191363  0.7347161210712715  0.3750824751567000
  0.7811323570191363  0.7347161210712715  0.3750824751567000
  0.9061323570191365  0.7347161210712715  0.3750824751567000
  0.0311323570191363  0.9013827877379382  0.3750824751567000
  0.1561323570191363  0.9013827877379382  0.3750824751567000
  0.2811323570191363  0.9013827877379382  0.3750824751567000
  0.4061323570191363  0.9013827877379382  0.3750824751567000
  0.5311323570191363  0.9013827877379382  0.3750824751567000
  0.6561323570191363  0.9013827877379382  0.3750824751567000
  0.7811323570191363  0.9013827877379382  0.3750824751567000
  0.9061323570191363  0.9013827877379382  0.3750824751567000
  0.0680550751756362  0.1332117867980583  0.6249391735401600
  0.1930550751756363  0.1332117867980583  0.6249391735401600
  0.3180550751756362  0.1332117867980583  0.6249391735401600
  0.4430550751756362  0.1332117867980583  0.6249391735401600
  0.5680550751756362  0.1332117867980583  0.6249391735401600
  0.6930550751756361  0.1332117867980583  0.6249391735401600
  0.8180550751756361  0.1332117867980583  0.6249391735401600
  0.9430550751756362  0.1332117867980583  0.6249391735401600
  0.0680550751756362  0.2998784534647250  0.6249391735401600
  0.1930550751756362  0.2998784534647250  0.6249391735401600
  0.3180550751756362  0.2998784534647250  0.6249391735401600
  0.4430550751756362  0.2998784534647250  0.6249391735401600
  0.5680550751756361  0.2998784534647250  0.6249391735401600
  0.6930550751756361  0.2998784534647250  0.6249391735401600
  0.8180550751756361  0.2998784534647250  0.6249391735401600
  0.9430550751756361  0.2998784534647250  0.6249391735401600
  0.0680550751756362  0.4665451201313916  0.6249391735401600
  0.1930550751756362  0.4665451201313916  0.6249391735401600
  0.3180550751756362  0.4665451201313916  0.6249391735401600
  0.4430550751756362  0.4665451201313916  0.6249391735401600
  0.5680550751756361  0.4665451201313916  0.6249391735401600
  0.6930550751756361  0.4665451201313916  0.6249391735401600
  0.8180550751756361  0.4665451201313916  0.6249391735401600
  0.9430550751756362  0.4665451201313916  0.6249391735401600
  0.0680550751756363  0.6332117867980581  0.6249391735401600
  0.1930550751756363  0.6332117867980581  0.6249391735401600
  0.3180550751756362  0.6332117867980581  0.6249391735401600
  0.4430550751756362  0.6332117867980581  0.6249391735401600
  0.5680550751756362  0.6332117867980581  0.6249391735401600
  0.6930550751756362  0.6332117867980581  0.6249391735401600
  0.8180550751756361  0.6332117867980581  0.6249391735401600
  0.9430550751756364  0.6332117867980581  0.6249391735401600
  0.0680550751756363  0.7998784534647249  0.6249391735401600
  0.1930550751756363  0.7998784534647249  0.6249391735401600
  0.3180550751756364  0.7998784534647249  0.6249391735401600
  0.4430550751756364  0.7998784534647249  0.6249391735401600
  0.5680550751756362  0.7998784534647249  0.6249391735401600
  0.6930550751756362  0.7998784534647249  0.6249391735401600
  0.8180550751756362  0.7998784534647249  0.6249391735401600
  0.9430550751756362  0.7998784534647249  0.6249391735401600
  0.0680550751756363  0.9665451201313915  0.6249391735401600
  0.1930550751756363  0.9665451201313915  0.6249391735401600
  0.3180550751756364  0.9665451201313915  0.6249391735401600
  0.4430550751756364  0.9665451201313915  0.6249391735401600
  0.5680550751756362  0.9665451201313915  0.6249391735401600
  0.6930550751756361  0.9665451201313915  0.6249391735401600
  0.8180550751756364  0.9665451201313915  0.6249391735401600
  0.9430550751756364  0.9665451201313915  0.6249391735401600
  0.0295263801817712  0.0692891169773100  0.5959276367889000
  0.1545263801817713  0.0692891169773100  0.5959276367889000
  0.2795263801817712  0.0692891169773100  0.5959276367889000
  0.4045263801817712  0.0692891169773100  0.5959276367889000
  0.5295263801817711  0.0692891169773100  0.5959276367889000
  0.6545263801817712  0.0692891169773100  0.5959276367889000
  0.7795263801817712  0.0692891169773100  0.5959276367889000
  0.9045263801817711  0.0692891169773100  0.5959276367889000
  0.0295263801817712  0.2359557836439767  0.5959276367889000
  0.1545263801817713  0.2359557836439767  0.5959276367889000
  0.2795263801817712  0.2359557836439767  0.5959276367889000
  0.4045263801817712  0.2359557836439767  0.5959276367889000
  0.5295263801817711  0.2359557836439767  0.5959276367889000
  0.6545263801817712  0.2359557836439767  0.5959276367889000
  0.7795263801817712  0.2359557836439767  0.5959276367889000
  0.9045263801817711  0.2359557836439767  0.5959276367889000
  0.0295263801817713  0.4026224503106433  0.5959276367889000
  0.1545263801817713  0.4026224503106433  0.5959276367889000
  0.2795263801817712  0.4026224503106433  0.5959276367889000
  0.4045263801817712  0.4026224503106433  0.5959276367889000
  0.5295263801817712  0.4026224503106433  0.5959276367889000
  0.6545263801817712  0.4026224503106433  0.5959276367889000
  0.7795263801817711  0.4026224503106433  0.5959276367889000
  0.9045263801817712  0.4026224503106433  0.5959276367889000
  0.0295263801817713  0.5692891169773100  0.5959276367889000
  0.1545263801817713  0.5692891169773100  0.5959276367889000
  0.2795263801817712  0.5692891169773100  0.5959276367889000
  0.4045263801817711  0.5692891169773100  0.5959276367889000
  0.5295263801817712  0.5692891169773100  0.5959276367889000
  0.6545263801817712  0.5692891169773100  0.5959276367889000
  0.7795263801817711  0.5692891169773100  0.5959276367889000
  0.9045263801817711  0.5692891169773100  0.5959276367889000
  0.0295263801817712  0.7359557836439766  0.5959276367889000
  0.1545263801817713  0.7359557836439766  0.5959276367889000
  0.2795263801817712  0.7359557836439766  0.5959276367889000
  0.4045263801817712  0.7359557836439766  0.5959276367889000
  0.5295263801817712  0.7359557836439766  0.5959276367889000
  0.6545263801817713  0.7359557836439766  0.5959276367889000
  0.7795263801817712  0.7359557836439766  0.5959276367889000
  0.9045263801817710  0.7359557836439766  0.5959276367889000
  0.0295263801817713  0.9026224503106431  0.5959276367889000
  0.1545263801817713  0.9026224503106431  0.5959276367889000
  0.2795263801817712  0.9026224503106431  0.5959276367889000
  0.4045263801817712  0.9026224503106431  0.5959276367889000
  0.5295263801817712  0.9026224503106431  0.5959276367889000
  0.6545263801817713  0.9026224503106431  0.5959276367889000
  0.7795263801817713  0.9026224503106431  0.5959276367889000
  0.9045263801817711  0.9026224503106431  0.5959276367889000
  0.0145905786267200  0.1121604985000883  0.4222107301842400
  0.1395905786267200  0.1121604985000883  0.4222107301842400
  0.2645905786267200  0.1121604985000883  0.4222107301842400
  0.3895905786267199  0.1121604985000883  0.4222107301842400
  0.5145905786267199  0.1121604985000883  0.4222107301842400
  0.6395905786267199  0.1121604985000883  0.4222107301842400
  0.7645905786267200  0.1121604985000883  0.4222107301842400
  0.8895905786267200  0.1121604985000883  0.4222107301842400
  0.0145905786267200  0.2788271651667550  0.4222107301842400
  0.1395905786267200  0.2788271651667550  0.4222107301842400
  0.2645905786267200  0.2788271651667550  0.4222107301842400
  0.3895905786267200  0.2788271651667550  0.4222107301842400
  0.5145905786267200  0.2788271651667550  0.4222107301842400
  0.6395905786267199  0.2788271651667550  0.4222107301842400
  0.7645905786267200  0.2788271651667550  0.4222107301842400
  0.8895905786267200  0.2788271651667550  0.4222107301842400
  0.0145905786267200  0.4454938318334217  0.4222107301842400
  0.1395905786267200  0.4454938318334217  0.4222107301842400
  0.2645905786267200  0.4454938318334217  0.4222107301842400
  0.3895905786267199  0.4454938318334217  0.4222107301842400
  0.5145905786267200  0.4454938318334217  0.4222107301842400
  0.6395905786267199  0.4454938318334217  0.4222107301842400
  0.7645905786267200  0.4454938318334217  0.4222107301842400
  0.8895905786267199  0.4454938318334217  0.4222107301842400
  0.0145905786267200  0.6121604985000884  0.4222107301842400
  0.1395905786267200  0.6121604985000884  0.4222107301842400
  0.2645905786267200  0.6121604985000884  0.4222107301842400
  0.3895905786267200  0.6121604985000884  0.4222107301842400
  0.5145905786267201  0.6121604985000884  0.4222107301842400
  0.6395905786267200  0.6121604985000884  0.4222107301842400
  0.7645905786267201  0.6121604985000884  0.4222107301842400
  0.8895905786267200  0.6121604985000884  0.4222107301842400
  0.0145905786267200  0.7788271651667549  0.4222107301842400
  0.1395905786267200  0.7788271651667549  0.4222107301842400
  0.2645905786267200  0.7788271651667549  0.4222107301842400
  0.3895905786267200  0.7788271651667549  0.4222107301842400
  0.5145905786267199  0.7788271651667549  0.4222107301842400
  0.6395905786267199  0.7788271651667549  0.4222107301842400
  0.7645905786267199  0.7788271651667549  0.4222107301842400
  0.8895905786267199  0.7788271651667549  0.4222107301842400
  0.0145905786267200  0.9454938318334216  0.4222107301842400
  0.1395905786267200  0.9454938318334216  0.4222107301842400
  0.2645905786267200  0.9454938318334216  0.4222107301842400
  0.3895905786267200  0.9454938318334216  0.4222107301842400
  0.5145905786267200  0.9454938318334216  0.4222107301842400
  0.6395905786267199  0.9454938318334216  0.4222107301842400
  0.7645905786267199  0.9454938318334216  0.4222107301842400
  0.8895905786267199  0.9454938318334216  0.4222107301842400
  0.0488184049373437  0.0208860304049117  0.4075733843043099
  0.1738184049373437  0.0208860304049117  0.4075733843043099
  0.2988184049373437  0.0208860304049117  0.4075733843043099
  0.4238184049373437  0.0208860304049117  0.4075733843043099
  0.5488184049373438  0.0208860304049117  0.4075733843043099
  0.6738184049373438  0.0208860304049117  0.4075733843043099
  0.7988184049373439  0.0208860304049117  0.4075733843043099
  0.9238184049373438  0.0208860304049117  0.4075733843043099
  0.0488184049373437  0.1875526970715783  0.4075733843043099
  0.1738184049373437  0.1875526970715783  0.4075733843043099
  0.2988184049373437  0.1875526970715783  0.4075733843043099
  0.4238184049373438  0.1875526970715783  0.4075733843043099
  0.5488184049373438  0.1875526970715783  0.4075733843043099
  0.6738184049373438  0.1875526970715783  0.4075733843043099
  0.7988184049373439  0.1875526970715783  0.4075733843043099
  0.9238184049373438  0.1875526970715783  0.4075733843043099
  0.0488184049373438  0.3542193637382449  0.4075733843043099
  0.1738184049373438  0.3542193637382449  0.4075733843043099
  0.2988184049373437  0.3542193637382449  0.4075733843043099
  0.4238184049373438  0.3542193637382449  0.4075733843043099
  0.5488184049373438  0.3542193637382449  0.4075733843043099
  0.6738184049373438  0.3542193637382449  0.4075733843043099
  0.7988184049373438  0.3542193637382449  0.4075733843043099
  0.9238184049373438  0.3542193637382449  0.4075733843043099
  0.0488184049373438  0.5208860304049117  0.4075733843043099
  0.1738184049373437  0.5208860304049117  0.4075733843043099
  0.2988184049373437  0.5208860304049117  0.4075733843043099
  0.4238184049373437  0.5208860304049117  0.4075733843043099
  0.5488184049373438  0.5208860304049117  0.4075733843043099
  0.6738184049373438  0.5208860304049117  0.4075733843043099
  0.7988184049373438  0.5208860304049117  0.4075733843043099
  0.9238184049373437  0.5208860304049117  0.4075733843043099
  0.0488184049373438  0.6875526970715783  0.4075733843043099
  0.1738184049373437  0.6875526970715783  0.4075733843043099
  0.2988184049373437  0.6875526970715783  0.4075733843043099
  0.4238184049373437  0.6875526970715783  0.4075733843043099
  0.5488184049373438  0.6875526970715783  0.4075733843043099
  0.6738184049373438  0.6875526970715783  0.4075733843043099
  0.7988184049373439  0.6875526970715783  0.4075733843043099
  0.9238184049373437  0.6875526970715783  0.4075733843043099
  0.0488184049373438  0.8542193637382449  0.4075733843043099
  0.1738184049373437  0.8542193637382449  0.4075733843043099
  0.2988184049373437  0.8542193637382449  0.4075733843043099
  0.4238184049373437  0.8542193637382449  0.4075733843043099
  0.5488184049373438  0.8542193637382449  0.4075733843043099
  0.6738184049373437  0.8542193637382449  0.4075733843043099
  0.7988184049373438  0.8542193637382449  0.4075733843043099
  0.9238184049373436  0.8542193637382449  0.4075733843043099
  0.0855114662278438  0.0897048258731533  0.3563998703220700
  0.2105114662278438  0.0897048258731533  0.3563998703220700
  0.3355114662278437  0.0897048258731533  0.3563998703220700
  0.4605114662278438  0.0897048258731533  0.3563998703220700
  0.5855114662278438  0.0897048258731533  0.3563998703220700
  0.7105114662278437  0.0897048258731533  0.3563998703220700
  0.8355114662278438  0.0897048258731533  0.3563998703220700
  0.9605114662278438  0.0897048258731533  0.3563998703220700
  0.0855114662278438  0.2563714925398200  0.3563998703220700
  0.2105114662278438  0.2563714925398200  0.3563998703220700
  0.3355114662278438  0.2563714925398200  0.3563998703220700
  0.4605114662278438  0.2563714925398200  0.3563998703220700
  0.5855114662278437  0.2563714925398200  0.3563998703220700
  0.7105114662278437  0.2563714925398200  0.3563998703220700
  0.8355114662278438  0.2563714925398200  0.3563998703220700
  0.9605114662278437  0.2563714925398200  0.3563998703220700
  0.0855114662278438  0.4230381592064866  0.3563998703220700
  0.2105114662278438  0.4230381592064866  0.3563998703220700
  0.3355114662278437  0.4230381592064866  0.3563998703220700
  0.4605114662278438  0.4230381592064866  0.3563998703220700
  0.5855114662278438  0.4230381592064866  0.3563998703220700
  0.7105114662278438  0.4230381592064866  0.3563998703220700
  0.8355114662278439  0.4230381592064866  0.3563998703220700
  0.9605114662278438  0.4230381592064866  0.3563998703220700
  0.0855114662278438  0.5897048258731533  0.3563998703220700
  0.2105114662278437  0.5897048258731533  0.3563998703220700
  0.3355114662278437  0.5897048258731533  0.3563998703220700
  0.4605114662278438  0.5897048258731533  0.3563998703220700
  0.5855114662278437  0.5897048258731533  0.3563998703220700
  0.7105114662278437  0.5897048258731533  0.3563998703220700
  0.8355114662278438  0.5897048258731533  0.3563998703220700
  0.9605114662278436  0.5897048258731533  0.3563998703220700
  0.0855114662278438  0.7563714925398199  0.3563998703220700
  0.2105114662278437  0.7563714925398199  0.3563998703220700
  0.3355114662278437  0.7563714925398199  0.3563998703220700
  0.4605114662278438  0.7563714925398199  0.3563998703220700
  0.5855114662278437  0.7563714925398199  0.3563998703220700
  0.7105114662278437  0.7563714925398199  0.3563998703220700
  0.8355114662278437  0.7563714925398199  0.3563998703220700
  0.9605114662278437  0.7563714925398199  0.3563998703220700
  0.0855114662278438  0.9230381592064867  0.3563998703220700
  0.2105114662278438  0.9230381592064867  0.3563998703220700
  0.3355114662278438  0.9230381592064867  0.3563998703220700
  0.4605114662278438  0.9230381592064867  0.3563998703220700
  0.5855114662278437  0.9230381592064867  0.3563998703220700
  0.7105114662278436  0.9230381592064867  0.3563998703220700
  0.8355114662278438  0.9230381592064867  0.3563998703220700
  0.9605114662278438  0.9230381592064867  0.3563998703220700
  0.0136759659672138  0.1115564153310400  0.6436217783747100
  0.1386759659672137  0.1115564153310400  0.6436217783747100
  0.2636759659672138  0.1115564153310400  0.6436217783747100
  0.3886759659672138  0.1115564153310400  0.6436217783747100
  0.5136759659672138  0.1115564153310400  0.6436217783747100
  0.6386759659672138  0.1115564153310400  0.6436217783747100
  0.7636759659672138  0.1115564153310400  0.6436217783747100
  0.8886759659672138  0.1115564153310400  0.6436217783747100
  0.0136759659672138  0.2782230819977066  0.6436217783747100
  0.1386759659672137  0.2782230819977066  0.6436217783747100
  0.2636759659672137  0.2782230819977066  0.6436217783747100
  0.3886759659672138  0.2782230819977066  0.6436217783747100
  0.5136759659672138  0.2782230819977066  0.6436217783747100
  0.6386759659672138  0.2782230819977066  0.6436217783747100
  0.7636759659672137  0.2782230819977066  0.6436217783747100
  0.8886759659672138  0.2782230819977066  0.6436217783747100
  0.0136759659672138  0.4448897486643733  0.6436217783747100
  0.1386759659672137  0.4448897486643733  0.6436217783747100
  0.2636759659672138  0.4448897486643733  0.6436217783747100
  0.3886759659672138  0.4448897486643733  0.6436217783747100
  0.5136759659672138  0.4448897486643733  0.6436217783747100
  0.6386759659672138  0.4448897486643733  0.6436217783747100
  0.7636759659672137  0.4448897486643733  0.6436217783747100
  0.8886759659672139  0.4448897486643733  0.6436217783747100
  0.0136759659672138  0.6115564153310400  0.6436217783747100
  0.1386759659672138  0.6115564153310400  0.6436217783747100
  0.2636759659672138  0.6115564153310400  0.6436217783747100
  0.3886759659672137  0.6115564153310400  0.6436217783747100
  0.5136759659672138  0.6115564153310400  0.6436217783747100
  0.6386759659672138  0.6115564153310400  0.6436217783747100
  0.7636759659672137  0.6115564153310400  0.6436217783747100
  0.8886759659672139  0.6115564153310400  0.6436217783747100
  0.0136759659672138  0.7782230819977066  0.6436217783747100
  0.1386759659672138  0.7782230819977066  0.6436217783747100
  0.2636759659672138  0.7782230819977066  0.6436217783747100
  0.3886759659672137  0.7782230819977066  0.6436217783747100
  0.5136759659672138  0.7782230819977066  0.6436217783747100
  0.6386759659672138  0.7782230819977066  0.6436217783747100
  0.7636759659672138  0.7782230819977066  0.6436217783747100
  0.8886759659672138  0.7782230819977066  0.6436217783747100
  0.0136759659672138  0.9448897486643733  0.6436217783747100
  0.1386759659672137  0.9448897486643733  0.6436217783747100
  0.2636759659672137  0.9448897486643733  0.6436217783747100
  0.3886759659672137  0.9448897486643733  0.6436217783747100
  0.5136759659672138  0.9448897486643733  0.6436217783747100
  0.6386759659672138  0.9448897486643733  0.6436217783747100
  0.7636759659672137  0.9448897486643733  0.6436217783747100
  0.8886759659672139  0.9448897486643733  0.6436217783747100
  0.0503690272426650  0.0137085441562433  0.5924482644423300
  0.1753690272426650  0.0137085441562433  0.5924482644423300
  0.3003690272426650  0.0137085441562433  0.5924482644423300
  0.4253690272426650  0.0137085441562433  0.5924482644423300
  0.5503690272426650  0.0137085441562433  0.5924482644423300
  0.6753690272426649  0.0137085441562433  0.5924482644423300
  0.8003690272426649  0.0137085441562433  0.5924482644423300
  0.9253690272426649  0.0137085441562433  0.5924482644423300
  0.0503690272426650  0.1803752108229100  0.5924482644423300
  0.1753690272426650  0.1803752108229100  0.5924482644423300
  0.3003690272426650  0.1803752108229100  0.5924482644423300
  0.4253690272426650  0.1803752108229100  0.5924482644423300
  0.5503690272426649  0.1803752108229100  0.5924482644423300
  0.6753690272426650  0.1803752108229100  0.5924482644423300
  0.8003690272426650  0.1803752108229100  0.5924482644423300
  0.9253690272426650  0.1803752108229100  0.5924482644423300
  0.0503690272426650  0.3470418774895765  0.5924482644423300
  0.1753690272426650  0.3470418774895765  0.5924482644423300
  0.3003690272426650  0.3470418774895765  0.5924482644423300
  0.4253690272426650  0.3470418774895765  0.5924482644423300
  0.5503690272426649  0.3470418774895765  0.5924482644423300
  0.6753690272426650  0.3470418774895765  0.5924482644423300
  0.8003690272426650  0.3470418774895765  0.5924482644423300
  0.9253690272426650  0.3470418774895765  0.5924482644423300
  0.0503690272426650  0.5137085441562432  0.5924482644423300
  0.1753690272426650  0.5137085441562432  0.5924482644423300
  0.3003690272426650  0.5137085441562432  0.5924482644423300
  0.4253690272426650  0.5137085441562432  0.5924482644423300
  0.5503690272426649  0.5137085441562432  0.5924482644423300
  0.6753690272426650  0.5137085441562432  0.5924482644423300
  0.8003690272426650  0.5137085441562432  0.5924482644423300
  0.9253690272426649  0.5137085441562432  0.5924482644423300
  0.0503690272426650  0.6803752108229100  0.5924482644423300
  0.1753690272426651  0.6803752108229100  0.5924482644423300
  0.3003690272426650  0.6803752108229100  0.5924482644423300
  0.4253690272426651  0.6803752108229100  0.5924482644423300
  0.5503690272426649  0.6803752108229100  0.5924482644423300
  0.6753690272426649  0.6803752108229100  0.5924482644423300
  0.8003690272426649  0.6803752108229100  0.5924482644423300
  0.9253690272426649  0.6803752108229100  0.5924482644423300
  0.0503690272426650  0.8470418774895766  0.5924482644423300
  0.1753690272426650  0.8470418774895766  0.5924482644423300
  0.3003690272426650  0.8470418774895766  0.5924482644423300
  0.4253690272426651  0.8470418774895766  0.5924482644423300
  0.5503690272426649  0.8470418774895766  0.5924482644423300
  0.6753690272426649  0.8470418774895766  0.5924482644423300
  0.8003690272426648  0.8470418774895766  0.5924482644423300
  0.9253690272426650  0.8470418774895766  0.5924482644423300
  0.0845968535596700  0.0891007427280933  0.5778109184832200
  0.2095968535596700  0.0891007427280933  0.5778109184832200
  0.3345968535596701  0.0891007427280933  0.5778109184832200
  0.4595968535596701  0.0891007427280933  0.5778109184832200
  0.5845968535596699  0.0891007427280933  0.5778109184832200
  0.7095968535596699  0.0891007427280933  0.5778109184832200
  0.8345968535596698  0.0891007427280933  0.5778109184832200
  0.9595968535596698  0.0891007427280933  0.5778109184832200
  0.0845968535596700  0.2557674093947600  0.5778109184832200
  0.2095968535596700  0.2557674093947600  0.5778109184832200
  0.3345968535596699  0.2557674093947600  0.5778109184832200
  0.4595968535596700  0.2557674093947600  0.5778109184832200
  0.5845968535596701  0.2557674093947600  0.5778109184832200
  0.7095968535596701  0.2557674093947600  0.5778109184832200
  0.8345968535596699  0.2557674093947600  0.5778109184832200
  0.9595968535596701  0.2557674093947600  0.5778109184832200
  0.0845968535596700  0.4224340760614266  0.5778109184832200
  0.2095968535596700  0.4224340760614266  0.5778109184832200
  0.3345968535596700  0.4224340760614266  0.5778109184832200
  0.4595968535596700  0.4224340760614266  0.5778109184832200
  0.5845968535596699  0.4224340760614266  0.5778109184832200
  0.7095968535596699  0.4224340760614266  0.5778109184832200
  0.8345968535596698  0.4224340760614266  0.5778109184832200
  0.9595968535596698  0.4224340760614266  0.5778109184832200
  0.0845968535596700  0.5891007427280933  0.5778109184832200
  0.2095968535596700  0.5891007427280933  0.5778109184832200
  0.3345968535596700  0.5891007427280933  0.5778109184832200
  0.4595968535596700  0.5891007427280933  0.5778109184832200
  0.5845968535596699  0.5891007427280933  0.5778109184832200
  0.7095968535596699  0.5891007427280933  0.5778109184832200
  0.8345968535596699  0.5891007427280933  0.5778109184832200
  0.9595968535596697  0.5891007427280933  0.5778109184832200
  0.0845968535596700  0.7557674093947599  0.5778109184832200
  0.2095968535596701  0.7557674093947599  0.5778109184832200
  0.3345968535596701  0.7557674093947599  0.5778109184832200
  0.4595968535596700  0.7557674093947599  0.5778109184832200
  0.5845968535596699  0.7557674093947599  0.5778109184832200
  0.7095968535596699  0.7557674093947599  0.5778109184832200
  0.8345968535596698  0.7557674093947599  0.5778109184832200
  0.9595968535596701  0.7557674093947599  0.5778109184832200
  0.0845968535596700  0.9224340760614266  0.5778109184832200
  0.2095968535596700  0.9224340760614266  0.5778109184832200
  0.3345968535596700  0.9224340760614266  0.5778109184832200
  0.4595968535596700  0.9224340760614266  0.5778109184832200
  0.5845968535596699  0.9224340760614266  0.5778109184832200
  0.7095968535596699  0.9224340760614266  0.5778109184832200
  0.8345968535596699  0.9224340760614266  0.5778109184832200
  0.9595968535596699  0.9224340760614266  0.5778109184832200
