10
Lattice="2.5008413937 -1.4438614518 4.5515946542 0.0000000000 2.8877229037 4.5515946542 -2.5008413937 -1.4438614518 4.5515946542" Properties=species:S:1:pos:R:3 pbc="T T T"
O     1.7433349683 -0.1318218359  7.9652906448
O     0.9858285033  1.4438614518  5.6894933177
O    -0.9858285428 -1.4438614518  7.9652906448
O    -0.7575064254  1.5756832878  7.9652906448
O     0.7575064452 -1.5756832536  5.6894933177
O    -1.7433349485  0.1318218017  5.6894933177
Fe1   0.0000000000  0.0000000000  1.9964007766
Fe1  -0.0000000000  0.0000000000  4.8309912047
Fe2  -0.0000000000  0.0000000000  8.8237927661
Fe2  -0.0000000000  0.0000000000  11.6583831778
