10
Lattice="2.4837293270 -1.4339817955 4.5204502595 0.0000000000 2.8679635910 4.5204502595 -2.4837293270 -1.4339817955 4.5204502595" Properties=species:S:1:pos:R:3 pbc="T T T"
O     1.7313096895 -0.1307527548  7.9107879542
O     0.9788900669  1.4339817955  5.6505628244
O    -0.9788900520 -1.4339817955  7.9107879542
O    -0.7524196375  1.5647345503  7.9107879542
O     0.7524196300 -1.5647345632  5.6505628244
O    -1.7313096969  0.1307527677  5.6505628244
Fe1   0.0000000000  0.0000000000  1.9818491089
Fe1   0.0000000000  0.0000000000  4.7988262804
Fe2   0.0000000000  0.0000000000  8.7625245701
Fe2   0.0000000000  0.0000000000  11.5795015978
