10
Lattice="2.5177570522 -1.4536277118 4.5823815809 0.0000000000 2.9072554236 4.5823815809 -2.5177570522 -1.4536277118 4.5823815809" Properties=species:S:1:pos:R:3 pbc="T T T"
O     1.7552715688 -0.1329641145  8.0191677666
O     0.9927860692  1.4536277118  5.7279769761
O    -0.9927860853 -1.4536277118  8.0191677666
O    -0.7624854834  1.5865918263  8.0191677666
O     0.7624854915 -1.5865918124  5.7279769761
O    -1.7552715607  0.1329641006  5.7279769761
Fe1  -0.0000000000  0.0000000000  2.0108604107
Fe1  -0.0000000000  0.0000000000  4.8627119607
Fe2  -0.0000000000  0.0000000000  8.8844328576
Fe2  -0.0000000000  0.0000000000  11.7362842565
