10
Lattice="2.4663471990 -1.4239462192 4.4888143464 0.0000000000 2.8478924385 4.4888143464 -2.4663471990 -1.4239462192 4.4888143464" Properties=species:S:1:pos:R:3 pbc="T T T"
O     1.7191089645 -0.1296916317  7.8554251063
O     0.9718707122  1.4239462192  5.6110179330
O    -0.9718707300 -1.4239462192  7.8554251063
O    -0.7472382345  1.5536378510  7.8554251063
O     0.7472382434 -1.5536378356  5.6110179330
O    -1.7191089556  0.1296916164  5.6110179330
Fe1   0.0000000000  0.0000000000  1.9670927781
Fe1  -0.0000000000  0.0000000000  4.7661287415
Fe2   0.0000000000  0.0000000000  8.7003142628
Fe2   0.0000000000  0.0000000000  11.4993502962
