10
Lattice="2.4487441117 -1.4137830721 4.4567762819 0.0000000000 2.8275661441 4.4567762819 -2.4487441117 -1.4137830721 4.4567762819" Properties=species:S:1:pos:R:3 pbc="T T T"
O     1.7068224037 -0.1287369786  7.7993584933
O     0.9649007692  1.4137830721  5.5709703524
O    -0.9649006957 -1.4137830721  7.7993584933
O    -0.7419217080  1.5425200506  7.7993584933
O     0.7419216712 -1.5425201143  5.5709703524
O    -1.7068224404  0.1287370422  5.5709703524
Fe1  -0.0000000000  0.0000000000  1.9521367310
Fe1  -0.0000000000  0.0000000000  4.7330276919
Fe2  -0.0000000000  0.0000000000  8.6373010134
Fe2   0.0000000000  0.0000000000  11.4181922551
