ITEM: TIMESTEP
0
ITEM: NUMBER OF ATOMS
1440
ITEM: BOX BOUNDS xy xz yz pp pp pp
0.0000000000000000e+00 6.2156667572720409e+01 2.0719170379415640e+01
0.0000000000000000e+00 6.4985993528355351e+01 0.0000000000000000e+00
0.0000000000000000e+00 3.0000000000000000e+01 0.0000000000000000e+00
ITEM: ATOMS id type fx fy fz
1 1 -1.96859e-06 0.0539046 0.10883
2 1 -0.00975543 -0.00800663 0.00270556
3 1 -2.37688e-05 2.02644e-05 -0.000489234
4 1 -3.23353e-10 2.09135e-08 3.13914e-09
5 1 -3.23422e-10 2.09136e-08 3.13915e-09
6 1 -3.23517e-10 2.09136e-08 3.13913e-09
7 1 -3.23336e-10 2.09136e-08 3.13916e-09
8 1 -3.23435e-10 2.09135e-08 3.13914e-09
9 1 -3.23244e-10 2.09136e-08 3.13912e-09
10 1 -3.23252e-10 2.09135e-08 3.13914e-09
11 1 2.3768e-05 2.02642e-05 -0.000489235
12 1 0.00975541 -0.00800664 0.00270556
13 1 -0.0002387 -0.0003792 -0.000168055
14 1 -1.41469e-06 2.16635e-06 -9.55237e-07
15 1 -3.23466e-10 2.09134e-08 3.13912e-09
16 1 -3.23392e-10 2.09133e-08 3.13912e-09
17 1 -3.2355e-10 2.09133e-08 3.13913e-09
18 1 -3.23438e-10 2.09134e-08 3.13911e-09
19 1 -3.23489e-10 2.09133e-08 3.13914e-09
20 1 -3.2353e-10 2.09134e-08 3.13914e-09
21 1 -3.23496e-10 2.09134e-08 3.1391e-09
22 1 -3.23369e-10 2.09133e-08 3.13913e-09
23 1 1.41361e-06 2.1674e-06 -9.55012e-07
24 1 0.000238697 -0.000379207 -0.000168049
25 1 -3.23511e-10 2.09133e-08 3.13913e-09
26 1 -3.23514e-10 2.09133e-08 3.13914e-09
27 1 -3.23454e-10 2.09133e-08 3.13912e-09
28 1 -3.2351e-10 2.09133e-08 3.13915e-09
29 1 -3.23583e-10 2.09133e-08 3.13914e-09
30 1 -3.23388e-10 2.09133e-08 3.13912e-09
31 1 -3.23424e-10 2.09133e-08 3.13916e-09
32 1 -3.23512e-10 2.09133e-08 3.13914e-09
33 1 -3.23481e-10 2.09134e-08 3.13913e-09
34 1 -3.23312e-10 2.09133e-08 3.13916e-09
35 1 -3.23412e-10 2.09133e-08 3.13912e-09
36 1 -3.23499e-10 2.09133e-08 3.13912e-09
37 1 -3.23476e-10 2.09133e-08 3.13911e-09
38 1 -3.23489e-10 2.09132e-08 3.13913e-09
39 1 -3.23417e-10 2.09133e-08 3.13913e-09
40 1 -3.23369e-10 2.09132e-08 3.13912e-09
41 1 -3.23485e-10 2.09133e-08 3.13912e-09
42 1 -3.23481e-10 2.09133e-08 3.13912e-09
43 1 -3.23447e-10 2.09133e-08 3.13913e-09
44 1 -3.23631e-10 2.09133e-08 3.13916e-09
45 1 -3.23453e-10 2.09133e-08 3.13911e-09
46 1 -3.23295e-10 2.09133e-08 3.13914e-09
47 1 -3.23456e-10 2.09133e-08 3.13913e-09
48 1 -3.23448e-10 2.09132e-08 3.13912e-09
49 1 -3.23468e-10 2.09131e-08 3.13914e-09
50 1 -3.23519e-10 2.09131e-08 3.13911e-09
51 1 -3.23507e-10 2.09132e-08 3.13912e-09
52 1 -3.23524e-10 2.09131e-08 3.13912e-09
53 1 -3.23619e-10 2.09131e-08 3.13914e-09
54 1 -3.23478e-10 2.09132e-08 3.13911e-09
55 1 -3.23551e-10 2.09131e-08 3.13914e-09
56 1 -3.23584e-10 2.09131e-08 3.13912e-09
57 1 -3.2349e-10 2.09132e-08 3.13912e-09
58 1 -3.23466e-10 2.09131e-08 3.13915e-09
59 1 -3.23502e-10 2.09131e-08 3.13911e-09
60 1 -3.23424e-10 2.09131e-08 3.1391e-09
61 1 -3.23375e-10 2.09134e-08 3.13913e-09
62 1 -3.23382e-10 2.09134e-08 3.13914e-09
63 1 -3.23458e-10 2.09134e-08 3.13912e-09
64 1 -3.23351e-10 2.09134e-08 3.13912e-09
65 1 -3.23543e-10 2.09135e-08 3.13914e-09
66 1 -3.23419e-10 2.09134e-08 3.13909e-09
67 1 -3.23423e-10 2.09134e-08 3.13914e-09
68 1 -3.2336e-10 2.09134e-08 3.13914e-09
69 1 -3.23376e-10 2.09135e-08 3.13912e-09
70 1 -3.23347e-10 2.09134e-08 3.13913e-09
71 1 -3.2347e-10 2.09135e-08 3.13912e-09
72 1 -3.23373e-10 2.09133e-08 3.13914e-09
73 1 -3.23452e-10 2.09142e-08 3.13918e-09
74 1 -3.23514e-10 2.09142e-08 3.13919e-09
75 1 -3.2349e-10 2.09142e-08 3.1392e-09
76 1 -3.23505e-10 2.09142e-08 3.13919e-09
77 1 -3.23503e-10 2.09142e-08 3.13918e-09
78 1 -3.23422e-10 2.09142e-08 3.13916e-09
79 1 -3.23428e-10 2.09142e-08 3.1392e-09
80 1 -3.23521e-10 2.09142e-08 3.13919e-09
81 1 -3.2336e-10 2.09142e-08 3.13915e-09
82 1 -3.23215e-10 2.09142e-08 3.13918e-09
83 1 -3.23284e-10 2.09142e-08 3.13919e-09
84 1 -3.23514e-10 2.09142e-08 3.13918e-09
85 1 -3.23427e-10 2.09141e-08 3.1392e-09
86 1 -3.23376e-10 2.09141e-08 3.13916e-09
87 1 -3.23273e-10 2.09141e-08 3.13919e-09
88 1 -3.2338e-10 2.09141e-08 3.13916e-09
89 1 -3.23526e-10 2.09141e-08 3.1392e-09
90 1 -3.23217e-10 2.09141e-08 3.13916e-09
91 1 -3.23449e-10 2.09141e-08 3.1392e-09
92 1 -3.23276e-10 2.09141e-08 3.13918e-09
93 1 -3.23482e-10 2.09141e-08 3.13915e-09
94 1 -3.2313e-10 2.09141e-08 3.13921e-09
95 1 -3.23221e-10 2.09141e-08 3.13919e-09
96 1 -3.23056e-10 2.0914e-08 3.13916e-09
97 1 -3.23417e-10 2.0914e-08 3.1392e-09
98 1 -3.23414e-10 2.0914e-08 3.13917e-09
99 1 -3.23439e-10 2.0914e-08 3.13918e-09
100 1 -3.23315e-10 2.0914e-08 3.13916e-09
101 1 -3.23458e-10 2.0914e-08 3.13918e-09
102 1 -3.23397e-10 2.0914e-08 3.13915e-09
103 1 -3.23271e-10 2.0914e-08 3.13917e-09
104 1 -3.23203e-10 2.0914e-08 3.13919e-09
105 1 -3.23311e-10 2.0914e-08 3.13916e-09
106 1 -3.22978e-10 2.0914e-08 3.13918e-09
107 1 -3.23139e-10 2.0914e-08 3.13918e-09
108 1 -3.23025e-10 2.09139e-08 3.13915e-09
109 1 -3.23349e-10 2.09141e-08 3.13919e-09
110 1 -3.23424e-10 2.09141e-08 3.13917e-09
111 1 -3.23495e-10 2.09141e-08 3.13916e-09
112 1 -3.23456e-10 2.09141e-08 3.13918e-09
113 1 -3.23655e-10 2.0914e-08 3.13919e-09
114 1 -3.23485e-10 2.09141e-08 3.13913e-09
115 1 -3.23204e-10 2.09141e-08 3.13918e-09
116 1 -3.23319e-10 2.09141e-08 3.13919e-09
117 1 -3.23513e-10 2.09141e-08 3.13917e-09
118 1 -3.23284e-10 2.0914e-08 3.13919e-09
119 1 -3.22957e-10 2.09141e-08 3.13918e-09
120 1 -3.22971e-10 2.09139e-08 3.13918e-09
121 1 -3.23577e-10 2.09137e-08 3.13916e-09
122 1 -3.23522e-10 2.09137e-08 3.13915e-09
123 1 -3.2338e-10 2.09138e-08 3.13916e-09
124 1 -3.23386e-10 2.09137e-08 3.13913e-09
125 1 -3.23641e-10 2.09137e-08 3.13918e-09
126 1 -3.23485e-10 2.09138e-08 3.13911e-09
127 1 -3.2347e-10 2.09137e-08 3.13917e-09
128 1 -3.23542e-10 2.09138e-08 3.13917e-09
129 1 -3.23596e-10 2.09137e-08 3.13912e-09
130 1 -3.23463e-10 2.09138e-08 3.13916e-09
131 1 -3.23294e-10 2.09137e-08 3.13914e-09
132 1 -3.23316e-10 2.09136e-08 3.13913e-09
133 1 9.05961e-05 0.000648248 -0.000166736
134 1 -9.05828e-05 0.000648234 -0.00016673
135 1 2.61145e-06 8.88935e-07 -9.57501e-07
136 1 -3.23487e-10 2.0914e-08 3.13916e-09
137 1 -3.23477e-10 2.09141e-08 3.13919e-09
138 1 -3.2355e-10 2.0914e-08 3.13914e-09
139 1 -3.23574e-10 2.09141e-08 3.13921e-09
140 1 -3.23687e-10 2.09141e-08 3.13917e-09
141 1 -3.23272e-10 2.0914e-08 3.13911e-09
142 1 -3.23376e-10 2.0914e-08 3.13919e-09
143 1 -3.23256e-10 2.09141e-08 3.13917e-09
144 1 -2.61041e-06 8.90118e-07 -9.57721e-07
145 1 -0.0316745 -0.00649322 0.0150668
146 1 0.0316743 -0.00649296 0.0150668
147 1 0.000328348 -0.000308641 7.60168e-05
148 1 1.20871e-10 -4.40013e-08 -4.4857e-08
149 1 1.20795e-10 -4.40012e-08 -4.4857e-08
150 1 1.20827e-10 -4.40012e-08 -4.4857e-08
151 1 1.2074e-10 -4.40013e-08 -4.4857e-08
152 1 1.20917e-10 -4.40012e-08 -4.4857e-08
153 1 1.20867e-10 -4.40013e-08 -4.4857e-08
154 1 1.20767e-10 -4.40012e-08 -4.4857e-08
155 1 1.20832e-10 -4.40013e-08 -4.4857e-08
156 1 -0.000328271 -0.000308606 7.59865e-05
157 1 1.70404e-09 0.00547591 -0.0010726
158 1 -0.000201513 -2.91219e-05 9.81343e-05
159 1 -2.51408e-05 -1.14453e-05 7.83641e-06
160 1 1.20935e-10 -4.40011e-08 -4.4857e-08
161 1 1.20842e-10 -4.40011e-08 -4.4857e-08
162 1 1.20832e-10 -4.40011e-08 -4.4857e-08
163 1 1.20819e-10 -4.40011e-08 -4.4857e-08
164 1 1.20787e-10 -4.40011e-08 -4.4857e-08
165 1 1.20869e-10 -4.40011e-08 -4.4857e-08
166 1 1.20927e-10 -4.40011e-08 -4.48571e-08
167 1 2.51612e-05 -1.14544e-05 7.84278e-06
168 1 0.000202565 -3.01326e-05 9.84229e-05
169 1 3.03236e-08 -2.3706e-07 -1.00842e-07
170 1 1.20807e-10 -4.40013e-08 -4.48569e-08
171 1 1.20828e-10 -4.40013e-08 -4.4857e-08
172 1 1.20748e-10 -4.40013e-08 -4.4857e-08
173 1 1.20814e-10 -4.40013e-08 -4.48569e-08
174 1 1.20792e-10 -4.40013e-08 -4.4857e-08
175 1 1.20707e-10 -4.40013e-08 -4.4857e-08
176 1 1.20875e-10 -4.40013e-08 -4.48569e-08
177 1 1.20835e-10 -4.40013e-08 -4.4857e-08
178 1 1.20811e-10 -4.40013e-08 -4.4857e-08
179 1 1.20962e-10 -4.40013e-08 -4.48569e-08
180 1 -3.00881e-08 -2.37086e-07 -1.00848e-07
181 1 1.20755e-10 -4.40009e-08 -4.48571e-08
182 1 1.20855e-10 -4.40009e-08 -4.48571e-08
183 1 1.20845e-10 -4.40009e-08 -4.48571e-08
184 1 1.20974e-10 -4.40009e-08 -4.48571e-08
185 1 1.20902e-10 -4.40008e-08 -4.48571e-08
186 1 1.20945e-10 -4.40009e-08 -4.48571e-08
187 1 1.2083e-10 -4.40009e-08 -4.48571e-08
188 1 1.20943e-10 -4.40009e-08 -4.48571e-08
189 1 1.20996e-10 -4.40009e-08 -4.48571e-08
190 1 1.20855e-10 -4.40009e-08 -4.48571e-08
191 1 1.20906e-10 -4.40009e-08 -4.48571e-08
192 1 1.21028e-10 -4.40009e-08 -4.48571e-08
193 1 1.20828e-10 -4.4001e-08 -4.4857e-08
194 1 1.20854e-10 -4.40009e-08 -4.48571e-08
195 1 1.20835e-10 -4.40009e-08 -4.48571e-08
196 1 1.20876e-10 -4.4001e-08 -4.48571e-08
197 1 1.20831e-10 -4.40009e-08 -4.48571e-08
198 1 1.20878e-10 -4.4001e-08 -4.48571e-08
199 1 1.20817e-10 -4.40009e-08 -4.48571e-08
200 1 1.20949e-10 -4.40009e-08 -4.48571e-08
201 1 1.20794e-10 -4.4001e-08 -4.48571e-08
202 1 1.20787e-10 -4.40009e-08 -4.48571e-08
203 1 1.20928e-10 -4.40009e-08 -4.48571e-08
204 1 1.2091e-10 -4.40009e-08 -4.48571e-08
205 1 1.20892e-10 -4.4001e-08 -4.4857e-08
206 1 1.2085e-10 -4.4001e-08 -4.48571e-08
207 1 1.20862e-10 -4.4001e-08 -4.48571e-08
208 1 1.20908e-10 -4.4001e-08 -4.48571e-08
209 1 1.20806e-10 -4.4001e-08 -4.4857e-08
210 1 1.20938e-10 -4.4001e-08 -4.48571e-08
211 1 1.20793e-10 -4.4001e-08 -4.48571e-08
212 1 1.21013e-10 -4.4001e-08 -4.4857e-08
213 1 1.20804e-10 -4.4001e-08 -4.4857e-08
214 1 1.20941e-10 -4.4001e-08 -4.48571e-08
215 1 1.20885e-10 -4.4001e-08 -4.4857e-08
216 1 1.20906e-10 -4.4001e-08 -4.48571e-08
217 1 1.20657e-10 -4.40012e-08 -4.48571e-08
218 1 1.20742e-10 -4.40012e-08 -4.48571e-08
219 1 1.20799e-10 -4.40012e-08 -4.48571e-08
220 1 1.20874e-10 -4.40012e-08 -4.48571e-08
221 1 1.20833e-10 -4.40012e-08 -4.48571e-08
222 1 1.20842e-10 -4.40012e-08 -4.48571e-08
223 1 1.20774e-10 -4.40012e-08 -4.48571e-08
224 1 1.20919e-10 -4.40012e-08 -4.48571e-08
225 1 1.20961e-10 -4.40012e-08 -4.48571e-08
226 1 1.2083e-10 -4.40012e-08 -4.48571e-08
227 1 1.20769e-10 -4.40012e-08 -4.48571e-08
228 1 1.20792e-10 -4.40012e-08 -4.48571e-08
229 1 1.2061e-10 -4.40013e-08 -4.4857e-08
230 1 1.20761e-10 -4.40013e-08 -4.4857e-08
231 1 1.20694e-10 -4.40013e-08 -4.48571e-08
232 1 1.20797e-10 -4.40013e-08 -4.4857e-08
233 1 1.20665e-10 -4.40013e-08 -4.4857e-08
234 1 1.20738e-10 -4.40013e-08 -4.48571e-08
235 1 1.20733e-10 -4.40013e-08 -4.4857e-08
236 1 1.20888e-10 -4.40013e-08 -4.4857e-08
237 1 1.20867e-10 -4.40013e-08 -4.4857e-08
238 1 1.20731e-10 -4.40013e-08 -4.48571e-08
239 1 1.20727e-10 -4.40013e-08 -4.4857e-08
240 1 1.20803e-10 -4.40013e-08 -4.48571e-08
241 1 1.20617e-10 -4.4001e-08 -4.48571e-08
242 1 1.20844e-10 -4.40011e-08 -4.48571e-08
243 1 1.20793e-10 -4.40011e-08 -4.48571e-08
244 1 1.20838e-10 -4.40012e-08 -4.48571e-08
245 1 1.20791e-10 -4.40011e-08 -4.48571e-08
246 1 1.20835e-10 -4.40012e-08 -4.48571e-08
247 1 1.20852e-10 -4.40011e-08 -4.48571e-08
248 1 1.20887e-10 -4.40011e-08 -4.48571e-08
249 1 1.20874e-10 -4.40011e-08 -4.48571e-08
250 1 1.20738e-10 -4.40012e-08 -4.48571e-08
251 1 1.20866e-10 -4.40011e-08 -4.48571e-08
252 1 1.20887e-10 -4.40011e-08 -4.48571e-08
253 1 1.20824e-10 -4.40009e-08 -4.48571e-08
254 1 1.20925e-10 -4.40009e-08 -4.48572e-08
255 1 1.20889e-10 -4.40009e-08 -4.48572e-08
256 1 1.20851e-10 -4.40009e-08 -4.48572e-08
257 1 1.20956e-10 -4.40009e-08 -4.48571e-08
258 1 1.20951e-10 -4.40009e-08 -4.48572e-08
259 1 1.20691e-10 -4.40009e-08 -4.48572e-08
260 1 1.20835e-10 -4.40009e-08 -4.48572e-08
261 1 1.20964e-10 -4.40009e-08 -4.48571e-08
262 1 1.20955e-10 -4.40009e-08 -4.48572e-08
263 1 1.20839e-10 -4.4001e-08 -4.48572e-08
264 1 1.20879e-10 -4.40009e-08 -4.48572e-08
265 1 1.20969e-10 -4.40007e-08 -4.48572e-08
266 1 1.20998e-10 -4.40007e-08 -4.48572e-08
267 1 1.20934e-10 -4.40007e-08 -4.48572e-08
268 1 1.21107e-10 -4.40007e-08 -4.48572e-08
269 1 1.20943e-10 -4.40007e-08 -4.48572e-08
270 1 1.20956e-10 -4.40007e-08 -4.48573e-08
271 1 1.20864e-10 -4.40007e-08 -4.48572e-08
272 1 1.21022e-10 -4.40007e-08 -4.48572e-08
273 1 1.21231e-10 -4.40007e-08 -4.48572e-08
274 1 1.21088e-10 -4.40007e-08 -4.48573e-08
275 1 1.21203e-10 -4.40007e-08 -4.48572e-08
276 1 1.21127e-10 -4.40007e-08 -4.48573e-08
277 1 -3.065e-07 -7.3358e-07 -2.17957e-07
278 1 1.1664e-10 -1.42322e-06 -3.91073e-07
279 1 3.06763e-07 -7.33643e-07 -2.17973e-07
280 1 1.21023e-10 -4.40009e-08 -4.48571e-08
281 1 1.20827e-10 -4.40009e-08 -4.48571e-08
282 1 1.21051e-10 -4.40009e-08 -4.48571e-08
283 1 1.20793e-10 -4.40009e-08 -4.48571e-08
284 1 1.21077e-10 -4.40009e-08 -4.48571e-08
285 1 1.21054e-10 -4.4001e-08 -4.48572e-08
286 1 1.20764e-10 -4.40009e-08 -4.48572e-08
287 1 1.20934e-10 -4.40009e-08 -4.48571e-08
288 1 1.21048e-10 -4.40009e-08 -4.48571e-08
289 1 1.56009e-10 4.49694e-08 4.5562e-08
290 1 1.56057e-10 4.49694e-08 4.5562e-08
291 1 1.55972e-10 4.49694e-08 4.5562e-08
292 1 1.56012e-10 4.49694e-08 4.55619e-08
293 1 1.56066e-10 4.49694e-08 4.55619e-08
294 1 1.56011e-10 4.49694e-08 4.55619e-08
295 1 1.5595e-10 4.49694e-08 4.5562e-08
296 1 1.56122e-10 4.49694e-08 4.55619e-08
297 1 1.55981e-10 4.49694e-08 4.55619e-08
298 1 1.56029e-10 4.49694e-08 4.5562e-08
299 1 1.55987e-10 4.49694e-08 4.5562e-08
300 1 1.56134e-10 4.49694e-08 4.55619e-08
301 1 1.55973e-10 4.49692e-08 4.5562e-08
302 1 1.56004e-10 4.49692e-08 4.5562e-08
303 1 1.55984e-10 4.49692e-08 4.5562e-08
304 1 1.55979e-10 4.49692e-08 4.5562e-08
305 1 1.55997e-10 4.49692e-08 4.5562e-08
306 1 1.56051e-10 4.49693e-08 4.5562e-08
307 1 1.56006e-10 4.49692e-08 4.5562e-08
308 1 1.56005e-10 4.49692e-08 4.5562e-08
309 1 1.56001e-10 4.49692e-08 4.5562e-08
310 1 1.56137e-10 4.49692e-08 4.5562e-08
311 1 1.56064e-10 4.49692e-08 4.5562e-08
312 1 1.56191e-10 4.49692e-08 4.5562e-08
313 1 1.55955e-10 4.49693e-08 4.55619e-08
314 1 1.56071e-10 4.49694e-08 4.5562e-08
315 1 1.56014e-10 4.49694e-08 4.55619e-08
316 1 1.55987e-10 4.49693e-08 4.55619e-08
317 1 1.5601e-10 4.49694e-08 4.55619e-08
318 1 1.56069e-10 4.49694e-08 4.5562e-08
319 1 1.56035e-10 4.49693e-08 4.5562e-08
320 1 1.56086e-10 4.49694e-08 4.55619e-08
321 1 1.56054e-10 4.49694e-08 4.55619e-08
322 1 1.5606e-10 4.49694e-08 4.5562e-08
323 1 1.55906e-10 4.49694e-08 4.55619e-08
324 1 1.56234e-10 4.49693e-08 4.55619e-08
325 1 1.56019e-10 4.49696e-08 4.55619e-08
326 1 1.56075e-10 4.49697e-08 4.55619e-08
327 1 1.56061e-10 4.49697e-08 4.55619e-08
328 1 1.56079e-10 4.49697e-08 4.55619e-08
329 1 1.56035e-10 4.49696e-08 4.55619e-08
330 1 1.56056e-10 4.49696e-08 4.55619e-08
331 1 1.55997e-10 4.49696e-08 4.55619e-08
332 1 1.56196e-10 4.49696e-08 4.55618e-08
333 1 1.56174e-10 4.49697e-08 4.55619e-08
334 1 1.56014e-10 4.49697e-08 4.55619e-08
335 1 1.56101e-10 4.49696e-08 4.55619e-08
336 1 1.56329e-10 4.49696e-08 4.55619e-08
337 1 1.56027e-10 4.49697e-08 4.55619e-08
338 1 1.56122e-10 4.49697e-08 4.55618e-08
339 1 1.55939e-10 4.49697e-08 4.55618e-08
340 1 1.56072e-10 4.49697e-08 4.55618e-08
341 1 1.56079e-10 4.49697e-08 4.55619e-08
342 1 1.5605e-10 4.49697e-08 4.55619e-08
343 1 1.56052e-10 4.49697e-08 4.55619e-08
344 1 1.56099e-10 4.49696e-08 4.55618e-08
345 1 1.56072e-10 4.49697e-08 4.55618e-08
346 1 1.56107e-10 4.49697e-08 4.55618e-08
347 1 1.56006e-10 4.49697e-08 4.55619e-08
348 1 1.56121e-10 4.49696e-08 4.55618e-08
349 1 1.56052e-10 4.49695e-08 4.5562e-08
350 1 1.56082e-10 4.49695e-08 4.5562e-08
351 1 1.5602e-10 4.49695e-08 4.5562e-08
352 1 1.56079e-10 4.49695e-08 4.5562e-08
353 1 1.5607e-10 4.49695e-08 4.5562e-08
354 1 1.56045e-10 4.49695e-08 4.55619e-08
355 1 1.56069e-10 4.49695e-08 4.5562e-08
356 1 1.56122e-10 4.49695e-08 4.5562e-08
357 1 1.56e-10 4.49695e-08 4.5562e-08
358 1 1.5614e-10 4.49695e-08 4.55619e-08
359 1 1.56028e-10 4.49695e-08 4.5562e-08
360 1 1.56147e-10 4.49694e-08 4.5562e-08
361 1 1.55983e-10 4.49691e-08 4.55622e-08
362 1 1.56011e-10 4.49691e-08 4.55622e-08
363 1 1.5599e-10 4.49691e-08 4.55621e-08
364 1 1.56011e-10 4.49691e-08 4.55622e-08
365 1 1.56014e-10 4.49691e-08 4.55622e-08
366 1 1.55937e-10 4.49691e-08 4.55621e-08
367 1 1.55977e-10 4.49691e-08 4.55622e-08
368 1 1.55997e-10 4.49691e-08 4.55622e-08
369 1 1.55993e-10 4.49691e-08 4.55622e-08
370 1 1.55979e-10 4.49691e-08 4.55621e-08
371 1 1.55882e-10 4.49691e-08 4.55622e-08
372 1 1.56065e-10 4.49691e-08 4.55621e-08
373 1 1.55842e-10 4.4969e-08 4.55622e-08
374 1 1.56067e-10 4.4969e-08 4.55622e-08
375 1 1.55994e-10 4.4969e-08 4.55622e-08
376 1 1.55973e-10 4.4969e-08 4.55622e-08
377 1 1.55946e-10 4.4969e-08 4.55622e-08
378 1 1.55985e-10 4.4969e-08 4.55622e-08
379 1 1.55972e-10 4.4969e-08 4.55622e-08
380 1 1.56036e-10 4.4969e-08 4.55622e-08
381 1 1.55991e-10 4.4969e-08 4.55622e-08
382 1 1.55975e-10 4.4969e-08 4.55622e-08
383 1 1.55896e-10 4.4969e-08 4.55622e-08
384 1 1.56165e-10 4.49689e-08 4.55622e-08
385 1 1.56085e-10 4.49691e-08 4.55622e-08
386 1 1.56005e-10 4.49691e-08 4.55622e-08
387 1 1.56184e-10 4.49691e-08 4.55622e-08
388 1 1.56108e-10 4.49691e-08 4.55622e-08
389 1 1.55979e-10 4.49691e-08 4.55622e-08
390 1 1.5601e-10 4.49691e-08 4.55622e-08
391 1 1.56044e-10 4.49691e-08 4.55622e-08
392 1 1.56094e-10 4.49691e-08 4.55622e-08
393 1 1.55953e-10 4.49691e-08 4.55622e-08
394 1 1.56084e-10 4.49691e-08 4.55622e-08
395 1 1.56151e-10 4.49691e-08 4.55622e-08
396 1 1.56226e-10 4.4969e-08 4.55622e-08
397 1 1.55883e-10 4.49691e-08 4.55622e-08
398 1 1.56108e-10 4.49691e-08 4.55622e-08
399 1 1.55909e-10 4.49691e-08 4.55622e-08
400 1 1.55995e-10 4.49691e-08 4.55622e-08
401 1 1.55896e-10 4.49691e-08 4.55622e-08
402 1 1.55845e-10 4.49691e-08 4.55622e-08
403 1 1.55879e-10 4.4969e-08 4.55622e-08
404 1 1.55917e-10 4.49691e-08 4.55622e-08
405 1 1.56078e-10 4.4969e-08 4.55622e-08
406 1 1.55936e-10 4.49691e-08 4.55622e-08
407 1 1.55801e-10 4.49691e-08 4.55622e-08
408 1 1.56206e-10 4.49689e-08 4.55622e-08
409 1 1.5589e-10 4.4969e-08 4.55623e-08
410 1 1.55908e-10 4.4969e-08 4.55622e-08
411 1 1.5585e-10 4.4969e-08 4.55622e-08
412 1 1.55875e-10 4.49689e-08 4.55622e-08
413 1 1.56021e-10 4.4969e-08 4.55622e-08
414 1 1.55904e-10 4.4969e-08 4.55622e-08
415 1 1.55824e-10 4.4969e-08 4.55622e-08
416 1 1.55994e-10 4.4969e-08 4.55622e-08
417 1 1.55902e-10 4.49689e-08 4.55622e-08
418 1 1.55904e-10 4.4969e-08 4.55622e-08
419 1 1.55968e-10 4.49689e-08 4.55622e-08
420 1 1.56164e-10 4.49688e-08 4.55623e-08
421 1 1.55986e-10 4.49694e-08 4.55619e-08
422 1 1.56143e-10 4.49694e-08 4.5562e-08
423 1 1.55971e-10 4.49694e-08 4.55619e-08
424 1 1.5603e-10 4.49694e-08 4.55619e-08
425 1 1.56019e-10 4.49694e-08 4.55619e-08
426 1 1.55977e-10 4.49694e-08 4.55619e-08
427 1 1.56034e-10 4.49694e-08 4.5562e-08
428 1 1.56004e-10 4.49694e-08 4.55619e-08
429 1 1.56146e-10 4.49694e-08 4.5562e-08
430 1 1.55913e-10 4.49695e-08 4.55619e-08
431 1 1.55761e-10 4.49694e-08 4.55619e-08
432 1 1.55995e-10 4.49694e-08 4.5562e-08
433 1 -3.41227e-10 -2.13462e-08 -2.95366e-09
434 1 -3.41101e-10 -2.13463e-08 -2.95365e-09
435 1 -3.41076e-10 -2.13463e-08 -2.95365e-09
436 1 -3.40931e-10 -2.13463e-08 -2.95367e-09
437 1 -3.40988e-10 -2.13463e-08 -2.95367e-09
438 1 -3.41117e-10 -2.13463e-08 -2.95365e-09
439 1 -3.41233e-10 -2.13463e-08 -2.95364e-09
440 1 -3.41136e-10 -2.13463e-08 -2.95368e-09
441 1 -3.412e-10 -2.13463e-08 -2.95365e-09
442 1 -3.41191e-10 -2.13463e-08 -2.95367e-09
443 1 -3.41125e-10 -2.13463e-08 -2.95365e-09
444 1 -3.41111e-10 -2.13463e-08 -2.95366e-09
445 1 -3.41269e-10 -2.13462e-08 -2.95365e-09
446 1 -3.4107e-10 -2.13463e-08 -2.95365e-09
447 1 -3.41016e-10 -2.13463e-08 -2.95365e-09
448 1 -3.4093e-10 -2.13463e-08 -2.95365e-09
449 1 -3.40992e-10 -2.13463e-08 -2.95366e-09
450 1 -3.41143e-10 -2.13463e-08 -2.95366e-09
451 1 -3.41031e-10 -2.13463e-08 -2.95363e-09
452 1 -3.41087e-10 -2.13463e-08 -2.95367e-09
453 1 -3.41127e-10 -2.13463e-08 -2.95366e-09
454 1 -3.41072e-10 -2.13463e-08 -2.95368e-09
455 1 -3.41164e-10 -2.13463e-08 -2.95364e-09
456 1 -3.41012e-10 -2.13463e-08 -2.95367e-09
457 1 -3.41248e-10 -2.13461e-08 -2.95361e-09
458 1 -3.41091e-10 -2.13462e-08 -2.95366e-09
459 1 -3.4099e-10 -2.13462e-08 -2.95364e-09
460 1 -3.40969e-10 -2.13462e-08 -2.95365e-09
461 1 -3.41002e-10 -2.13462e-08 -2.95365e-09
462 1 -3.41058e-10 -2.13462e-08 -2.95365e-09
463 1 -3.41036e-10 -2.13462e-08 -2.95362e-09
464 1 -3.41037e-10 -2.13462e-08 -2.95365e-09
465 1 -3.41059e-10 -2.13462e-08 -2.95365e-09
466 1 -3.41183e-10 -2.13462e-08 -2.95366e-09
467 1 -3.41034e-10 -2.13462e-08 -2.95362e-09
468 1 -3.41036e-10 -2.13462e-08 -2.95367e-09
469 1 -3.41172e-10 -2.13463e-08 -2.95363e-09
470 1 -3.41095e-10 -2.13464e-08 -2.95367e-09
471 1 -3.41057e-10 -2.13464e-08 -2.95368e-09
472 1 -3.4106e-10 -2.13464e-08 -2.95368e-09
473 1 -3.41041e-10 -2.13464e-08 -2.95367e-09
474 1 -3.41122e-10 -2.13464e-08 -2.95366e-09
475 1 -3.41148e-10 -2.13463e-08 -2.95366e-09
476 1 -3.41115e-10 -2.13464e-08 -2.9537e-09
477 1 -3.41245e-10 -2.13464e-08 -2.95368e-09
478 1 -3.41194e-10 -2.13463e-08 -2.95369e-09
479 1 -3.41162e-10 -2.13464e-08 -2.95369e-09
480 1 -3.41143e-10 -2.13464e-08 -2.95368e-09
481 1 -3.4118e-10 -2.13463e-08 -2.95364e-09
482 1 -3.41121e-10 -2.13464e-08 -2.95367e-09
483 1 -3.41046e-10 -2.13464e-08 -2.95365e-09
484 1 -3.41158e-10 -2.13464e-08 -2.95368e-09
485 1 -3.41162e-10 -2.13464e-08 -2.95367e-09
486 1 -3.41175e-10 -2.13464e-08 -2.95366e-09
487 1 -3.41102e-10 -2.13464e-08 -2.95365e-09
488 1 -3.41037e-10 -2.13463e-08 -2.95368e-09
489 1 -3.41153e-10 -2.13464e-08 -2.95367e-09
490 1 -3.41216e-10 -2.13464e-08 -2.95368e-09
491 1 -3.41083e-10 -2.13463e-08 -2.95366e-09
492 1 -3.40876e-10 -2.13464e-08 -2.95366e-09
493 1 -3.41129e-10 -2.13461e-08 -2.95364e-09
494 1 -3.41063e-10 -2.13462e-08 -2.95366e-09
495 1 -3.41035e-10 -2.13461e-08 -2.95363e-09
496 1 -3.40975e-10 -2.13462e-08 -2.95366e-09
497 1 -3.41017e-10 -2.13461e-08 -2.95364e-09
498 1 -3.41035e-10 -2.13461e-08 -2.95365e-09
499 1 -3.41128e-10 -2.13461e-08 -2.95366e-09
500 1 -3.41007e-10 -2.13461e-08 -2.95364e-09
501 1 -3.41139e-10 -2.13461e-08 -2.95364e-09
502 1 -3.41059e-10 -2.13462e-08 -2.95367e-09
503 1 -3.41242e-10 -2.13461e-08 -2.95363e-09
504 1 -3.41034e-10 -2.13461e-08 -2.95364e-09
505 1 -3.41018e-10 -2.13467e-08 -2.95367e-09
506 1 -3.41047e-10 -2.13468e-08 -2.95368e-09
507 1 -3.40988e-10 -2.13467e-08 -2.95369e-09
508 1 -3.41084e-10 -2.13467e-08 -2.95369e-09
509 1 -3.41077e-10 -2.13468e-08 -2.95369e-09
510 1 -3.41009e-10 -2.13467e-08 -2.95369e-09
511 1 -3.41185e-10 -2.13467e-08 -2.9537e-09
512 1 -3.41126e-10 -2.13467e-08 -2.95368e-09
513 1 -3.41019e-10 -2.13468e-08 -2.95369e-09
514 1 -3.41247e-10 -2.13467e-08 -2.95369e-09
515 1 -3.41249e-10 -2.13467e-08 -2.95369e-09
516 1 -3.41037e-10 -2.13468e-08 -2.95369e-09
517 1 -3.41198e-10 -2.13465e-08 -2.95371e-09
518 1 -3.41018e-10 -2.13467e-08 -2.95373e-09
519 1 -3.41101e-10 -2.13466e-08 -2.9537e-09
520 1 -3.40987e-10 -2.13467e-08 -2.95371e-09
521 1 -3.41114e-10 -2.13467e-08 -2.95372e-09
522 1 -3.41136e-10 -2.13466e-08 -2.95373e-09
523 1 -3.41145e-10 -2.13467e-08 -2.95369e-09
524 1 -3.41173e-10 -2.13466e-08 -2.95372e-09
525 1 -3.41168e-10 -2.13467e-08 -2.95371e-09
526 1 -3.41141e-10 -2.13466e-08 -2.95372e-09
527 1 -3.41092e-10 -2.13466e-08 -2.95369e-09
528 1 -3.41047e-10 -2.13466e-08 -2.95372e-09
529 1 -3.41295e-10 -2.13467e-08 -2.95375e-09
530 1 -3.41189e-10 -2.13468e-08 -2.95372e-09
531 1 -3.41146e-10 -2.13468e-08 -2.95375e-09
532 1 -3.41143e-10 -2.13468e-08 -2.95373e-09
533 1 -3.41209e-10 -2.13468e-08 -2.95373e-09
534 1 -3.4111e-10 -2.13468e-08 -2.95372e-09
535 1 -3.41112e-10 -2.13468e-08 -2.95373e-09
536 1 -3.41088e-10 -2.13468e-08 -2.95377e-09
537 1 -3.41084e-10 -2.13468e-08 -2.95371e-09
538 1 -3.41229e-10 -2.13468e-08 -2.95377e-09
539 1 -3.41311e-10 -2.13468e-08 -2.95373e-09
540 1 -3.41147e-10 -2.13468e-08 -2.95371e-09
541 1 -3.41182e-10 -2.13468e-08 -2.95369e-09
542 1 -3.41093e-10 -2.13468e-08 -2.95375e-09
543 1 -3.41107e-10 -2.13468e-08 -2.95372e-09
544 1 -3.40986e-10 -2.13468e-08 -2.95375e-09
545 1 -3.41111e-10 -2.13468e-08 -2.95373e-09
546 1 -3.41156e-10 -2.13468e-08 -2.95374e-09
547 1 -3.41158e-10 -2.13468e-08 -2.95374e-09
548 1 -3.4111e-10 -2.13468e-08 -2.95373e-09
549 1 -3.41062e-10 -2.13468e-08 -2.95375e-09
550 1 -3.41165e-10 -2.13468e-08 -2.95373e-09
551 1 -3.41148e-10 -2.13468e-08 -2.95372e-09
552 1 -3.41021e-10 -2.13468e-08 -2.95374e-09
553 1 -3.41275e-10 -2.13466e-08 -2.95369e-09
554 1 -3.41113e-10 -2.13467e-08 -2.95372e-09
555 1 -3.41048e-10 -2.13467e-08 -2.95373e-09
556 1 -3.41161e-10 -2.13467e-08 -2.95374e-09
557 1 -3.41239e-10 -2.13467e-08 -2.95373e-09
558 1 -3.41144e-10 -2.13467e-08 -2.95371e-09
559 1 -3.41103e-10 -2.13466e-08 -2.95373e-09
560 1 -3.41038e-10 -2.13467e-08 -2.95375e-09
561 1 -3.41087e-10 -2.13467e-08 -2.95374e-09
562 1 -3.41362e-10 -2.13467e-08 -2.95374e-09
563 1 -3.41175e-10 -2.13467e-08 -2.95372e-09
564 1 -3.41104e-10 -2.13467e-08 -2.95373e-09
565 1 -3.41043e-10 -2.13468e-08 -2.95367e-09
566 1 -3.41127e-10 -2.13468e-08 -2.95374e-09
567 1 -3.41063e-10 -2.13468e-08 -2.95371e-09
568 1 -3.40939e-10 -2.13467e-08 -2.95375e-09
569 1 -3.41094e-10 -2.13468e-08 -2.95372e-09
570 1 -3.41093e-10 -2.13468e-08 -2.95374e-09
571 1 -3.41033e-10 -2.13468e-08 -2.95371e-09
572 1 -3.41078e-10 -2.13468e-08 -2.95372e-09
573 1 -3.41225e-10 -2.13468e-08 -2.95375e-09
574 1 -3.41073e-10 -2.13468e-08 -2.95372e-09
575 1 -3.41239e-10 -2.13468e-08 -2.95373e-09
576 1 -3.4131e-10 -2.13468e-08 -2.95374e-09
577 2 0.0203382 0.0106605 -0.0237917
578 2 -0.0203385 0.0106606 -0.0237917
579 2 0.000832703 0.000155177 8.7226e-05
580 2 -1.64789e-11 1.40085e-08 -6.22558e-08
581 2 -1.64977e-11 1.40085e-08 -6.22558e-08
582 2 -1.64855e-11 1.40085e-08 -6.22558e-08
583 2 -1.63997e-11 1.40085e-08 -6.22558e-08
584 2 -1.64899e-11 1.40085e-08 -6.22558e-08
585 2 -1.66127e-11 1.40085e-08 -6.22558e-08
586 2 -1.65029e-11 1.40085e-08 -6.22558e-08
587 2 -1.65454e-11 1.40085e-08 -6.22558e-08
588 2 -0.00083272 0.000155172 8.72294e-05
589 2 3.58492e-09 0.000510511 0.000512157
590 2 6.00491e-05 3.89189e-05 3.26083e-05
591 2 3.55869e-07 2.35192e-07 3.67305e-08
592 2 -1.64495e-11 1.40085e-08 -6.22558e-08
593 2 -1.64318e-11 1.40085e-08 -6.22559e-08
594 2 -1.6459e-11 1.40085e-08 -6.22558e-08
595 2 -1.64194e-11 1.40085e-08 -6.22558e-08
596 2 -1.64701e-11 1.40085e-08 -6.22558e-08
597 2 -1.65184e-11 1.40085e-08 -6.22559e-08
598 2 -1.63629e-11 1.40085e-08 -6.22558e-08
599 2 -3.56075e-07 2.3528e-07 3.67924e-08
600 2 -6.00613e-05 3.89307e-05 3.26131e-05
601 2 -1.64224e-11 1.40085e-08 -6.22558e-08
602 2 -1.63836e-11 1.40085e-08 -6.22558e-08
603 2 -1.64562e-11 1.40085e-08 -6.22558e-08
604 2 -1.63374e-11 1.40085e-08 -6.22558e-08
605 2 -1.63619e-11 1.40085e-08 -6.22559e-08
606 2 -1.64209e-11 1.40085e-08 -6.22558e-08
607 2 -1.64093e-11 1.40085e-08 -6.22559e-08
608 2 -1.64816e-11 1.40085e-08 -6.22559e-08
609 2 -1.64425e-11 1.40085e-08 -6.22558e-08
610 2 -1.63859e-11 1.40085e-08 -6.22558e-08
611 2 -1.66105e-11 1.40085e-08 -6.22558e-08
612 2 -1.64326e-11 1.40085e-08 -6.22558e-08
613 2 -1.66214e-11 1.40085e-08 -6.22559e-08
614 2 -1.6424e-11 1.40084e-08 -6.22559e-08
615 2 -1.64966e-11 1.40084e-08 -6.22558e-08
616 2 -1.65072e-11 1.40084e-08 -6.22559e-08
617 2 -1.64926e-11 1.40084e-08 -6.22559e-08
618 2 -1.64662e-11 1.40085e-08 -6.22558e-08
619 2 -1.64841e-11 1.40084e-08 -6.22559e-08
620 2 -1.63251e-11 1.40084e-08 -6.22559e-08
621 2 -1.65248e-11 1.40084e-08 -6.22558e-08
622 2 -1.65226e-11 1.40084e-08 -6.22558e-08
623 2 -1.66305e-11 1.40085e-08 -6.22559e-08
624 2 -1.64503e-11 1.40084e-08 -6.22559e-08
625 2 -1.64837e-11 1.40085e-08 -6.22559e-08
626 2 -1.64242e-11 1.40085e-08 -6.22559e-08
627 2 -1.6413e-11 1.40085e-08 -6.22559e-08
628 2 -1.63431e-11 1.40085e-08 -6.22559e-08
629 2 -1.63118e-11 1.40085e-08 -6.22559e-08
630 2 -1.64118e-11 1.40085e-08 -6.22559e-08
631 2 -1.63334e-11 1.40085e-08 -6.22559e-08
632 2 -1.63914e-11 1.40085e-08 -6.22559e-08
633 2 -1.64241e-11 1.40085e-08 -6.22559e-08
634 2 -1.63738e-11 1.40085e-08 -6.22559e-08
635 2 -1.65221e-11 1.40085e-08 -6.22559e-08
636 2 -1.6485e-11 1.40085e-08 -6.22559e-08
637 2 -1.66418e-11 1.40085e-08 -6.22559e-08
638 2 -1.65112e-11 1.40085e-08 -6.22559e-08
639 2 -1.65259e-11 1.40085e-08 -6.22559e-08
640 2 -1.64845e-11 1.40085e-08 -6.22558e-08
641 2 -1.65396e-11 1.40085e-08 -6.22559e-08
642 2 -1.64576e-11 1.40085e-08 -6.22558e-08
643 2 -1.64233e-11 1.40085e-08 -6.22559e-08
644 2 -1.64346e-11 1.40085e-08 -6.22558e-08
645 2 -1.66374e-11 1.40085e-08 -6.22558e-08
646 2 -1.64613e-11 1.40085e-08 -6.22559e-08
647 2 -1.65854e-11 1.40085e-08 -6.22559e-08
648 2 -1.63254e-11 1.40085e-08 -6.22559e-08
649 2 -1.63967e-11 1.40085e-08 -6.22557e-08
650 2 -1.64437e-11 1.40085e-08 -6.22558e-08
651 2 -1.63476e-11 1.40085e-08 -6.22558e-08
652 2 -1.64206e-11 1.40085e-08 -6.22558e-08
653 2 -1.64547e-11 1.40085e-08 -6.22558e-08
654 2 -1.64255e-11 1.40085e-08 -6.22558e-08
655 2 -1.64024e-11 1.40085e-08 -6.22558e-08
656 2 -1.63749e-11 1.40085e-08 -6.22558e-08
657 2 -1.64919e-11 1.40084e-08 -6.22557e-08
658 2 -1.64568e-11 1.40084e-08 -6.22557e-08
659 2 -1.65547e-11 1.40085e-08 -6.22558e-08
660 2 -1.64783e-11 1.40085e-08 -6.22558e-08
661 2 -1.65956e-11 1.40085e-08 -6.22558e-08
662 2 -1.65517e-11 1.40085e-08 -6.22557e-08
663 2 -1.64986e-11 1.40084e-08 -6.22558e-08
664 2 -1.66068e-11 1.40085e-08 -6.22558e-08
665 2 -1.63298e-11 1.40085e-08 -6.22558e-08
666 2 -1.65396e-11 1.40084e-08 -6.22557e-08
667 2 -1.64076e-11 1.40085e-08 -6.22558e-08
668 2 -1.65327e-11 1.40084e-08 -6.22557e-08
669 2 -1.64812e-11 1.40085e-08 -6.22558e-08
670 2 -1.64052e-11 1.40084e-08 -6.22557e-08
671 2 -1.67463e-11 1.40085e-08 -6.22558e-08
672 2 -1.66975e-11 1.40084e-08 -6.22557e-08
673 2 -1.66755e-11 1.40085e-08 -6.22559e-08
674 2 -1.64673e-11 1.40084e-08 -6.22558e-08
675 2 -1.64325e-11 1.40084e-08 -6.22558e-08
676 2 -1.65666e-11 1.40084e-08 -6.22558e-08
677 2 -1.65008e-11 1.40085e-08 -6.22558e-08
678 2 -1.65306e-11 1.40084e-08 -6.22558e-08
679 2 -1.64905e-11 1.40084e-08 -6.22558e-08
680 2 -1.66e-11 1.40084e-08 -6.22558e-08
681 2 -1.66808e-11 1.40085e-08 -6.22558e-08
682 2 -1.67284e-11 1.40084e-08 -6.22558e-08
683 2 -1.68852e-11 1.40085e-08 -6.22558e-08
684 2 -1.67447e-11 1.40084e-08 -6.22558e-08
685 2 -1.67795e-11 1.40085e-08 -6.22559e-08
686 2 -1.64923e-11 1.40085e-08 -6.22558e-08
687 2 -1.64207e-11 1.40085e-08 -6.22558e-08
688 2 -1.63982e-11 1.40084e-08 -6.22558e-08
689 2 -1.62515e-11 1.40085e-08 -6.22558e-08
690 2 -1.63978e-11 1.40084e-08 -6.22558e-08
691 2 -1.63913e-11 1.40084e-08 -6.22558e-08
692 2 -1.65484e-11 1.40085e-08 -6.22558e-08
693 2 -1.64667e-11 1.40085e-08 -6.22558e-08
694 2 -1.63598e-11 1.40084e-08 -6.22558e-08
695 2 -1.68039e-11 1.40084e-08 -6.22557e-08
696 2 -1.67854e-11 1.40085e-08 -6.22558e-08
697 2 -1.65228e-11 1.40085e-08 -6.22559e-08
698 2 -1.63938e-11 1.40084e-08 -6.22558e-08
699 2 -1.6516e-11 1.40084e-08 -6.22558e-08
700 2 -1.6545e-11 1.40084e-08 -6.22558e-08
701 2 -1.63648e-11 1.40084e-08 -6.22559e-08
702 2 -1.6522e-11 1.40084e-08 -6.22558e-08
703 2 -1.63661e-11 1.40084e-08 -6.22558e-08
704 2 -1.64826e-11 1.40084e-08 -6.22559e-08
705 2 -1.65039e-11 1.40084e-08 -6.22558e-08
706 2 -1.6389e-11 1.40084e-08 -6.22558e-08
707 2 -1.65814e-11 1.40084e-08 -6.22558e-08
708 2 -1.65824e-11 1.40084e-08 -6.22559e-08
709 2 -1.08514e-05 -2.31268e-05 7.62345e-06
710 2 4.78046e-10 -4.627e-05 1.531e-05
711 2 1.08522e-05 -2.31293e-05 7.62431e-06
712 2 -1.64087e-11 1.40084e-08 -6.22558e-08
713 2 -1.64434e-11 1.40084e-08 -6.22558e-08
714 2 -1.64639e-11 1.40084e-08 -6.22558e-08
715 2 -1.63086e-11 1.40084e-08 -6.22558e-08
716 2 -1.63501e-11 1.40084e-08 -6.22559e-08
717 2 -1.65095e-11 1.40084e-08 -6.22557e-08
718 2 -1.64283e-11 1.40084e-08 -6.22559e-08
719 2 -1.66397e-11 1.40084e-08 -6.22558e-08
720 2 -1.65608e-11 1.40084e-08 -6.22559e-08
721 2 0.000225959 -0.00230064 -0.000512877
722 2 -0.000226093 -0.00230044 -0.000512997
723 2 -0.000152298 6.94151e-05 -0.000168601
724 2 3.6952e-10 2.3835e-08 9.5331e-08
725 2 3.69539e-10 2.3835e-08 9.5331e-08
726 2 3.69533e-10 2.3835e-08 9.5331e-08
727 2 3.69511e-10 2.3835e-08 9.5331e-08
728 2 3.69496e-10 2.3835e-08 9.5331e-08
729 2 3.69519e-10 2.3835e-08 9.5331e-08
730 2 3.69501e-10 2.3835e-08 9.5331e-08
731 2 3.69514e-10 2.3835e-08 9.5331e-08
732 2 0.000152539 6.95359e-05 -0.000168647
733 2 -1.47296e-07 -0.0256301 -0.0118489
734 2 0.00394246 0.0032076 0.000498475
735 2 5.05419e-05 1.34238e-05 -2.0217e-05
736 2 3.69508e-10 2.38354e-08 9.53311e-08
737 2 3.69496e-10 2.38353e-08 9.53311e-08
738 2 3.69473e-10 2.38354e-08 9.53311e-08
739 2 3.69476e-10 2.38353e-08 9.53311e-08
740 2 3.69464e-10 2.38353e-08 9.53311e-08
741 2 3.69497e-10 2.38354e-08 9.53311e-08
742 2 3.69481e-10 2.38353e-08 9.53311e-08
743 2 -5.05295e-05 1.34255e-05 -2.02255e-05
744 2 -0.00394372 0.00320837 0.000498543
745 2 8.78883e-06 1.55412e-05 2.76751e-06
746 2 3.04587e-08 9.87538e-08 1.12972e-07
747 2 3.69514e-10 2.38357e-08 9.5331e-08
748 2 3.69508e-10 2.38357e-08 9.5331e-08
749 2 3.69513e-10 2.38357e-08 9.5331e-08
750 2 3.69491e-10 2.38357e-08 9.5331e-08
751 2 3.69474e-10 2.38357e-08 9.5331e-08
752 2 3.69539e-10 2.38357e-08 9.5331e-08
753 2 3.69516e-10 2.38357e-08 9.5331e-08
754 2 3.69487e-10 2.38357e-08 9.5331e-08
755 2 -2.9741e-08 9.88103e-08 1.12985e-07
756 2 -8.78834e-06 1.55416e-05 2.76751e-06
757 2 3.69471e-10 2.38354e-08 9.53312e-08
758 2 3.69509e-10 2.38354e-08 9.53312e-08
759 2 3.69482e-10 2.38355e-08 9.53312e-08
760 2 3.69501e-10 2.38354e-08 9.53312e-08
761 2 3.69499e-10 2.38354e-08 9.53312e-08
762 2 3.69497e-10 2.38354e-08 9.53312e-08
763 2 3.69471e-10 2.38354e-08 9.53312e-08
764 2 3.69492e-10 2.38355e-08 9.53312e-08
765 2 3.69472e-10 2.38354e-08 9.53312e-08
766 2 3.6948e-10 2.38354e-08 9.53312e-08
767 2 3.69492e-10 2.38355e-08 9.53312e-08
768 2 3.69538e-10 2.38354e-08 9.53312e-08
769 2 3.695e-10 2.38356e-08 9.53311e-08
770 2 3.69504e-10 2.38356e-08 9.53312e-08
771 2 3.69515e-10 2.38356e-08 9.53312e-08
772 2 3.695e-10 2.38356e-08 9.53311e-08
773 2 3.69534e-10 2.38356e-08 9.53311e-08
774 2 3.69509e-10 2.38356e-08 9.53312e-08
775 2 3.69485e-10 2.38356e-08 9.53311e-08
776 2 3.69502e-10 2.38356e-08 9.53312e-08
777 2 3.69518e-10 2.38356e-08 9.53311e-08
778 2 3.69549e-10 2.38356e-08 9.53311e-08
779 2 3.69525e-10 2.38356e-08 9.53311e-08
780 2 3.6958e-10 2.38356e-08 9.53311e-08
781 2 3.69506e-10 2.38356e-08 9.53312e-08
782 2 3.69514e-10 2.38356e-08 9.53311e-08
783 2 3.6951e-10 2.38356e-08 9.53311e-08
784 2 3.69489e-10 2.38357e-08 9.53311e-08
785 2 3.69489e-10 2.38356e-08 9.53311e-08
786 2 3.69512e-10 2.38356e-08 9.53311e-08
787 2 3.69482e-10 2.38356e-08 9.53311e-08
788 2 3.6958e-10 2.38357e-08 9.53311e-08
789 2 3.69474e-10 2.38356e-08 9.53311e-08
790 2 3.69534e-10 2.38357e-08 9.53311e-08
791 2 3.69566e-10 2.38356e-08 9.53311e-08
792 2 3.6955e-10 2.38356e-08 9.53311e-08
793 2 3.69535e-10 2.38354e-08 9.53311e-08
794 2 3.6952e-10 2.38354e-08 9.53311e-08
795 2 3.69493e-10 2.38354e-08 9.53311e-08
796 2 3.69514e-10 2.38354e-08 9.53311e-08
797 2 3.69498e-10 2.38354e-08 9.53311e-08
798 2 3.69505e-10 2.38354e-08 9.53311e-08
799 2 3.69473e-10 2.38354e-08 9.53311e-08
800 2 3.69463e-10 2.38354e-08 9.53311e-08
801 2 3.69552e-10 2.38354e-08 9.53311e-08
802 2 3.69468e-10 2.38354e-08 9.53311e-08
803 2 3.69511e-10 2.38354e-08 9.53311e-08
804 2 3.69484e-10 2.38354e-08 9.53311e-08
805 2 3.69476e-10 2.38349e-08 9.5331e-08
806 2 3.69503e-10 2.38349e-08 9.53311e-08
807 2 3.69481e-10 2.38349e-08 9.53311e-08
808 2 3.69504e-10 2.38349e-08 9.53311e-08
809 2 3.69473e-10 2.38349e-08 9.53311e-08
810 2 3.69483e-10 2.38349e-08 9.53311e-08
811 2 3.69471e-10 2.38349e-08 9.53311e-08
812 2 3.69482e-10 2.38349e-08 9.53311e-08
813 2 3.69509e-10 2.38349e-08 9.53311e-08
814 2 3.69474e-10 2.38349e-08 9.53311e-08
815 2 3.69515e-10 2.38349e-08 9.53311e-08
816 2 3.69498e-10 2.38349e-08 9.53311e-08
817 2 3.69462e-10 2.3835e-08 9.53311e-08
818 2 3.69494e-10 2.3835e-08 9.53311e-08
819 2 3.69453e-10 2.3835e-08 9.53311e-08
820 2 3.69484e-10 2.3835e-08 9.53311e-08
821 2 3.6947e-10 2.3835e-08 9.53311e-08
822 2 3.69458e-10 2.3835e-08 9.53311e-08
823 2 3.69461e-10 2.3835e-08 9.53311e-08
824 2 3.69485e-10 2.3835e-08 9.53311e-08
825 2 3.69483e-10 2.3835e-08 9.53311e-08
826 2 3.69435e-10 2.3835e-08 9.53311e-08
827 2 3.69483e-10 2.3835e-08 9.53311e-08
828 2 3.69493e-10 2.3835e-08 9.53311e-08
829 2 3.69457e-10 2.38349e-08 9.53312e-08
830 2 3.69481e-10 2.38349e-08 9.53312e-08
831 2 3.69489e-10 2.38349e-08 9.53312e-08
832 2 3.69493e-10 2.38349e-08 9.53312e-08
833 2 3.69504e-10 2.38349e-08 9.53312e-08
834 2 3.69499e-10 2.38349e-08 9.53312e-08
835 2 3.69457e-10 2.38349e-08 9.53312e-08
836 2 3.69479e-10 2.38349e-08 9.53312e-08
837 2 3.69511e-10 2.38349e-08 9.53312e-08
838 2 3.69467e-10 2.38349e-08 9.53312e-08
839 2 3.69486e-10 2.38349e-08 9.53312e-08
840 2 3.69487e-10 2.38349e-08 9.53312e-08
841 2 3.69463e-10 2.38346e-08 9.53313e-08
842 2 3.69476e-10 2.38346e-08 9.53313e-08
843 2 3.69477e-10 2.38346e-08 9.53313e-08
844 2 3.6949e-10 2.38346e-08 9.53313e-08
845 2 3.69446e-10 2.38346e-08 9.53313e-08
846 2 3.69423e-10 2.38346e-08 9.53313e-08
847 2 3.69453e-10 2.38346e-08 9.53313e-08
848 2 3.69431e-10 2.38346e-08 9.53313e-08
849 2 3.69455e-10 2.38346e-08 9.53313e-08
850 2 3.69451e-10 2.38346e-08 9.53313e-08
851 2 3.69478e-10 2.38346e-08 9.53313e-08
852 2 3.69464e-10 2.38346e-08 9.53313e-08
853 2 3.69449e-10 2.38352e-08 9.53312e-08
854 2 3.6949e-10 2.38352e-08 9.53312e-08
855 2 3.69482e-10 2.38352e-08 9.53312e-08
856 2 3.69481e-10 2.38352e-08 9.53312e-08
857 2 3.69449e-10 2.38352e-08 9.53312e-08
858 2 3.69478e-10 2.38352e-08 9.53312e-08
859 2 3.69475e-10 2.38352e-08 9.53312e-08
860 2 3.69506e-10 2.38352e-08 9.53312e-08
861 2 3.69469e-10 2.38352e-08 9.53312e-08
862 2 3.69453e-10 2.38352e-08 9.53312e-08
863 2 3.69507e-10 2.38352e-08 9.53312e-08
864 2 3.69508e-10 2.38352e-08 9.53312e-08
865 2 1.03048e-07 -0.0228479 -0.0695428
866 2 0.0104958 -0.00375701 -0.00585339
867 2 -0.000407082 4.45084e-05 4.49239e-05
868 2 -1.50439e-10 -1.47563e-08 8.64262e-09
869 2 -1.50443e-10 -1.47563e-08 8.64262e-09
870 2 -1.50362e-10 -1.47563e-08 8.64261e-09
871 2 -1.50444e-10 -1.47563e-08 8.64259e-09
872 2 -1.50504e-10 -1.47563e-08 8.64264e-09
873 2 -1.50395e-10 -1.47563e-08 8.64262e-09
874 2 -1.50554e-10 -1.47563e-08 8.64263e-09
875 2 0.000407049 4.45022e-05 4.4918e-05
876 2 -0.0104931 -0.0037558 -0.00585224
877 2 0.00101736 0.0006978 -0.000873435
878 2 6.49683e-05 6.13819e-05 -2.69949e-05
879 2 -1.50457e-10 -1.47562e-08 8.6426e-09
880 2 -1.50528e-10 -1.47563e-08 8.64264e-09
881 2 -1.50389e-10 -1.47563e-08 8.64264e-09
882 2 -1.50401e-10 -1.47563e-08 8.64263e-09
883 2 -1.50383e-10 -1.47563e-08 8.64264e-09
884 2 -1.50273e-10 -1.47563e-08 8.64261e-09
885 2 -1.50484e-10 -1.47563e-08 8.64261e-09
886 2 -1.50566e-10 -1.47563e-08 8.64266e-09
887 2 -6.49862e-05 6.13916e-05 -2.69937e-05
888 2 -0.00101744 0.000697878 -0.000873505
889 2 -1.50425e-10 -1.47562e-08 8.64262e-09
890 2 -1.50435e-10 -1.47562e-08 8.64263e-09
891 2 -1.50387e-10 -1.47563e-08 8.64261e-09
892 2 -1.50409e-10 -1.47562e-08 8.64262e-09
893 2 -1.50438e-10 -1.47563e-08 8.64262e-09
894 2 -1.50335e-10 -1.47563e-08 8.64263e-09
895 2 -1.50395e-10 -1.47562e-08 8.6426e-09
896 2 -1.50434e-10 -1.47563e-08 8.64262e-09
897 2 -1.50439e-10 -1.47563e-08 8.64261e-09
898 2 -1.50552e-10 -1.47562e-08 8.64261e-09
899 2 -1.50437e-10 -1.47563e-08 8.64263e-09
900 2 -1.50334e-10 -1.47563e-08 8.64266e-09
901 2 -1.50371e-10 -1.47563e-08 8.64265e-09
902 2 -1.50434e-10 -1.47564e-08 8.64268e-09
903 2 -1.50479e-10 -1.47563e-08 8.64265e-09
904 2 -1.50531e-10 -1.47564e-08 8.64268e-09
905 2 -1.5051e-10 -1.47563e-08 8.64266e-09
906 2 -1.50428e-10 -1.47564e-08 8.64269e-09
907 2 -1.50483e-10 -1.47563e-08 8.64264e-09
908 2 -1.50501e-10 -1.47563e-08 8.64267e-09
909 2 -1.50395e-10 -1.47564e-08 8.64267e-09
910 2 -1.5047e-10 -1.47564e-08 8.64268e-09
911 2 -1.50519e-10 -1.47563e-08 8.64264e-09
912 2 -1.50387e-10 -1.47564e-08 8.64275e-09
913 2 -1.50359e-10 -1.47563e-08 8.64266e-09
914 2 -1.50439e-10 -1.47563e-08 8.64268e-09
915 2 -1.50506e-10 -1.47563e-08 8.64265e-09
916 2 -1.50444e-10 -1.47563e-08 8.64268e-09
917 2 -1.50455e-10 -1.47563e-08 8.64267e-09
918 2 -1.5045e-10 -1.47563e-08 8.64268e-09
919 2 -1.50505e-10 -1.47563e-08 8.64266e-09
920 2 -1.50433e-10 -1.47563e-08 8.64268e-09
921 2 -1.50343e-10 -1.47563e-08 8.64265e-09
922 2 -1.50457e-10 -1.47563e-08 8.64267e-09
923 2 -1.50439e-10 -1.47563e-08 8.64268e-09
924 2 -1.5061e-10 -1.47563e-08 8.6427e-09
925 2 -1.5044e-10 -1.47563e-08 8.64265e-09
926 2 -1.50456e-10 -1.47563e-08 8.64265e-09
927 2 -1.50459e-10 -1.47563e-08 8.64265e-09
928 2 -1.5044e-10 -1.47563e-08 8.64268e-09
929 2 -1.50414e-10 -1.47563e-08 8.64262e-09
930 2 -1.50432e-10 -1.47563e-08 8.64269e-09
931 2 -1.50625e-10 -1.47563e-08 8.64262e-09
932 2 -1.50536e-10 -1.47563e-08 8.64271e-09
933 2 -1.50354e-10 -1.47563e-08 8.64261e-09
934 2 -1.506e-10 -1.47563e-08 8.6427e-09
935 2 -1.50418e-10 -1.47563e-08 8.64262e-09
936 2 -1.50604e-10 -1.47563e-08 8.64269e-09
937 2 -1.50301e-10 -1.47563e-08 8.64254e-09
938 2 -1.50371e-10 -1.47563e-08 8.64253e-09
939 2 -1.5043e-10 -1.47563e-08 8.64254e-09
940 2 -1.50413e-10 -1.47563e-08 8.64256e-09
941 2 -1.50407e-10 -1.47563e-08 8.64255e-09
942 2 -1.50395e-10 -1.47563e-08 8.64257e-09
943 2 -1.50545e-10 -1.47563e-08 8.64254e-09
944 2 -1.50497e-10 -1.47563e-08 8.64256e-09
945 2 -1.50578e-10 -1.47564e-08 8.64257e-09
946 2 -1.50519e-10 -1.47563e-08 8.64257e-09
947 2 -1.50462e-10 -1.47563e-08 8.64255e-09
948 2 -1.50359e-10 -1.47563e-08 8.6426e-09
949 2 -1.50294e-10 -1.47563e-08 8.64255e-09
950 2 -1.50289e-10 -1.47563e-08 8.64256e-09
951 2 -1.50383e-10 -1.47563e-08 8.64255e-09
952 2 -1.50364e-10 -1.47563e-08 8.64255e-09
953 2 -1.50259e-10 -1.47563e-08 8.64255e-09
954 2 -1.50382e-10 -1.47563e-08 8.64255e-09
955 2 -1.50485e-10 -1.47563e-08 8.64256e-09
956 2 -1.50523e-10 -1.47563e-08 8.64253e-09
957 2 -1.50407e-10 -1.47563e-08 8.64257e-09
958 2 -1.5046e-10 -1.47563e-08 8.64258e-09
959 2 -1.50278e-10 -1.47563e-08 8.64252e-09
960 2 -1.50371e-10 -1.47563e-08 8.64261e-09
961 2 -1.50403e-10 -1.47563e-08 8.64258e-09
962 2 -1.50422e-10 -1.47564e-08 8.64259e-09
963 2 -1.50414e-10 -1.47563e-08 8.6426e-09
964 2 -1.50437e-10 -1.47563e-08 8.6426e-09
965 2 -1.50364e-10 -1.47563e-08 8.64258e-09
966 2 -1.50414e-10 -1.47563e-08 8.64259e-09
967 2 -1.50531e-10 -1.47563e-08 8.6426e-09
968 2 -1.50505e-10 -1.47563e-08 8.6426e-09
969 2 -1.50351e-10 -1.47564e-08 8.64261e-09
970 2 -1.50445e-10 -1.47563e-08 8.64258e-09
971 2 -1.50376e-10 -1.47563e-08 8.64257e-09
972 2 -1.50352e-10 -1.47564e-08 8.6427e-09
973 2 -1.50449e-10 -1.47564e-08 8.64258e-09
974 2 -1.50525e-10 -1.47564e-08 8.6426e-09
975 2 -1.50503e-10 -1.47564e-08 8.6426e-09
976 2 -1.50563e-10 -1.47564e-08 8.64256e-09
977 2 -1.50496e-10 -1.47564e-08 8.64262e-09
978 2 -1.5043e-10 -1.47564e-08 8.64264e-09
979 2 -1.50414e-10 -1.47564e-08 8.64259e-09
980 2 -1.50558e-10 -1.47564e-08 8.64258e-09
981 2 -1.50506e-10 -1.47564e-08 8.6426e-09
982 2 -1.50637e-10 -1.47564e-08 8.64265e-09
983 2 -1.50362e-10 -1.47564e-08 8.64257e-09
984 2 -1.50497e-10 -1.47563e-08 8.64264e-09
985 2 -1.50577e-10 -1.47564e-08 8.64263e-09
986 2 -1.50514e-10 -1.47564e-08 8.64263e-09
987 2 -1.50542e-10 -1.47564e-08 8.64258e-09
988 2 -1.50596e-10 -1.47564e-08 8.64264e-09
989 2 -1.50415e-10 -1.47564e-08 8.64264e-09
990 2 -1.50423e-10 -1.47564e-08 8.64262e-09
991 2 -1.50495e-10 -1.47564e-08 8.64262e-09
992 2 -1.50635e-10 -1.47564e-08 8.64258e-09
993 2 -1.50596e-10 -1.47564e-08 8.64264e-09
994 2 -1.50702e-10 -1.47564e-08 8.64262e-09
995 2 -1.5061e-10 -1.47564e-08 8.64265e-09
996 2 -1.50655e-10 -1.47564e-08 8.64267e-09
997 2 -2.75121e-09 -9.74653e-06 -1.82911e-06
998 2 2.31786e-09 -9.74667e-06 -1.82916e-06
999 2 2.38509e-09 -1.7091e-08 7.51531e-09
1000 2 -1.50559e-10 -1.47564e-08 8.64267e-09
1001 2 -1.5048e-10 -1.47564e-08 8.64258e-09
1002 2 -1.50562e-10 -1.47564e-08 8.64266e-09
1003 2 -1.50448e-10 -1.47564e-08 8.64256e-09
1004 2 -1.50571e-10 -1.47564e-08 8.64263e-09
1005 2 -1.50445e-10 -1.47565e-08 8.64267e-09
1006 2 -1.50549e-10 -1.47564e-08 8.64262e-09
1007 2 -1.50495e-10 -1.47564e-08 8.64261e-09
1008 2 -2.68415e-09 -1.7089e-08 7.51627e-09
1009 2 -1.32078e-10 1.51554e-08 -8.78185e-09
1010 2 -1.32097e-10 1.51554e-08 -8.78183e-09
1011 2 -1.32061e-10 1.51554e-08 -8.78183e-09
1012 2 -1.32073e-10 1.51554e-08 -8.78182e-09
1013 2 -1.32096e-10 1.51554e-08 -8.78182e-09
1014 2 -1.32085e-10 1.51554e-08 -8.78184e-09
1015 2 -1.32027e-10 1.51554e-08 -8.78182e-09
1016 2 -1.32086e-10 1.51553e-08 -8.7818e-09
1017 2 -1.32041e-10 1.51554e-08 -8.78184e-09
1018 2 -1.31949e-10 1.51553e-08 -8.78183e-09
1019 2 -1.32013e-10 1.51554e-08 -8.78183e-09
1020 2 -1.32108e-10 1.51553e-08 -8.7818e-09
1021 2 -1.32081e-10 1.51554e-08 -8.78188e-09
1022 2 -1.3203e-10 1.51553e-08 -8.78184e-09
1023 2 -1.32068e-10 1.51554e-08 -8.78184e-09
1024 2 -1.32021e-10 1.51554e-08 -8.78185e-09
1025 2 -1.32085e-10 1.51554e-08 -8.78183e-09
1026 2 -1.32053e-10 1.51553e-08 -8.78183e-09
1027 2 -1.32071e-10 1.51554e-08 -8.78184e-09
1028 2 -1.32144e-10 1.51554e-08 -8.78184e-09
1029 2 -1.31997e-10 1.51553e-08 -8.78184e-09
1030 2 -1.3209e-10 1.51553e-08 -8.78182e-09
1031 2 -1.32085e-10 1.51554e-08 -8.78185e-09
1032 2 -1.32166e-10 1.51553e-08 -8.78182e-09
1033 2 -1.32194e-10 1.51553e-08 -8.78194e-09
1034 2 -1.32102e-10 1.51553e-08 -8.78185e-09
1035 2 -1.32163e-10 1.51553e-08 -8.78186e-09
1036 2 -1.32017e-10 1.51553e-08 -8.78188e-09
1037 2 -1.32077e-10 1.51553e-08 -8.78187e-09
1038 2 -1.32027e-10 1.51553e-08 -8.78184e-09
1039 2 -1.32093e-10 1.51553e-08 -8.78185e-09
1040 2 -1.32164e-10 1.51553e-08 -8.78187e-09
1041 2 -1.32176e-10 1.51553e-08 -8.78186e-09
1042 2 -1.3206e-10 1.51553e-08 -8.78187e-09
1043 2 -1.3202e-10 1.51553e-08 -8.78187e-09
1044 2 -1.32047e-10 1.51553e-08 -8.78184e-09
1045 2 -1.32173e-10 1.51553e-08 -8.78189e-09
1046 2 -1.32083e-10 1.51553e-08 -8.78179e-09
1047 2 -1.32111e-10 1.51553e-08 -8.7818e-09
1048 2 -1.32073e-10 1.51553e-08 -8.7818e-09
1049 2 -1.3206e-10 1.51553e-08 -8.78183e-09
1050 2 -1.3205e-10 1.51553e-08 -8.78178e-09
1051 2 -1.32087e-10 1.51553e-08 -8.78181e-09
1052 2 -1.3219e-10 1.51553e-08 -8.78176e-09
1053 2 -1.32224e-10 1.51553e-08 -8.78179e-09
1054 2 -1.32073e-10 1.51553e-08 -8.78181e-09
1055 2 -1.31982e-10 1.51553e-08 -8.78178e-09
1056 2 -1.32154e-10 1.51553e-08 -8.78175e-09
1057 2 -1.32141e-10 1.51553e-08 -8.78186e-09
1058 2 -1.32093e-10 1.51553e-08 -8.78178e-09
1059 2 -1.32033e-10 1.51553e-08 -8.78182e-09
1060 2 -1.32011e-10 1.51553e-08 -8.78177e-09
1061 2 -1.32054e-10 1.51553e-08 -8.78178e-09
1062 2 -1.32127e-10 1.51553e-08 -8.7818e-09
1063 2 -1.32086e-10 1.51553e-08 -8.78179e-09
1064 2 -1.32157e-10 1.51553e-08 -8.78179e-09
1065 2 -1.32149e-10 1.51553e-08 -8.78179e-09
1066 2 -1.32078e-10 1.51553e-08 -8.78177e-09
1067 2 -1.32003e-10 1.51553e-08 -8.78182e-09
1068 2 -1.32056e-10 1.51553e-08 -8.7818e-09
1069 2 -1.32179e-10 1.51553e-08 -8.7819e-09
1070 2 -1.32064e-10 1.51553e-08 -8.7818e-09
1071 2 -1.32066e-10 1.51552e-08 -8.78181e-09
1072 2 -1.32071e-10 1.51552e-08 -8.7818e-09
1073 2 -1.32105e-10 1.51553e-08 -8.7818e-09
1074 2 -1.3213e-10 1.51552e-08 -8.78181e-09
1075 2 -1.32064e-10 1.51552e-08 -8.78182e-09
1076 2 -1.32136e-10 1.51552e-08 -8.7818e-09
1077 2 -1.32202e-10 1.51552e-08 -8.78182e-09
1078 2 -1.32066e-10 1.51552e-08 -8.78176e-09
1079 2 -1.32081e-10 1.51553e-08 -8.78183e-09
1080 2 -1.32043e-10 1.51552e-08 -8.78182e-09
1081 2 -1.32156e-10 1.51554e-08 -8.78187e-09
1082 2 -1.32077e-10 1.51553e-08 -8.7818e-09
1083 2 -1.32111e-10 1.51553e-08 -8.78182e-09
1084 2 -1.3206e-10 1.51553e-08 -8.78182e-09
1085 2 -1.32146e-10 1.51554e-08 -8.78179e-09
1086 2 -1.32038e-10 1.51554e-08 -8.78182e-09
1087 2 -1.32001e-10 1.51553e-08 -8.78183e-09
1088 2 -1.32085e-10 1.51554e-08 -8.78181e-09
1089 2 -1.32095e-10 1.51554e-08 -8.78179e-09
1090 2 -1.32108e-10 1.51553e-08 -8.7818e-09
1091 2 -1.32008e-10 1.51554e-08 -8.78184e-09
1092 2 -1.32067e-10 1.51553e-08 -8.78179e-09
1093 2 -1.32172e-10 1.51555e-08 -8.78192e-09
1094 2 -1.31985e-10 1.51554e-08 -8.78177e-09
1095 2 -1.32093e-10 1.51554e-08 -8.78182e-09
1096 2 -1.32141e-10 1.51554e-08 -8.78181e-09
1097 2 -1.31953e-10 1.51554e-08 -8.78179e-09
1098 2 -1.31987e-10 1.51554e-08 -8.78181e-09
1099 2 -1.31998e-10 1.51554e-08 -8.78178e-09
1100 2 -1.32075e-10 1.51554e-08 -8.7818e-09
1101 2 -1.32101e-10 1.51554e-08 -8.7818e-09
1102 2 -1.32003e-10 1.51554e-08 -8.78183e-09
1103 2 -1.31976e-10 1.51554e-08 -8.78181e-09
1104 2 -1.32062e-10 1.51554e-08 -8.78179e-09
1105 2 -1.32237e-10 1.51555e-08 -8.78189e-09
1106 2 -1.32035e-10 1.51555e-08 -8.78181e-09
1107 2 -1.32111e-10 1.51555e-08 -8.78176e-09
1108 2 -1.32126e-10 1.51555e-08 -8.78179e-09
1109 2 -1.32111e-10 1.51555e-08 -8.78181e-09
1110 2 -1.31987e-10 1.51555e-08 -8.78179e-09
1111 2 -1.32149e-10 1.51555e-08 -8.78178e-09
1112 2 -1.32106e-10 1.51555e-08 -8.78178e-09
1113 2 -1.31996e-10 1.51555e-08 -8.78179e-09
1114 2 -1.31994e-10 1.51555e-08 -8.78177e-09
1115 2 -1.32011e-10 1.51555e-08 -8.78177e-09
1116 2 -1.32166e-10 1.51555e-08 -8.78179e-09
1117 2 -1.32138e-10 1.51556e-08 -8.7819e-09
1118 2 -1.31925e-10 1.51555e-08 -8.78174e-09
1119 2 -1.31993e-10 1.51555e-08 -8.78181e-09
1120 2 -1.32003e-10 1.51555e-08 -8.78178e-09
1121 2 -1.31882e-10 1.51555e-08 -8.78178e-09
1122 2 -1.31871e-10 1.51555e-08 -8.78178e-09
1123 2 -1.31713e-10 1.51555e-08 -8.78177e-09
1124 2 -1.31955e-10 1.51555e-08 -8.7818e-09
1125 2 -1.3189e-10 1.51555e-08 -8.78175e-09
1126 2 -1.31967e-10 1.51555e-08 -8.78182e-09
1127 2 -1.31736e-10 1.51555e-08 -8.78179e-09
1128 2 -1.31866e-10 1.51554e-08 -8.78173e-09
1129 2 -1.32073e-10 1.51556e-08 -8.7819e-09
1130 2 -1.31906e-10 1.51555e-08 -8.78178e-09
1131 2 -1.3193e-10 1.51555e-08 -8.7818e-09
1132 2 -1.31819e-10 1.51555e-08 -8.7818e-09
1133 2 -1.31945e-10 1.51555e-08 -8.78176e-09
1134 2 -1.32041e-10 1.51555e-08 -8.78178e-09
1135 2 -1.31892e-10 1.51555e-08 -8.78183e-09
1136 2 -1.32025e-10 1.51555e-08 -8.78176e-09
1137 2 -1.31851e-10 1.51555e-08 -8.78178e-09
1138 2 -1.31738e-10 1.51555e-08 -8.78181e-09
1139 2 -1.31848e-10 1.51555e-08 -8.78177e-09
1140 2 -1.31886e-10 1.51555e-08 -8.78179e-09
1141 2 -1.32078e-10 1.51556e-08 -8.78183e-09
1142 2 -1.32094e-10 1.51555e-08 -8.78178e-09
1143 2 -1.32133e-10 1.51556e-08 -8.78185e-09
1144 2 -1.32064e-10 1.51555e-08 -8.78184e-09
1145 2 -1.32103e-10 1.51555e-08 -8.78181e-09
1146 2 -1.31985e-10 1.51555e-08 -8.78184e-09
1147 2 -1.3196e-10 1.51555e-08 -8.78182e-09
1148 2 -1.32095e-10 1.51555e-08 -8.78182e-09
1149 2 -1.32002e-10 1.51555e-08 -8.78181e-09
1150 2 -1.32092e-10 1.51556e-08 -8.78184e-09
1151 2 -1.31677e-10 1.51556e-08 -8.78184e-09
1152 2 -1.31727e-10 1.51555e-08 -8.7818e-09
1153 2 3.52461e-10 -2.44094e-08 -9.74358e-08
1154 2 3.52473e-10 -2.44094e-08 -9.74358e-08
1155 2 3.52452e-10 -2.44094e-08 -9.74358e-08
1156 2 3.52473e-10 -2.44094e-08 -9.74358e-08
1157 2 3.52491e-10 -2.44094e-08 -9.74358e-08
1158 2 3.52454e-10 -2.44094e-08 -9.74358e-08
1159 2 3.52486e-10 -2.44094e-08 -9.74358e-08
1160 2 3.52456e-10 -2.44094e-08 -9.74358e-08
1161 2 3.52501e-10 -2.44094e-08 -9.74358e-08
1162 2 3.5247e-10 -2.44094e-08 -9.74358e-08
1163 2 3.52453e-10 -2.44094e-08 -9.74358e-08
1164 2 3.52517e-10 -2.44094e-08 -9.74358e-08
1165 2 3.52469e-10 -2.44092e-08 -9.74359e-08
1166 2 3.52482e-10 -2.44093e-08 -9.74359e-08
1167 2 3.52485e-10 -2.44093e-08 -9.74359e-08
1168 2 3.52487e-10 -2.44093e-08 -9.74359e-08
1169 2 3.52489e-10 -2.44093e-08 -9.74359e-08
1170 2 3.52473e-10 -2.44093e-08 -9.74359e-08
1171 2 3.52455e-10 -2.44093e-08 -9.74359e-08
1172 2 3.52474e-10 -2.44092e-08 -9.74359e-08
1173 2 3.52453e-10 -2.44093e-08 -9.74359e-08
1174 2 3.52468e-10 -2.44093e-08 -9.74359e-08
1175 2 3.52472e-10 -2.44093e-08 -9.74359e-08
1176 2 3.52502e-10 -2.44093e-08 -9.74359e-08
1177 2 3.52456e-10 -2.44091e-08 -9.7436e-08
1178 2 3.5247e-10 -2.44091e-08 -9.7436e-08
1179 2 3.52503e-10 -2.44092e-08 -9.7436e-08
1180 2 3.52489e-10 -2.44092e-08 -9.7436e-08
1181 2 3.52498e-10 -2.44092e-08 -9.7436e-08
1182 2 3.52499e-10 -2.44091e-08 -9.7436e-08
1183 2 3.52498e-10 -2.44092e-08 -9.7436e-08
1184 2 3.52461e-10 -2.44091e-08 -9.7436e-08
1185 2 3.52484e-10 -2.44091e-08 -9.7436e-08
1186 2 3.52466e-10 -2.44091e-08 -9.7436e-08
1187 2 3.52488e-10 -2.44092e-08 -9.7436e-08
1188 2 3.52484e-10 -2.44091e-08 -9.7436e-08
1189 2 3.52482e-10 -2.44092e-08 -9.74359e-08
1190 2 3.52499e-10 -2.44092e-08 -9.74359e-08
1191 2 3.52488e-10 -2.44092e-08 -9.74359e-08
1192 2 3.52507e-10 -2.44092e-08 -9.74359e-08
1193 2 3.52511e-10 -2.44092e-08 -9.74359e-08
1194 2 3.52467e-10 -2.44092e-08 -9.74359e-08
1195 2 3.52463e-10 -2.44092e-08 -9.74359e-08
1196 2 3.52506e-10 -2.44092e-08 -9.74359e-08
1197 2 3.5248e-10 -2.44092e-08 -9.74359e-08
1198 2 3.52493e-10 -2.44092e-08 -9.74359e-08
1199 2 3.52463e-10 -2.44092e-08 -9.74359e-08
1200 2 3.52533e-10 -2.44092e-08 -9.74359e-08
1201 2 3.52451e-10 -2.44094e-08 -9.74358e-08
1202 2 3.5248e-10 -2.44094e-08 -9.74358e-08
1203 2 3.52474e-10 -2.44094e-08 -9.74358e-08
1204 2 3.52468e-10 -2.44094e-08 -9.74358e-08
1205 2 3.52463e-10 -2.44094e-08 -9.74358e-08
1206 2 3.5248e-10 -2.44094e-08 -9.74358e-08
1207 2 3.52466e-10 -2.44094e-08 -9.74358e-08
1208 2 3.52474e-10 -2.44094e-08 -9.74358e-08
1209 2 3.52471e-10 -2.44094e-08 -9.74358e-08
1210 2 3.52474e-10 -2.44094e-08 -9.74358e-08
1211 2 3.52445e-10 -2.44094e-08 -9.74358e-08
1212 2 3.52515e-10 -2.44094e-08 -9.74358e-08
1213 2 3.52465e-10 -2.44095e-08 -9.74358e-08
1214 2 3.52487e-10 -2.44096e-08 -9.74358e-08
1215 2 3.52461e-10 -2.44096e-08 -9.74358e-08
1216 2 3.52491e-10 -2.44096e-08 -9.74358e-08
1217 2 3.52486e-10 -2.44096e-08 -9.74358e-08
1218 2 3.52465e-10 -2.44096e-08 -9.74358e-08
1219 2 3.52497e-10 -2.44095e-08 -9.74358e-08
1220 2 3.52508e-10 -2.44095e-08 -9.74358e-08
1221 2 3.52468e-10 -2.44096e-08 -9.74358e-08
1222 2 3.52468e-10 -2.44096e-08 -9.74358e-08
1223 2 3.52448e-10 -2.44096e-08 -9.74358e-08
1224 2 3.52478e-10 -2.44096e-08 -9.74358e-08
1225 2 3.52447e-10 -2.44086e-08 -9.74359e-08
1226 2 3.52456e-10 -2.44087e-08 -9.74359e-08
1227 2 3.52457e-10 -2.44086e-08 -9.74359e-08
1228 2 3.52479e-10 -2.44087e-08 -9.74359e-08
1229 2 3.52449e-10 -2.44087e-08 -9.74359e-08
1230 2 3.52466e-10 -2.44087e-08 -9.74359e-08
1231 2 3.52461e-10 -2.44087e-08 -9.74359e-08
1232 2 3.52482e-10 -2.44087e-08 -9.74359e-08
1233 2 3.52497e-10 -2.44087e-08 -9.74359e-08
1234 2 3.52454e-10 -2.44087e-08 -9.74359e-08
1235 2 3.52441e-10 -2.44087e-08 -9.74359e-08
1236 2 3.52501e-10 -2.44087e-08 -9.74359e-08
1237 2 3.52484e-10 -2.44084e-08 -9.74361e-08
1238 2 3.5253e-10 -2.44084e-08 -9.74361e-08
1239 2 3.52507e-10 -2.44084e-08 -9.74361e-08
1240 2 3.52532e-10 -2.44084e-08 -9.74361e-08
1241 2 3.52514e-10 -2.44085e-08 -9.74361e-08
1242 2 3.52517e-10 -2.44084e-08 -9.74361e-08
1243 2 3.52564e-10 -2.44085e-08 -9.74361e-08
1244 2 3.52528e-10 -2.44084e-08 -9.74361e-08
1245 2 3.52526e-10 -2.44084e-08 -9.74361e-08
1246 2 3.52569e-10 -2.44084e-08 -9.74361e-08
1247 2 3.52534e-10 -2.44085e-08 -9.74361e-08
1248 2 3.52531e-10 -2.44084e-08 -9.74361e-08
1249 2 3.52503e-10 -2.44082e-08 -9.74361e-08
1250 2 3.5253e-10 -2.44083e-08 -9.74361e-08
1251 2 3.5253e-10 -2.44083e-08 -9.74361e-08
1252 2 3.5254e-10 -2.44083e-08 -9.74361e-08
1253 2 3.5254e-10 -2.44083e-08 -9.74361e-08
1254 2 3.5254e-10 -2.44083e-08 -9.74361e-08
1255 2 3.52473e-10 -2.44083e-08 -9.74361e-08
1256 2 3.52547e-10 -2.44083e-08 -9.74361e-08
1257 2 3.52545e-10 -2.44083e-08 -9.74361e-08
1258 2 3.52546e-10 -2.44083e-08 -9.74361e-08
1259 2 3.52609e-10 -2.44083e-08 -9.74361e-08
1260 2 3.52622e-10 -2.44083e-08 -9.74361e-08
1261 2 3.52477e-10 -2.44083e-08 -9.74361e-08
1262 2 3.52511e-10 -2.44083e-08 -9.74361e-08
1263 2 3.52497e-10 -2.44083e-08 -9.74361e-08
1264 2 3.52507e-10 -2.44083e-08 -9.74361e-08
1265 2 3.52514e-10 -2.44084e-08 -9.74361e-08
1266 2 3.52475e-10 -2.44084e-08 -9.74361e-08
1267 2 3.5251e-10 -2.44084e-08 -9.74361e-08
1268 2 3.52477e-10 -2.44083e-08 -9.74361e-08
1269 2 3.5254e-10 -2.44084e-08 -9.74361e-08
1270 2 3.52518e-10 -2.44083e-08 -9.74361e-08
1271 2 3.52552e-10 -2.44083e-08 -9.74361e-08
1272 2 3.52536e-10 -2.44083e-08 -9.74361e-08
1273 2 3.52468e-10 -2.44085e-08 -9.74361e-08
1274 2 3.52503e-10 -2.44085e-08 -9.74361e-08
1275 2 3.52476e-10 -2.44085e-08 -9.74361e-08
1276 2 3.52509e-10 -2.44085e-08 -9.74361e-08
1277 2 3.52481e-10 -2.44085e-08 -9.74361e-08
1278 2 3.52484e-10 -2.44085e-08 -9.74361e-08
1279 2 3.52528e-10 -2.44085e-08 -9.74361e-08
1280 2 3.52508e-10 -2.44085e-08 -9.74361e-08
1281 2 3.52551e-10 -2.44085e-08 -9.74361e-08
1282 2 3.52451e-10 -2.44085e-08 -9.74361e-08
1283 2 3.52503e-10 -2.44085e-08 -9.74361e-08
1284 2 3.52579e-10 -2.44085e-08 -9.74361e-08
1285 2 3.52476e-10 -2.44083e-08 -9.74361e-08
1286 2 3.52476e-10 -2.44083e-08 -9.74361e-08
1287 2 3.52455e-10 -2.44083e-08 -9.74361e-08
1288 2 3.5248e-10 -2.44083e-08 -9.74361e-08
1289 2 3.52485e-10 -2.44083e-08 -9.74361e-08
1290 2 3.52488e-10 -2.44083e-08 -9.74361e-08
1291 2 3.52525e-10 -2.44083e-08 -9.74361e-08
1292 2 3.52494e-10 -2.44083e-08 -9.74361e-08
1293 2 3.52475e-10 -2.44083e-08 -9.74361e-08
1294 2 3.52445e-10 -2.44083e-08 -9.74361e-08
1295 2 3.52479e-10 -2.44083e-08 -9.74361e-08
1296 2 3.52483e-10 -2.44083e-08 -9.74361e-08
1297 2 -3.53384e-11 -1.43692e-08 6.36094e-08
1298 2 -3.53454e-11 -1.43692e-08 6.36095e-08
1299 2 -3.54111e-11 -1.43692e-08 6.36094e-08
1300 2 -3.5456e-11 -1.43692e-08 6.36095e-08
1301 2 -3.53728e-11 -1.43692e-08 6.36095e-08
1302 2 -3.53055e-11 -1.43692e-08 6.36095e-08
1303 2 -3.51965e-11 -1.43692e-08 6.36094e-08
1304 2 -3.53096e-11 -1.43692e-08 6.36095e-08
1305 2 -3.52845e-11 -1.43692e-08 6.36095e-08
1306 2 -3.53762e-11 -1.43692e-08 6.36095e-08
1307 2 -3.53644e-11 -1.43692e-08 6.36095e-08
1308 2 -3.52407e-11 -1.43693e-08 6.36095e-08
1309 2 -3.53302e-11 -1.43692e-08 6.36094e-08
1310 2 -3.5407e-11 -1.43692e-08 6.36095e-08
1311 2 -3.54494e-11 -1.43692e-08 6.36094e-08
1312 2 -3.54494e-11 -1.43692e-08 6.36095e-08
1313 2 -3.53676e-11 -1.43692e-08 6.36095e-08
1314 2 -3.53618e-11 -1.43692e-08 6.36094e-08
1315 2 -3.52671e-11 -1.43692e-08 6.36095e-08
1316 2 -3.5332e-11 -1.43692e-08 6.36095e-08
1317 2 -3.53231e-11 -1.43692e-08 6.36095e-08
1318 2 -3.53881e-11 -1.43692e-08 6.36095e-08
1319 2 -3.53597e-11 -1.43692e-08 6.36095e-08
1320 2 -3.52629e-11 -1.43693e-08 6.36095e-08
1321 2 -3.52962e-11 -1.43692e-08 6.36095e-08
1322 2 -3.53981e-11 -1.43692e-08 6.36095e-08
1323 2 -3.54121e-11 -1.43692e-08 6.36095e-08
1324 2 -3.54591e-11 -1.43692e-08 6.36095e-08
1325 2 -3.54488e-11 -1.43692e-08 6.36095e-08
1326 2 -3.54559e-11 -1.43692e-08 6.36095e-08
1327 2 -3.53055e-11 -1.43692e-08 6.36095e-08
1328 2 -3.53749e-11 -1.43692e-08 6.36095e-08
1329 2 -3.52872e-11 -1.43692e-08 6.36095e-08
1330 2 -3.54046e-11 -1.43692e-08 6.36095e-08
1331 2 -3.5319e-11 -1.43692e-08 6.36095e-08
1332 2 -3.52762e-11 -1.43692e-08 6.36096e-08
1333 2 -3.53491e-11 -1.43692e-08 6.36094e-08
1334 2 -3.53616e-11 -1.43692e-08 6.36094e-08
1335 2 -3.53998e-11 -1.43692e-08 6.36094e-08
1336 2 -3.53977e-11 -1.43692e-08 6.36094e-08
1337 2 -3.54421e-11 -1.43693e-08 6.36094e-08
1338 2 -3.52589e-11 -1.43692e-08 6.36094e-08
1339 2 -3.52501e-11 -1.43692e-08 6.36094e-08
1340 2 -3.52651e-11 -1.43693e-08 6.36095e-08
1341 2 -3.52436e-11 -1.43692e-08 6.36094e-08
1342 2 -3.53517e-11 -1.43693e-08 6.36094e-08
1343 2 -3.53724e-11 -1.43692e-08 6.36094e-08
1344 2 -3.53788e-11 -1.43692e-08 6.36094e-08
1345 2 -3.53264e-11 -1.43692e-08 6.36094e-08
1346 2 -3.5384e-11 -1.43692e-08 6.36094e-08
1347 2 -3.53635e-11 -1.43692e-08 6.36094e-08
1348 2 -3.53453e-11 -1.43692e-08 6.36094e-08
1349 2 -3.52768e-11 -1.43692e-08 6.36094e-08
1350 2 -3.529e-11 -1.43692e-08 6.36094e-08
1351 2 -3.5296e-11 -1.43692e-08 6.36094e-08
1352 2 -3.53636e-11 -1.43692e-08 6.36094e-08
1353 2 -3.53264e-11 -1.43692e-08 6.36094e-08
1354 2 -3.52824e-11 -1.43692e-08 6.36094e-08
1355 2 -3.54687e-11 -1.43692e-08 6.36094e-08
1356 2 -3.54183e-11 -1.43692e-08 6.36095e-08
1357 2 -3.54505e-11 -1.43693e-08 6.36094e-08
1358 2 -3.54533e-11 -1.43693e-08 6.36094e-08
1359 2 -3.54342e-11 -1.43693e-08 6.36094e-08
1360 2 -3.54665e-11 -1.43693e-08 6.36094e-08
1361 2 -3.53621e-11 -1.43693e-08 6.36094e-08
1362 2 -3.53229e-11 -1.43693e-08 6.36095e-08
1363 2 -3.54105e-11 -1.43693e-08 6.36094e-08
1364 2 -3.5361e-11 -1.43693e-08 6.36095e-08
1365 2 -3.53475e-11 -1.43693e-08 6.36094e-08
1366 2 -3.5293e-11 -1.43693e-08 6.36095e-08
1367 2 -3.52723e-11 -1.43693e-08 6.36094e-08
1368 2 -3.53375e-11 -1.43693e-08 6.36095e-08
1369 2 -3.53844e-11 -1.43693e-08 6.36094e-08
1370 2 -3.5315e-11 -1.43693e-08 6.36095e-08
1371 2 -3.53804e-11 -1.43693e-08 6.36095e-08
1372 2 -3.53595e-11 -1.43693e-08 6.36095e-08
1373 2 -3.53094e-11 -1.43693e-08 6.36094e-08
1374 2 -3.53028e-11 -1.43694e-08 6.36095e-08
1375 2 -3.53275e-11 -1.43693e-08 6.36094e-08
1376 2 -3.53695e-11 -1.43693e-08 6.36094e-08
1377 2 -3.52361e-11 -1.43694e-08 6.36095e-08
1378 2 -3.51106e-11 -1.43693e-08 6.36094e-08
1379 2 -3.52434e-11 -1.43693e-08 6.36094e-08
1380 2 -3.53539e-11 -1.43693e-08 6.36094e-08
1381 2 -3.54772e-11 -1.43694e-08 6.36094e-08
1382 2 -3.54126e-11 -1.43694e-08 6.36095e-08
1383 2 -3.53978e-11 -1.43694e-08 6.36094e-08
1384 2 -3.54057e-11 -1.43694e-08 6.36094e-08
1385 2 -3.53152e-11 -1.43694e-08 6.36094e-08
1386 2 -3.54611e-11 -1.43694e-08 6.36094e-08
1387 2 -3.52501e-11 -1.43694e-08 6.36094e-08
1388 2 -3.53407e-11 -1.43694e-08 6.36094e-08
1389 2 -3.52521e-11 -1.43694e-08 6.36094e-08
1390 2 -3.5461e-11 -1.43694e-08 6.36094e-08
1391 2 -3.5345e-11 -1.43694e-08 6.36094e-08
1392 2 -3.52416e-11 -1.43694e-08 6.36095e-08
1393 2 -3.53353e-11 -1.43694e-08 6.36094e-08
1394 2 -3.53419e-11 -1.43694e-08 6.36094e-08
1395 2 -3.53707e-11 -1.43694e-08 6.36094e-08
1396 2 -3.53367e-11 -1.43694e-08 6.36094e-08
1397 2 -3.53359e-11 -1.43694e-08 6.36094e-08
1398 2 -3.53319e-11 -1.43694e-08 6.36094e-08
1399 2 -3.53181e-11 -1.43694e-08 6.36094e-08
1400 2 -3.54889e-11 -1.43694e-08 6.36094e-08
1401 2 -3.53173e-11 -1.43694e-08 6.36094e-08
1402 2 -3.53795e-11 -1.43694e-08 6.36094e-08
1403 2 -3.53772e-11 -1.43694e-08 6.36094e-08
1404 2 -3.52185e-11 -1.43695e-08 6.36095e-08
1405 2 -3.53944e-11 -1.43694e-08 6.36094e-08
1406 2 -3.54247e-11 -1.43694e-08 6.36094e-08
1407 2 -3.54065e-11 -1.43694e-08 6.36094e-08
1408 2 -3.55097e-11 -1.43694e-08 6.36094e-08
1409 2 -3.53798e-11 -1.43694e-08 6.36094e-08
1410 2 -3.53817e-11 -1.43694e-08 6.36094e-08
1411 2 -3.53726e-11 -1.43694e-08 6.36094e-08
1412 2 -3.54753e-11 -1.43694e-08 6.36094e-08
1413 2 -3.54541e-11 -1.43694e-08 6.36094e-08
1414 2 -3.5521e-11 -1.43694e-08 6.36094e-08
1415 2 -3.54689e-11 -1.43694e-08 6.36094e-08
1416 2 -3.54579e-11 -1.43694e-08 6.36095e-08
1417 2 -3.53906e-11 -1.43694e-08 6.36094e-08
1418 2 -3.53729e-11 -1.43694e-08 6.36094e-08
1419 2 -3.53662e-11 -1.43694e-08 6.36094e-08
1420 2 -3.5343e-11 -1.43694e-08 6.36094e-08
1421 2 -3.53066e-11 -1.43693e-08 6.36094e-08
1422 2 -3.52462e-11 -1.43694e-08 6.36094e-08
1423 2 -3.54336e-11 -1.43694e-08 6.36094e-08
1424 2 -3.54754e-11 -1.43694e-08 6.36094e-08
1425 2 -3.5313e-11 -1.43694e-08 6.36095e-08
1426 2 -3.53755e-11 -1.43693e-08 6.36094e-08
1427 2 -3.54004e-11 -1.43694e-08 6.36094e-08
1428 2 -3.54099e-11 -1.43694e-08 6.36095e-08
1429 2 -3.52689e-11 -1.43693e-08 6.36094e-08
1430 2 -3.52854e-11 -1.43693e-08 6.36094e-08
1431 2 -3.53025e-11 -1.43693e-08 6.36094e-08
1432 2 -3.54758e-11 -1.43693e-08 6.36094e-08
1433 2 -3.53228e-11 -1.43693e-08 6.36094e-08
1434 2 -3.54676e-11 -1.43693e-08 6.36094e-08
1435 2 -3.54354e-11 -1.43693e-08 6.36094e-08
1436 2 -3.52843e-11 -1.43693e-08 6.36094e-08
1437 2 -3.53952e-11 -1.43693e-08 6.36094e-08
1438 2 -3.53072e-11 -1.43693e-08 6.36094e-08
1439 2 -3.52496e-11 -1.43693e-08 6.36094e-08
1440 2 -3.54818e-11 -1.43692e-08 6.36094e-08
