
     Program PWSCF v.7.0 starts on  3Aug2026 at 22:52:33 

     This program is part of the open-source Quantum ESPRESSO suite
     for quantum simulation of materials; please cite
         "P. Giannozzi et al., J. Phys.:Condens. Matter 21 395502 (2009);
         "P. Giannozzi et al., J. Phys.:Condens. Matter 29 465901 (2017);
         "P. Giannozzi et al., J. Chem. Phys. 152 154105 (2020);
          URL http://www.quantum-espresso.org", 
     in publications or presentations arising from this work. More details at
     http://www.quantum-espresso.org/quote

     Parallel version (MPI), running on    38 processors

     MPI processes distributed on     1 nodes
     R & G space division:  proc/nbgrp/npool/nimage =      38
     372030 MiB available memory on the printing compute node when the environment starts

     Reading input from Ga2O3-BL-001-4x2x1.md.in

     Current dimensions of program PWSCF are:
     Max number of different atomic species (ntypx) = 10
     Max number of k-points (npk) =  40000
     Max angular momentum in pseudopotentials (lmaxx) =  4
     file Ga.pbe-dn-kjpaw_psl.1.0.0.UPF: wavefunction(s)  4S renormalized
     file O.pbe-n-kjpaw_psl.1.0.0.UPF: wavefunction(s)  2S 2P renormalized

     IMPORTANT: XC functional enforced from input :
     Exchange-correlation= PBE
                           (   1   4   3   4   0   0   0)
     Any further DFT definition will be discarded
     Please, verify this is what you really want

     Found identity + (  0.0000  0.5000  0.0000) symmetry
     This is a supercell, fractional translations are disabled

     Subspace diagonalization in iterative solution of the eigenvalue problem:
     one sub-group per band group will be used
     scalapack distributed-memory algorithm (size of sub-group:  6*  6 procs)


     Parallelization info
     --------------------
     sticks:   dense  smooth     PW     G-vecs:    dense   smooth      PW
     Min         705     352     91               214755    75920   10039
     Max         706     353     92               214766    75933   10048
     Sum       26819   13409   3485              8160931  2885219  381689

     Using Slab Decomposition



     bravais-lattice index     =            0
     lattice parameter (alat)  =      24.5639  a.u.
     unit-cell volume          =   29848.9460 (a.u.)^3
     number of atoms/cell      =           80
     number of atomic types    =            2
     number of electrons       =       704.00
     number of Kohn-Sham states=          352
     kinetic-energy cutoff     =      80.0000  Ry
     charge density cutoff     =     640.0000  Ry
     scf convergence threshold =      1.0E-08
     mixing beta               =       0.2000
     number of iterations used =            8  plain     mixing
     energy convergence thresh.=      0.0E+00
     force convergence thresh. =      0.0E+00
     Exchange-correlation= PBE
                           (   1   4   3   4   0   0   0)
     nstep                     =        10000


     celldm(1)=  24.563860  celldm(2)=   0.000000  celldm(3)=   0.000000
     celldm(4)=   0.000000  celldm(5)=   0.000000  celldm(6)=   0.000000

     crystal axes: (cart. coord. in units of alat)
               a(1) = (   0.999067   0.043189   0.000000 )  
               a(2) = (   0.192810   0.881751   0.000000 )  
               a(3) = (   0.000000   0.000000   2.307935 )  

     reciprocal axes: (cart. coord. in units 2 pi/alat)
               b(1) = (  1.010486 -0.220960  0.000000 )  
               b(2) = ( -0.049495  1.144930  0.000000 )  
               b(3) = (  0.000000  0.000000  0.433288 )  


     PseudoPot. # 1 for Ga read from file:
     ../../pseudo/Ga.pbe-dn-kjpaw_psl.1.0.0.UPF
     MD5 check sum: 50ce49cbf7e0a40ad8623bf41840a268
     Pseudo is Projector augmented-wave + core cor, Zval = 13.0
     Generated using &quot;atomic&quot; code by A. Dal Corso  v.6.3
     Shape of augmentation charge: PSQ
     Using radial grid of 1205 points,  6 beta functions with: 
                l(1) =   0
                l(2) =   0
                l(3) =   1
                l(4) =   1
                l(5) =   2
                l(6) =   2
     Q(r) pseudized with 0 coefficients 


     PseudoPot. # 2 for O  read from file:
     ../../pseudo/O.pbe-n-kjpaw_psl.1.0.0.UPF
     MD5 check sum: e99d9cef9b487d1ca56f5b95ecd0fd7a
     Pseudo is Projector augmented-wave + core cor, Zval =  6.0
     Generated using &quot;atomic&quot; code by A. Dal Corso  v.6.3
     Shape of augmentation charge: PSQ
     Using radial grid of 1095 points,  4 beta functions with: 
                l(1) =   0
                l(2) =   0
                l(3) =   1
                l(4) =   1
     Q(r) pseudized with 0 coefficients 


     atomic species   valence    mass     pseudopotential
        Ga            13.00    69.72300     Ga( 1.00)
        O              6.00    15.99900     O ( 1.00)

     No symmetry found


                                    s                        frac. trans.

      isym =  1     identity                                     

 cryst.   s( 1) = (     1          0          0      )
                  (     0          1          0      )
                  (     0          0          1      )

 cart.    s( 1) = (  1.0000000  0.0000000  0.0000000 )
                  (  0.0000000  1.0000000  0.0000000 )
                  (  0.0000000  0.0000000  1.0000000 )


   Cartesian axes

     site n.     atom                  positions (alat units)
         1           Ga  tau(   1) = (   0.2692148   0.3216090   0.9423105  )
         2           Ga  tau(   2) = (   0.1521219   0.1418933   0.8895828  )
         3           O   tau(   3) = (   0.1453220   0.2577760   0.9915828  )
         4           O   tau(   4) = (   0.1313495   0.0088579   0.9157517  )
         5           O   tau(   5) = (   0.2733393   0.2049907   0.8403457  )
         6           Ga  tau(   6) = (   0.2692189   0.3218044   1.4184841  )
         7           Ga  tau(   7) = (   0.1521012   0.1420851   1.3657710  )
         8           O   tau(   8) = (   0.1453158   0.2579963   1.4679267  )
         9           O   tau(   9) = (   0.1313465   0.0088966   1.3912201  )
        10           O   tau(  10) = (   0.2733275   0.2051981   1.3166976  )
        11           Ga  tau(  11) = (   0.3656198   0.7624845   0.9423105  )
        12           Ga  tau(  12) = (   0.2485269   0.5827688   0.8895828  )
        13           O   tau(  13) = (   0.2417271   0.6986514   0.9915828  )
        14           O   tau(  14) = (   0.2277545   0.4497334   0.9157517  )
        15           O   tau(  15) = (   0.3697443   0.6458661   0.8403457  )
        16           Ga  tau(  16) = (   0.3656240   0.7626798   1.4184841  )
        17           Ga  tau(  17) = (   0.2485063   0.5829606   1.3657710  )
        18           O   tau(  18) = (   0.2417208   0.6988717   1.4679267  )
        19           O   tau(  19) = (   0.2277515   0.4497721   1.3912201  )
        20           O   tau(  20) = (   0.3697325   0.6460735   1.3166976  )
        21           Ga  tau(  21) = (   0.5189815   0.3324063   0.9423105  )
        22           Ga  tau(  22) = (   0.4018886   0.1526906   0.8895828  )
        23           O   tau(  23) = (   0.3950888   0.2685732   0.9915828  )
        24           O   tau(  24) = (   0.3811162   0.0196552   0.9157517  )
        25           O   tau(  25) = (   0.5231060   0.2157880   0.8403457  )
        26           Ga  tau(  26) = (   0.5189857   0.3326017   1.4184841  )
        27           Ga  tau(  27) = (   0.4018680   0.1528824   1.3657710  )
        28           O   tau(  28) = (   0.3950825   0.2687936   1.4679267  )
        29           O   tau(  29) = (   0.3811132   0.0196939   1.3912201  )
        30           O   tau(  30) = (   0.5230942   0.2159954   1.3166976  )
        31           Ga  tau(  31) = (   0.6153865   0.7732818   0.9423105  )
        32           Ga  tau(  32) = (   0.4982937   0.5935661   0.8895828  )
        33           O   tau(  33) = (   0.4914938   0.7094487   0.9915828  )
        34           O   tau(  34) = (   0.4775212   0.4605307   0.9157517  )
        35           O   tau(  35) = (   0.6195110   0.6566634   0.8403457  )
        36           Ga  tau(  36) = (   0.6153907   0.7734771   1.4184841  )
        37           Ga  tau(  37) = (   0.4982730   0.5937579   1.3657710  )
        38           O   tau(  38) = (   0.4914876   0.7096690   1.4679267  )
        39           O   tau(  39) = (   0.4775182   0.4605694   1.3912201  )
        40           O   tau(  40) = (   0.6194993   0.6568708   1.3166976  )
        41           Ga  tau(  41) = (   0.7687482   0.3432036   0.9423105  )
        42           Ga  tau(  42) = (   0.6516554   0.1634879   0.8895828  )
        43           O   tau(  43) = (   0.6448555   0.2793705   0.9915828  )
        44           O   tau(  44) = (   0.6308829   0.0304525   0.9157517  )
        45           O   tau(  45) = (   0.7728727   0.2265853   0.8403457  )
        46           Ga  tau(  46) = (   0.7687524   0.3433989   1.4184841  )
        47           Ga  tau(  47) = (   0.6516347   0.1636797   1.3657710  )
        48           O   tau(  48) = (   0.6448493   0.2795908   1.4679267  )
        49           O   tau(  49) = (   0.6308799   0.0304912   1.3912201  )
        50           O   tau(  50) = (   0.7728610   0.2267926   1.3166976  )
        51           Ga  tau(  51) = (   0.8651532   0.7840791   0.9423105  )
        52           Ga  tau(  52) = (   0.7480604   0.6043634   0.8895828  )
        53           O   tau(  53) = (   0.7412605   0.7202460   0.9915828  )
        54           O   tau(  54) = (   0.7272879   0.4713280   0.9157517  )
        55           O   tau(  55) = (   0.8692778   0.6674607   0.8403457  )
        56           Ga  tau(  56) = (   0.8651574   0.7842744   1.4184841  )
        57           Ga  tau(  57) = (   0.7480397   0.6045552   1.3657710  )
        58           O   tau(  58) = (   0.7412543   0.7204663   1.4679267  )
        59           O   tau(  59) = (   0.7272850   0.4713666   1.3912201  )
        60           O   tau(  60) = (   0.8692660   0.6676681   1.3166976  )
        61           Ga  tau(  61) = (   1.0185149   0.3540009   0.9423105  )
        62           Ga  tau(  62) = (   0.9014221   0.1742852   0.8895828  )
        63           O   tau(  63) = (   0.8946222   0.2901678   0.9915828  )
        64           O   tau(  64) = (   0.8806496   0.0412498   0.9157517  )
        65           O   tau(  65) = (   1.0226395   0.2373825   0.8403457  )
        66           Ga  tau(  66) = (   1.0185191   0.3541962   1.4184841  )
        67           Ga  tau(  67) = (   0.9014014   0.1744770   1.3657710  )
        68           O   tau(  68) = (   0.8946160   0.2903881   1.4679267  )
        69           O   tau(  69) = (   0.8806467   0.0412885   1.3912201  )
        70           O   tau(  70) = (   1.0226277   0.2375899   1.3166976  )
        71           Ga  tau(  71) = (   1.1149200   0.7948764   0.9423105  )
        72           Ga  tau(  72) = (   0.9978271   0.6151607   0.8895828  )
        73           O   tau(  73) = (   0.9910272   0.7310433   0.9915828  )
        74           O   tau(  74) = (   0.9770547   0.4821253   0.9157517  )
        75           O   tau(  75) = (   1.1190445   0.6782580   0.8403457  )
        76           Ga  tau(  76) = (   1.1149241   0.7950717   1.4184841  )
        77           Ga  tau(  77) = (   0.9978064   0.6153525   1.3657710  )
        78           O   tau(  78) = (   0.9910210   0.7312636   1.4679267  )
        79           O   tau(  79) = (   0.9770517   0.4821639   1.3912201  )
        80           O   tau(  80) = (   1.1190327   0.6784654   1.3166976  )

   Crystallographic axes

     site n.     atom                  positions (cryst. coord.)
         1           Ga  tau(   1) = (  0.2009749  0.3548951  0.4082917  )
         2           Ga  tau(   2) = (  0.1223643  0.1549287  0.3854454  )
         3           O   tau(   3) = (  0.0898876  0.2879427  0.4296408  )
         4           O   tau(   4) = (  0.1307695  0.0036406  0.3967841  )
         5           O   tau(   5) = (  0.2309107  0.2211711  0.3641116  )
         6           Ga  tau(   6) = (  0.2009360  0.3551185  0.6146119  )
         7           Ga  tau(   7) = (  0.1223010  0.1551493  0.5917720  )
         8           O   tau(   8) = (  0.0898327  0.2881953  0.6360348  )
         9           O   tau(   9) = (  0.1307580  0.0036850  0.6027987  )
        10           O   tau(  10) = (  0.2308530  0.2214091  0.5705091  )
        11           Ga  tau(  11) = (  0.2009749  0.8548951  0.4082917  )
        12           Ga  tau(  12) = (  0.1223643  0.6549287  0.3854454  )
        13           O   tau(  13) = (  0.0898876  0.7879427  0.4296408  )
        14           O   tau(  14) = (  0.1307695  0.5036406  0.3967841  )
        15           O   tau(  15) = (  0.2309107  0.7211711  0.3641116  )
        16           Ga  tau(  16) = (  0.2009360  0.8551185  0.6146119  )
        17           Ga  tau(  17) = (  0.1223010  0.6551493  0.5917720  )
        18           O   tau(  18) = (  0.0898327  0.7881953  0.6360348  )
        19           O   tau(  19) = (  0.1307580  0.5036850  0.6027987  )
        20           O   tau(  20) = (  0.2308530  0.7214091  0.5705091  )
        21           Ga  tau(  21) = (  0.4509749  0.3548951  0.4082917  )
        22           Ga  tau(  22) = (  0.3723643  0.1549287  0.3854454  )
        23           O   tau(  23) = (  0.3398876  0.2879427  0.4296408  )
        24           O   tau(  24) = (  0.3807695  0.0036406  0.3967841  )
        25           O   tau(  25) = (  0.4809107  0.2211711  0.3641116  )
        26           Ga  tau(  26) = (  0.4509360  0.3551185  0.6146119  )
        27           Ga  tau(  27) = (  0.3723010  0.1551493  0.5917720  )
        28           O   tau(  28) = (  0.3398327  0.2881953  0.6360348  )
        29           O   tau(  29) = (  0.3807580  0.0036850  0.6027987  )
        30           O   tau(  30) = (  0.4808530  0.2214091  0.5705091  )
        31           Ga  tau(  31) = (  0.4509749  0.8548951  0.4082917  )
        32           Ga  tau(  32) = (  0.3723643  0.6549287  0.3854454  )
        33           O   tau(  33) = (  0.3398876  0.7879427  0.4296408  )
        34           O   tau(  34) = (  0.3807695  0.5036406  0.3967841  )
        35           O   tau(  35) = (  0.4809107  0.7211711  0.3641116  )
        36           Ga  tau(  36) = (  0.4509360  0.8551185  0.6146119  )
        37           Ga  tau(  37) = (  0.3723010  0.6551493  0.5917720  )
        38           O   tau(  38) = (  0.3398327  0.7881953  0.6360348  )
        39           O   tau(  39) = (  0.3807580  0.5036850  0.6027987  )
        40           O   tau(  40) = (  0.4808530  0.7214091  0.5705091  )
        41           Ga  tau(  41) = (  0.7009749  0.3548951  0.4082917  )
        42           Ga  tau(  42) = (  0.6223643  0.1549287  0.3854454  )
        43           O   tau(  43) = (  0.5898876  0.2879427  0.4296408  )
        44           O   tau(  44) = (  0.6307695  0.0036406  0.3967841  )
        45           O   tau(  45) = (  0.7309107  0.2211711  0.3641116  )
        46           Ga  tau(  46) = (  0.7009360  0.3551185  0.6146119  )
        47           Ga  tau(  47) = (  0.6223010  0.1551493  0.5917720  )
        48           O   tau(  48) = (  0.5898327  0.2881953  0.6360348  )
        49           O   tau(  49) = (  0.6307580  0.0036850  0.6027987  )
        50           O   tau(  50) = (  0.7308530  0.2214091  0.5705091  )
        51           Ga  tau(  51) = (  0.7009749  0.8548951  0.4082917  )
        52           Ga  tau(  52) = (  0.6223643  0.6549287  0.3854454  )
        53           O   tau(  53) = (  0.5898876  0.7879427  0.4296408  )
        54           O   tau(  54) = (  0.6307695  0.5036406  0.3967841  )
        55           O   tau(  55) = (  0.7309107  0.7211711  0.3641116  )
        56           Ga  tau(  56) = (  0.7009360  0.8551185  0.6146119  )
        57           Ga  tau(  57) = (  0.6223010  0.6551493  0.5917720  )
        58           O   tau(  58) = (  0.5898327  0.7881953  0.6360348  )
        59           O   tau(  59) = (  0.6307580  0.5036850  0.6027987  )
        60           O   tau(  60) = (  0.7308530  0.7214091  0.5705091  )
        61           Ga  tau(  61) = (  0.9509749  0.3548951  0.4082917  )
        62           Ga  tau(  62) = (  0.8723643  0.1549287  0.3854454  )
        63           O   tau(  63) = (  0.8398876  0.2879427  0.4296408  )
        64           O   tau(  64) = (  0.8807695  0.0036406  0.3967841  )
        65           O   tau(  65) = (  0.9809107  0.2211711  0.3641116  )
        66           Ga  tau(  66) = (  0.9509360  0.3551185  0.6146119  )
        67           Ga  tau(  67) = (  0.8723010  0.1551493  0.5917720  )
        68           O   tau(  68) = (  0.8398327  0.2881953  0.6360348  )
        69           O   tau(  69) = (  0.8807580  0.0036850  0.6027987  )
        70           O   tau(  70) = (  0.9808530  0.2214091  0.5705091  )
        71           Ga  tau(  71) = (  0.9509749  0.8548951  0.4082917  )
        72           Ga  tau(  72) = (  0.8723643  0.6549287  0.3854454  )
        73           O   tau(  73) = (  0.8398876  0.7879427  0.4296408  )
        74           O   tau(  74) = (  0.8807695  0.5036406  0.3967841  )
        75           O   tau(  75) = (  0.9809107  0.7211711  0.3641116  )
        76           Ga  tau(  76) = (  0.9509360  0.8551185  0.6146119  )
        77           Ga  tau(  77) = (  0.8723010  0.6551493  0.5917720  )
        78           O   tau(  78) = (  0.8398327  0.7881953  0.6360348  )
        79           O   tau(  79) = (  0.8807580  0.5036850  0.6027987  )
        80           O   tau(  80) = (  0.9808530  0.7214091  0.5705091  )

     number of k points=     4
                       cart. coord. in units 2pi/alat
        k(    1) = (   0.0000000   0.0000000   0.0000000), wk =   0.5000000
        k(    2) = (   0.0247474  -0.5724650   0.0000000), wk =   0.5000000
        k(    3) = (  -0.5052430   0.1104801   0.0000000), wk =   0.5000000
        k(    4) = (  -0.4804956  -0.4619849   0.0000000), wk =   0.5000000

                       cryst. coord.
        k(    1) = (   0.0000000   0.0000000   0.0000000), wk =   0.5000000
        k(    2) = (   0.0000000  -0.5000000   0.0000000), wk =   0.5000000
        k(    3) = (  -0.5000000   0.0000000   0.0000000), wk =   0.5000000
        k(    4) = (  -0.5000000  -0.5000000   0.0000000), wk =   0.5000000

     Dense  grid:  8160931 G-vectors     FFT dimensions: ( 200, 180, 480)

     Smooth grid:  2885219 G-vectors     FFT dimensions: ( 144, 128, 324)

     Dynamical RAM for                 wfc:      50.98 MB

     Dynamical RAM for     wfc (w. buffer):     254.89 MB

     Dynamical RAM for           str. fact:       6.55 MB

     Dynamical RAM for           local pot:       0.00 MB

     Dynamical RAM for          nlocal pot:     139.03 MB

     Dynamical RAM for                qrad:       4.06 MB

     Dynamical RAM for          rho,v,vnew:      20.54 MB

     Dynamical RAM for               rhoin:       6.85 MB

     Dynamical RAM for            rho*nmix:      52.43 MB

     Dynamical RAM for           G-vectors:      12.87 MB

     Dynamical RAM for          h,s,v(r/c):       0.63 MB

     Dynamical RAM for          <psi|beta>:       5.16 MB

     Dynamical RAM for                 psi:     101.95 MB

     Dynamical RAM for                hpsi:     101.95 MB

     Dynamical RAM for                spsi:     101.95 MB

     Dynamical RAM for      wfcinit/wfcrot:     144.31 MB

     Dynamical RAM for           addusdens:     766.82 MB

     Dynamical RAM for          addusforce:    1076.69 MB

     Dynamical RAM for         addusstress:     658.68 MB

     Estimated static dynamical RAM per process >     472.47 MB

     Estimated max dynamical RAM per process >       1.56 GB

     Estimated total dynamical RAM >      59.43 GB
 ----2D----2D----2D----2D----2D----2D----2D----2D----2D----2D----2D----2D
  The code is running with the 2D cutoff
  Please refer to:
  Sohier, T., Calandra, M., & Mauri, F. (2017), 
  Density functional perturbation theory for gated two-dimensional heterostructures:
  Theoretical developments and application to flexural phonons in graphene.
  Physical Review B, 96(7), 75448. https://doi.org/10.1103/PhysRevB.96.075448
 ----2D----2D----2D----2D----2D----2D----2D----2D----2D----2D----2D----2D

     Initial potential from superposition of free atoms

     starting charge     703.9054, renormalised to     704.0000

     negative rho (up, down):  3.052E-03 0.000E+00
     Starting wfcs are  480 randomized atomic wfcs
     Checking if some PAW data can be deallocated... 
       PAW data deallocated on   14 nodes for type:  1
       PAW data deallocated on    6 nodes for type:  2

     total cpu time spent up to now is       44.4 secs

     Self-consistent Calculation

     iteration #  1     ecut=    80.00 Ry     beta= 0.20
     Davidson diagonalization with overlap

---- Real-time Memory Report at c_bands before calling an iterative solver
           933 MiB given to the printing process from OS
             0 MiB allocation reported by mallinfo(arena+hblkhd)
        351442 MiB available memory on the node where the printing process lives
------------------
     ethr =  1.00E-02,  avg # of iterations =  2.0

     negative rho (up, down):  1.050E-03 0.000E+00

     total cpu time spent up to now is      111.9 secs

     total energy              =  -10889.58818799 Ry
     estimated scf accuracy    <      26.06777760 Ry

     iteration #  2     ecut=    80.00 Ry     beta= 0.20
     Davidson diagonalization with overlap

---- Real-time Memory Report at c_bands before calling an iterative solver
          1384 MiB given to the printing process from OS
             0 MiB allocation reported by mallinfo(arena+hblkhd)
        349508 MiB available memory on the node where the printing process lives
------------------
     ethr =  3.70E-03,  avg # of iterations =  2.0

     negative rho (up, down):  5.554E-04 0.000E+00

     total cpu time spent up to now is      185.9 secs

     total energy              =  -10886.87097401 Ry
     estimated scf accuracy    <       9.15218304 Ry

     iteration #  3     ecut=    80.00 Ry     beta= 0.20
     Davidson diagonalization with overlap

---- Real-time Memory Report at c_bands before calling an iterative solver
          1388 MiB given to the printing process from OS
             0 MiB allocation reported by mallinfo(arena+hblkhd)
        349534 MiB available memory on the node where the printing process lives
------------------
     ethr =  1.30E-03,  avg # of iterations = 10.5

     negative rho (up, down):  6.947E-04 0.000E+00

     total cpu time spent up to now is      327.5 secs

     total energy              =  -10892.59666960 Ry
     estimated scf accuracy    <       5.22828134 Ry

     iteration #  4     ecut=    80.00 Ry     beta= 0.20
     Davidson diagonalization with overlap

---- Real-time Memory Report at c_bands before calling an iterative solver
          1391 MiB given to the printing process from OS
             0 MiB allocation reported by mallinfo(arena+hblkhd)
        349428 MiB available memory on the node where the printing process lives
------------------
     ethr =  7.43E-04,  avg # of iterations =  6.0

     negative rho (up, down):  7.450E-04 0.000E+00

     total cpu time spent up to now is      426.5 secs

     total energy              =  -10894.28976762 Ry
     estimated scf accuracy    <       0.55488315 Ry

     iteration #  5     ecut=    80.00 Ry     beta= 0.20
     Davidson diagonalization with overlap

---- Real-time Memory Report at c_bands before calling an iterative solver
          1393 MiB given to the printing process from OS
             0 MiB allocation reported by mallinfo(arena+hblkhd)
        349333 MiB available memory on the node where the printing process lives
------------------
     c_bands:  1 eigenvalues not converged
     ethr =  7.88E-05,  avg # of iterations = 18.8

     negative rho (up, down):  9.497E-04 0.000E+00

     total cpu time spent up to now is      674.4 secs

     total energy              =  -10896.18163351 Ry
     estimated scf accuracy    <       1.20531246 Ry

     iteration #  6     ecut=    80.00 Ry     beta= 0.20
     Davidson diagonalization with overlap

---- Real-time Memory Report at c_bands before calling an iterative solver
          1396 MiB given to the printing process from OS
             0 MiB allocation reported by mallinfo(arena+hblkhd)
        349216 MiB available memory on the node where the printing process lives
------------------
     ethr =  7.88E-05,  avg # of iterations =  5.0

     negative rho (up, down):  1.739E-03 0.000E+00

     total cpu time spent up to now is      772.8 secs

     total energy              =  -10897.54768302 Ry
     estimated scf accuracy    <       2.32645516 Ry

     iteration #  7     ecut=    80.00 Ry     beta= 0.20
     Davidson diagonalization with overlap

---- Real-time Memory Report at c_bands before calling an iterative solver
          1400 MiB given to the printing process from OS
             0 MiB allocation reported by mallinfo(arena+hblkhd)
        349131 MiB available memory on the node where the printing process lives
------------------
     ethr =  7.88E-05,  avg # of iterations =  5.2

     negative rho (up, down):  2.119E-03 0.000E+00

     total cpu time spent up to now is      891.7 secs

     total energy              =  -10895.57967791 Ry
     estimated scf accuracy    <       8.81208361 Ry

     iteration #  8     ecut=    80.00 Ry     beta= 0.20
     Davidson diagonalization with overlap

---- Real-time Memory Report at c_bands before calling an iterative solver
          1401 MiB given to the printing process from OS
             0 MiB allocation reported by mallinfo(arena+hblkhd)
        349079 MiB available memory on the node where the printing process lives
------------------
     ethr =  7.88E-05,  avg # of iterations =  6.2

     negative rho (up, down):  2.741E-03 0.000E+00

     total cpu time spent up to now is     1022.8 secs

     total energy              =  -10896.24542508 Ry
     estimated scf accuracy    <       2.51418961 Ry

     iteration #  9     ecut=    80.00 Ry     beta= 0.20
     Davidson diagonalization with overlap

---- Real-time Memory Report at c_bands before calling an iterative solver
          1404 MiB given to the printing process from OS
             0 MiB allocation reported by mallinfo(arena+hblkhd)
        348865 MiB available memory on the node where the printing process lives
------------------
     ethr =  7.88E-05,  avg # of iterations =  1.2

     negative rho (up, down):  4.445E-03 0.000E+00

     total cpu time spent up to now is     1081.8 secs

     total energy              =  -10896.60180081 Ry
     estimated scf accuracy    <       2.71296131 Ry

     iteration # 10     ecut=    80.00 Ry     beta= 0.20
     Davidson diagonalization with overlap

---- Real-time Memory Report at c_bands before calling an iterative solver
          1406 MiB given to the printing process from OS
             0 MiB allocation reported by mallinfo(arena+hblkhd)
        348827 MiB available memory on the node where the printing process lives
------------------
     ethr =  7.88E-05,  avg # of iterations =  1.8

     negative rho (up, down):  6.264E-03 0.000E+00

     total cpu time spent up to now is     1144.7 secs

     total energy              =  -10896.91417877 Ry
     estimated scf accuracy    <       4.38799873 Ry

     iteration # 11     ecut=    80.00 Ry     beta= 0.20
     Davidson diagonalization with overlap

---- Real-time Memory Report at c_bands before calling an iterative solver
          1406 MiB given to the printing process from OS
             0 MiB allocation reported by mallinfo(arena+hblkhd)
        348794 MiB available memory on the node where the printing process lives
------------------
     ethr =  7.88E-05,  avg # of iterations =  2.0

     negative rho (up, down):  6.335E-03 0.000E+00

     total cpu time spent up to now is     1217.7 secs

     total energy              =  -10896.99240403 Ry
     estimated scf accuracy    <       7.17078748 Ry

     iteration # 12     ecut=    80.00 Ry     beta= 0.20
     Davidson diagonalization with overlap

---- Real-time Memory Report at c_bands before calling an iterative solver
          1406 MiB given to the printing process from OS
             0 MiB allocation reported by mallinfo(arena+hblkhd)
        348794 MiB available memory on the node where the printing process lives
------------------
     ethr =  7.88E-05,  avg # of iterations =  1.0

     negative rho (up, down):  7.106E-03 0.000E+00

     total cpu time spent up to now is     1274.9 secs

     total energy              =  -10897.39421107 Ry
     estimated scf accuracy    <       7.17385813 Ry

     iteration # 13     ecut=    80.00 Ry     beta= 0.20
     Davidson diagonalization with overlap

---- Real-time Memory Report at c_bands before calling an iterative solver
          1406 MiB given to the printing process from OS
             0 MiB allocation reported by mallinfo(arena+hblkhd)
        348835 MiB available memory on the node where the printing process lives
------------------
     ethr =  7.88E-05,  avg # of iterations =  2.0

     negative rho (up, down):  2.860E-03 0.000E+00

     total cpu time spent up to now is     1346.4 secs

     total energy              =  -10895.15389278 Ry
     estimated scf accuracy    <       8.79875557 Ry

     iteration # 14     ecut=    80.00 Ry     beta= 0.20
     Davidson diagonalization with overlap

---- Real-time Memory Report at c_bands before calling an iterative solver
          1406 MiB given to the printing process from OS
             0 MiB allocation reported by mallinfo(arena+hblkhd)
        348802 MiB available memory on the node where the printing process lives
------------------
     ethr =  7.88E-05,  avg # of iterations =  8.5

     negative rho (up, down):  3.490E-03 0.000E+00

     total cpu time spent up to now is     1482.7 secs

     total energy              =  -10896.01358434 Ry
     estimated scf accuracy    <       0.02451252 Ry

     iteration # 15     ecut=    80.00 Ry     beta= 0.20
     Davidson diagonalization with overlap

---- Real-time Memory Report at c_bands before calling an iterative solver
          1406 MiB given to the printing process from OS
             0 MiB allocation reported by mallinfo(arena+hblkhd)
        348781 MiB available memory on the node where the printing process lives
------------------
     ethr =  3.48E-06,  avg # of iterations = 15.5

     negative rho (up, down):  3.374E-03 0.000E+00

     total cpu time spent up to now is     1706.3 secs

     total energy              =  -10896.05741570 Ry
     estimated scf accuracy    <       0.06208335 Ry

     iteration # 16     ecut=    80.00 Ry     beta= 0.20
     Davidson diagonalization with overlap

---- Real-time Memory Report at c_bands before calling an iterative solver
          1406 MiB given to the printing process from OS
             0 MiB allocation reported by mallinfo(arena+hblkhd)
        348793 MiB available memory on the node where the printing process lives
------------------
     ethr =  3.48E-06,  avg # of iterations =  2.0

     negative rho (up, down):  3.451E-03 0.000E+00

     total cpu time spent up to now is     1777.7 secs

     total energy              =  -10896.05530743 Ry
     estimated scf accuracy    <       0.04277477 Ry

     iteration # 17     ecut=    80.00 Ry     beta= 0.20
     Davidson diagonalization with overlap

---- Real-time Memory Report at c_bands before calling an iterative solver
          1406 MiB given to the printing process from OS
             0 MiB allocation reported by mallinfo(arena+hblkhd)
        348812 MiB available memory on the node where the printing process lives
------------------
     ethr =  3.48E-06,  avg # of iterations = 11.0

     negative rho (up, down):  3.488E-03 0.000E+00

     total cpu time spent up to now is     1867.1 secs

     total energy              =  -10896.05295045 Ry
     estimated scf accuracy    <       0.03144490 Ry

     iteration # 18     ecut=    80.00 Ry     beta= 0.20
     Davidson diagonalization with overlap

---- Real-time Memory Report at c_bands before calling an iterative solver
          1407 MiB given to the printing process from OS
             0 MiB allocation reported by mallinfo(arena+hblkhd)
        348803 MiB available memory on the node where the printing process lives
------------------
     ethr =  3.48E-06,  avg # of iterations =  6.0

     negative rho (up, down):  3.397E-03 0.000E+00

     total cpu time spent up to now is     1945.2 secs

     total energy              =  -10896.06856231 Ry
     estimated scf accuracy    <       0.01457677 Ry

     iteration # 19     ecut=    80.00 Ry     beta= 0.20
     Davidson diagonalization with overlap

---- Real-time Memory Report at c_bands before calling an iterative solver
          1407 MiB given to the printing process from OS
             0 MiB allocation reported by mallinfo(arena+hblkhd)
        348789 MiB available memory on the node where the printing process lives
------------------
     ethr =  2.07E-06,  avg # of iterations =  6.0

     negative rho (up, down):  3.465E-03 0.000E+00

     total cpu time spent up to now is     2043.9 secs

     total energy              =  -10896.05936425 Ry
     estimated scf accuracy    <       0.05618986 Ry

     iteration # 20     ecut=    80.00 Ry     beta= 0.20
     Davidson diagonalization with overlap

---- Real-time Memory Report at c_bands before calling an iterative solver
          1407 MiB given to the printing process from OS
             0 MiB allocation reported by mallinfo(arena+hblkhd)
        348777 MiB available memory on the node where the printing process lives
------------------
     ethr =  2.07E-06,  avg # of iterations =  6.8

     negative rho (up, down):  3.523E-03 0.000E+00

     total cpu time spent up to now is     2141.9 secs

     total energy              =  -10896.05613263 Ry
     estimated scf accuracy    <       0.02075438 Ry

     iteration # 21     ecut=    80.00 Ry     beta= 0.20
     Davidson diagonalization with overlap

---- Real-time Memory Report at c_bands before calling an iterative solver
          1407 MiB given to the printing process from OS
             0 MiB allocation reported by mallinfo(arena+hblkhd)
        348777 MiB available memory on the node where the printing process lives
------------------
     ethr =  2.07E-06,  avg # of iterations =  5.0

     negative rho (up, down):  3.497E-03 0.000E+00

     total cpu time spent up to now is     2243.0 secs

     total energy              =  -10896.06091152 Ry
     estimated scf accuracy    <       0.00301519 Ry

     iteration # 22     ecut=    80.00 Ry     beta= 0.20
     Davidson diagonalization with overlap

---- Real-time Memory Report at c_bands before calling an iterative solver
          1407 MiB given to the printing process from OS
             0 MiB allocation reported by mallinfo(arena+hblkhd)
        348757 MiB available memory on the node where the printing process lives
------------------
     ethr =  4.28E-07,  avg # of iterations = 11.5

     negative rho (up, down):  3.460E-03 0.000E+00

     total cpu time spent up to now is     2369.8 secs

     total energy              =  -10896.06284621 Ry
     estimated scf accuracy    <       0.00300972 Ry

     iteration # 23     ecut=    80.00 Ry     beta= 0.20
     Davidson diagonalization with overlap

---- Real-time Memory Report at c_bands before calling an iterative solver
          1407 MiB given to the printing process from OS
             0 MiB allocation reported by mallinfo(arena+hblkhd)
        348768 MiB available memory on the node where the printing process lives
------------------
     ethr =  4.28E-07,  avg # of iterations =  2.5

     negative rho (up, down):  3.434E-03 0.000E+00

     total cpu time spent up to now is     2438.7 secs

     total energy              =  -10896.06302698 Ry
     estimated scf accuracy    <       0.00352186 Ry

     iteration # 24     ecut=    80.00 Ry     beta= 0.20
     Davidson diagonalization with overlap

---- Real-time Memory Report at c_bands before calling an iterative solver
          1407 MiB given to the printing process from OS
             0 MiB allocation reported by mallinfo(arena+hblkhd)
        348774 MiB available memory on the node where the printing process lives
------------------
     ethr =  4.28E-07,  avg # of iterations =  2.0

     negative rho (up, down):  3.447E-03 0.000E+00

     total cpu time spent up to now is     2503.6 secs

     total energy              =  -10896.06342192 Ry
     estimated scf accuracy    <       0.00362577 Ry

     iteration # 25     ecut=    80.00 Ry     beta= 0.20
     Davidson diagonalization with overlap

---- Real-time Memory Report at c_bands before calling an iterative solver
          1407 MiB given to the printing process from OS
             0 MiB allocation reported by mallinfo(arena+hblkhd)
        348761 MiB available memory on the node where the printing process lives
------------------
     ethr =  4.28E-07,  avg # of iterations =  2.0

     negative rho (up, down):  3.417E-03 0.000E+00

     total cpu time spent up to now is     2570.9 secs

     total energy              =  -10896.06350887 Ry
     estimated scf accuracy    <       0.00454045 Ry

     iteration # 26     ecut=    80.00 Ry     beta= 0.20
     Davidson diagonalization with overlap

---- Real-time Memory Report at c_bands before calling an iterative solver
          1409 MiB given to the printing process from OS
             0 MiB allocation reported by mallinfo(arena+hblkhd)
        348753 MiB available memory on the node where the printing process lives
------------------
     ethr =  4.28E-07,  avg # of iterations =  2.0

     negative rho (up, down):  3.426E-03 0.000E+00

     total cpu time spent up to now is     2636.5 secs

     total energy              =  -10896.06174431 Ry
     estimated scf accuracy    <       0.00453948 Ry

     iteration # 27     ecut=    80.00 Ry     beta= 0.20
     Davidson diagonalization with overlap

---- Real-time Memory Report at c_bands before calling an iterative solver
          1411 MiB given to the printing process from OS
             0 MiB allocation reported by mallinfo(arena+hblkhd)
        348752 MiB available memory on the node where the printing process lives
------------------
     ethr =  4.28E-07,  avg # of iterations =  4.5

     negative rho (up, down):  3.473E-03 0.000E+00

     total cpu time spent up to now is     2734.4 secs

     total energy              =  -10896.06273696 Ry
     estimated scf accuracy    <       0.00036132 Ry

     iteration # 28     ecut=    80.00 Ry     beta= 0.20
     Davidson diagonalization with overlap

---- Real-time Memory Report at c_bands before calling an iterative solver
          1411 MiB given to the printing process from OS
             0 MiB allocation reported by mallinfo(arena+hblkhd)
        348728 MiB available memory on the node where the printing process lives
------------------
     ethr =  5.13E-08,  avg # of iterations = 15.5

     negative rho (up, down):  3.458E-03 0.000E+00

     total cpu time spent up to now is     2936.4 secs

     total energy              =  -10896.06310042 Ry
     estimated scf accuracy    <       0.00027517 Ry

     iteration # 29     ecut=    80.00 Ry     beta= 0.20
     Davidson diagonalization with overlap

---- Real-time Memory Report at c_bands before calling an iterative solver
          1411 MiB given to the printing process from OS
             0 MiB allocation reported by mallinfo(arena+hblkhd)
        348775 MiB available memory on the node where the printing process lives
------------------
     ethr =  3.91E-08,  avg # of iterations =  4.5

     negative rho (up, down):  3.397E-03 0.000E+00

     total cpu time spent up to now is     3031.8 secs

     total energy              =  -10896.06312312 Ry
     estimated scf accuracy    <       0.00011946 Ry

     iteration # 30     ecut=    80.00 Ry     beta= 0.20
     Davidson diagonalization with overlap

---- Real-time Memory Report at c_bands before calling an iterative solver
          1417 MiB given to the printing process from OS
             0 MiB allocation reported by mallinfo(arena+hblkhd)
        348732 MiB available memory on the node where the printing process lives
------------------
     ethr =  1.70E-08,  avg # of iterations =  9.5

     negative rho (up, down):  3.392E-03 0.000E+00

     total cpu time spent up to now is     3203.9 secs

     total energy              =  -10896.06317395 Ry
     estimated scf accuracy    <       0.00036490 Ry

     iteration # 31     ecut=    80.00 Ry     beta= 0.20
     Davidson diagonalization with overlap

---- Real-time Memory Report at c_bands before calling an iterative solver
          1417 MiB given to the printing process from OS
             0 MiB allocation reported by mallinfo(arena+hblkhd)
        348761 MiB available memory on the node where the printing process lives
------------------
     ethr =  1.70E-08,  avg # of iterations =  9.0

     negative rho (up, down):  3.398E-03 0.000E+00

     total cpu time spent up to now is     3322.4 secs

     total energy              =  -10896.06319111 Ry
     estimated scf accuracy    <       0.00007950 Ry

     iteration # 32     ecut=    80.00 Ry     beta= 0.20
     Davidson diagonalization with overlap

---- Real-time Memory Report at c_bands before calling an iterative solver
          1417 MiB given to the printing process from OS
             0 MiB allocation reported by mallinfo(arena+hblkhd)
        348711 MiB available memory on the node where the printing process lives
------------------
     ethr =  1.13E-08,  avg # of iterations =  5.5

     negative rho (up, down):  3.385E-03 0.000E+00

     total cpu time spent up to now is     3438.6 secs

     total energy              =  -10896.06323536 Ry
     estimated scf accuracy    <       0.00002760 Ry

     iteration # 33     ecut=    80.00 Ry     beta= 0.20
     Davidson diagonalization with overlap

---- Real-time Memory Report at c_bands before calling an iterative solver
          1417 MiB given to the printing process from OS
             0 MiB allocation reported by mallinfo(arena+hblkhd)
        348727 MiB available memory on the node where the printing process lives
------------------
     ethr =  3.92E-09,  avg # of iterations =  9.8

     negative rho (up, down):  3.380E-03 0.000E+00

     total cpu time spent up to now is     3550.1 secs

     total energy              =  -10896.06324539 Ry
     estimated scf accuracy    <       0.00000481 Ry

     iteration # 34     ecut=    80.00 Ry     beta= 0.20
     Davidson diagonalization with overlap

---- Real-time Memory Report at c_bands before calling an iterative solver
          1417 MiB given to the printing process from OS
             0 MiB allocation reported by mallinfo(arena+hblkhd)
        348725 MiB available memory on the node where the printing process lives
------------------
     ethr =  6.84E-10,  avg # of iterations = 16.8

     negative rho (up, down):  3.379E-03 0.000E+00

     total cpu time spent up to now is     3843.8 secs

     total energy              =  -10896.06325680 Ry
     estimated scf accuracy    <       0.00000332 Ry

     iteration # 35     ecut=    80.00 Ry     beta= 0.20
     Davidson diagonalization with overlap

---- Real-time Memory Report at c_bands before calling an iterative solver
          1417 MiB given to the printing process from OS
             0 MiB allocation reported by mallinfo(arena+hblkhd)
        348722 MiB available memory on the node where the printing process lives
------------------
     ethr =  4.72E-10,  avg # of iterations =  4.5

     negative rho (up, down):  3.372E-03 0.000E+00

     total cpu time spent up to now is     3913.0 secs

     total energy              =  -10896.06325679 Ry
     estimated scf accuracy    <       0.00000122 Ry

     iteration # 36     ecut=    80.00 Ry     beta= 0.20
     Davidson diagonalization with overlap

---- Real-time Memory Report at c_bands before calling an iterative solver
          1417 MiB given to the printing process from OS
             0 MiB allocation reported by mallinfo(arena+hblkhd)
        348670 MiB available memory on the node where the printing process lives
------------------
     ethr =  1.73E-10,  avg # of iterations =  7.5

     negative rho (up, down):  3.361E-03 0.000E+00

     total cpu time spent up to now is     4060.3 secs

     total energy              =  -10896.06325755 Ry
     estimated scf accuracy    <       0.00000072 Ry

     iteration # 37     ecut=    80.00 Ry     beta= 0.20
     Davidson diagonalization with overlap

---- Real-time Memory Report at c_bands before calling an iterative solver
          1417 MiB given to the printing process from OS
             0 MiB allocation reported by mallinfo(arena+hblkhd)
        348721 MiB available memory on the node where the printing process lives
------------------
     ethr =  1.03E-10,  avg # of iterations = 11.0

     negative rho (up, down):  3.359E-03 0.000E+00

     total cpu time spent up to now is     4220.9 secs

     total energy              =  -10896.06325812 Ry
     estimated scf accuracy    <       0.00000040 Ry

     iteration # 38     ecut=    80.00 Ry     beta= 0.20
     Davidson diagonalization with overlap

---- Real-time Memory Report at c_bands before calling an iterative solver
          1417 MiB given to the printing process from OS
             0 MiB allocation reported by mallinfo(arena+hblkhd)
        348683 MiB available memory on the node where the printing process lives
------------------
     c_bands:  3 eigenvalues not converged
     ethr =  5.71E-11,  avg # of iterations = 13.2

     negative rho (up, down):  3.357E-03 0.000E+00

     total cpu time spent up to now is     4360.6 secs

     total energy              =  -10896.06325840 Ry
     estimated scf accuracy    <       0.00000010 Ry

     iteration # 39     ecut=    80.00 Ry     beta= 0.20
     Davidson diagonalization with overlap

---- Real-time Memory Report at c_bands before calling an iterative solver
          1417 MiB given to the printing process from OS
             0 MiB allocation reported by mallinfo(arena+hblkhd)
        348684 MiB available memory on the node where the printing process lives
------------------
     c_bands:  1 eigenvalues not converged
     ethr =  1.38E-11,  avg # of iterations = 19.8

     negative rho (up, down):  3.356E-03 0.000E+00

     total cpu time spent up to now is     4699.7 secs

     total energy              =  -10896.06325867 Ry
     estimated scf accuracy    <       0.00000003 Ry

     iteration # 40     ecut=    80.00 Ry     beta= 0.20
     Davidson diagonalization with overlap

---- Real-time Memory Report at c_bands before calling an iterative solver
          1417 MiB given to the printing process from OS
             0 MiB allocation reported by mallinfo(arena+hblkhd)
        347353 MiB available memory on the node where the printing process lives
------------------
     ethr =  4.12E-12,  avg # of iterations = 12.8

     negative rho (up, down):  3.355E-03 0.000E+00

     total cpu time spent up to now is     4936.8 secs

     total energy              =  -10896.06325872 Ry
     estimated scf accuracy    <       0.00000001 Ry

     iteration # 41     ecut=    80.00 Ry     beta= 0.20
     Davidson diagonalization with overlap

---- Real-time Memory Report at c_bands before calling an iterative solver
          1417 MiB given to the printing process from OS
             0 MiB allocation reported by mallinfo(arena+hblkhd)
        348875 MiB available memory on the node where the printing process lives
------------------
     ethr =  2.04E-12,  avg # of iterations = 11.0

     negative rho (up, down):  3.354E-03 0.000E+00

     total cpu time spent up to now is     5127.4 secs

     total energy              =  -10896.06325873 Ry
     estimated scf accuracy    <       0.00000002 Ry

     iteration # 42     ecut=    80.00 Ry     beta= 0.20
     Davidson diagonalization with overlap

---- Real-time Memory Report at c_bands before calling an iterative solver
          1417 MiB given to the printing process from OS
             0 MiB allocation reported by mallinfo(arena+hblkhd)
        348841 MiB available memory on the node where the printing process lives
------------------
     ethr =  2.04E-12,  avg # of iterations =  6.8

     negative rho (up, down):  3.354E-03 0.000E+00

     total cpu time spent up to now is     5221.0 secs

     End of self-consistent calculation

          k = 0.0000 0.0000 0.0000 (360677 PWs)   bands (ev):

   -25.0701 -25.0551 -24.9771 -24.9620 -24.7843 -24.7843 -24.7692 -24.7692
   -24.7321 -24.7321 -24.7169 -24.7169 -24.2904 -24.2870 -24.2748 -24.2692
   -24.2596 -24.2582 -24.2478 -24.2436 -24.1598 -24.1449 -24.0829 -24.0829
   -24.0680 -24.0680 -24.0643 -24.0642 -24.0601 -24.0492 -24.0492 -24.0449
   -23.8188 -23.8188 -23.8132 -23.8039 -23.8039 -23.7982 -23.7959 -23.7811
   -23.7747 -23.7747 -23.7663 -23.7623 -23.7597 -23.7597 -23.7509 -23.7477
   -20.0904 -20.0754 -20.0454 -20.0454 -20.0306 -20.0306 -20.0189 -20.0109
   -20.0109 -20.0040 -20.0039 -20.0011 -19.9959 -19.9959 -19.9893 -19.9859
   -19.9469 -19.9319 -19.9110 -19.9024 -19.9024 -19.9018 -19.9018 -19.8963
   -19.8961 -19.8881 -19.8875 -19.8875 -19.8868 -19.8868 -19.8808 -19.8795
   -19.8795 -19.8780 -19.8755 -19.8731 -19.8716 -19.8672 -19.8645 -19.8645
   -19.8632 -19.8612 -19.8591 -19.8591 -19.8570 -19.8562 -19.8522 -19.8522
   -19.8520 -19.8474 -19.8474 -19.8442 -19.8440 -19.8440 -19.8421 -19.8373
   -19.8373 -19.8325 -19.8325 -19.8293 -19.8250 -19.8244 -19.8244 -19.8211
   -19.8211 -19.8111 -19.8101 -19.8095 -19.8095 -19.8060 -19.8060 -19.7959
   -19.7901 -19.7826 -19.7749 -19.7738 -19.7702 -19.7675 -19.7648 -19.7601
   -19.7596 -19.7584 -19.7552 -19.7501 -19.7465 -19.7453 -19.7444 -19.7444
   -19.7442 -19.7321 -19.7307 -19.7307 -19.7294 -19.7294 -19.7217 -19.7211
   -19.7159 -19.7159 -19.7147 -19.7147 -19.7070 -19.7062 -19.7021 -19.7021
   -19.6996 -19.6996 -19.6899 -19.6899 -19.6872 -19.6872 -19.6753 -19.6747
   -19.6158 -19.6009 -19.5938 -19.5839 -19.5839 -19.5790 -19.5691 -19.5691
   -19.5268 -19.5268 -19.5117 -19.5117 -19.3884 -19.3801 -19.3774 -19.3723
   -19.3654 -19.3621 -19.3122 -19.3122 -19.2967 -19.2967 -19.2548 -19.2516
   -19.2405 -19.2367 -19.1301 -19.1121 -19.1108 -19.1108 -19.0971 -19.0971
   -19.0895 -19.0775 -19.0045 -19.0014 -19.0014 -18.9896 -18.9848 -18.9848
   -18.9446 -18.9432 -18.9306 -18.9274 -18.9274 -18.9270 -18.9133 -18.9133
   -13.0636 -13.0480 -13.0418 -13.0271 -12.8682 -12.8533 -12.7973 -12.7973
   -12.7828 -12.7828 -12.4547 -12.4401 -12.4300 -12.4137 -12.2432 -12.2432
   -12.2277 -12.2277 -11.6821 -11.6673 -11.5372 -11.5372 -11.5206 -11.5206
   -11.2279 -11.2279 -11.2135 -11.2135 -10.8248 -10.8248 -10.8061 -10.8061
   -10.6542 -10.6415 -10.6302 -10.6173 -10.5646 -10.5646 -10.5493 -10.5493
   -10.5371 -10.5173 -10.4656 -10.4511 -10.4351 -10.4181  -9.9594  -9.9593
    -9.9427  -9.9427  -9.8922  -9.8771  -9.8447  -9.8297  -9.7320  -9.7174
    -9.6982  -9.6826  -9.3468  -9.3468  -9.3309  -9.3309  -9.2549  -9.2368
    -9.2150  -9.2023  -9.1694  -9.1694  -9.1543  -9.1543  -8.9461  -8.9461
    -8.9198  -8.9198  -8.7303  -8.7148  -8.5999  -8.5851  -8.5530  -8.5530
    -8.5375  -8.5375  -8.5177  -8.5020  -8.4740  -8.4740  -8.4561  -8.4546
    -8.4490  -8.4490  -8.4401  -8.4393  -8.3094  -8.2945  -8.2247  -8.2044
    -8.1867  -8.1428  -8.1375  -8.1262  -8.1164  -8.1060  -7.8386  -7.7730
    -7.7633  -7.7471  -7.7422  -7.7422  -7.7294  -7.7294  -7.7243  -7.7063
    -7.6421  -7.6421  -7.6234  -7.6234  -7.5849  -7.5471  -7.5315  -7.5315
    -7.5109  -7.5109  -7.5003  -7.5003  -7.4776  -7.4776  -7.4571  -7.4571
    -7.4321  -7.4321  -7.4080  -7.3925  -7.3697  -7.3667  -7.3667  -7.3532
    -7.3527  -7.3527  -7.3407  -7.3267  -7.0645  -7.0493  -7.0362  -7.0215

     occupation numbers 
     1.0000   1.0000   1.0000   1.0000   1.0000   1.0000   1.0000   1.0000
     1.0000   1.0000   1.0000   1.0000   1.0000   1.0000   1.0000   1.0000
     1.0000   1.0000   1.0000   1.0000   1.0000   1.0000   1.0000   1.0000
     1.0000   1.0000   1.0000   1.0000   1.0000   1.0000   1.0000   1.0000
     1.0000   1.0000   1.0000   1.0000   1.0000   1.0000   1.0000   1.0000
     1.0000   1.0000   1.0000   1.0000   1.0000   1.0000   1.0000   1.0000
     1.0000   1.0000   1.0000   1.0000   1.0000   1.0000   1.0000   1.0000
     1.0000   1.0000   1.0000   1.0000   1.0000   1.0000   1.0000   1.0000
     1.0000   1.0000   1.0000   1.0000   1.0000   1.0000   1.0000   1.0000
     1.0000   1.0000   1.0000   1.0000   1.0000   1.0000   1.0000   1.0000
     1.0000   1.0000   1.0000   1.0000   1.0000   1.0000   1.0000   1.0000
     1.0000   1.0000   1.0000   1.0000   1.0000   1.0000   1.0000   1.0000
     1.0000   1.0000   1.0000   1.0000   1.0000   1.0000   1.0000   1.0000
     1.0000   1.0000   1.0000   1.0000   1.0000   1.0000   1.0000   1.0000
     1.0000   1.0000   1.0000   1.0000   1.0000   1.0000   1.0000   1.0000
     1.0000   1.0000   1.0000   1.0000   1.0000   1.0000   1.0000   1.0000
     1.0000   1.0000   1.0000   1.0000   1.0000   1.0000   1.0000   1.0000
     1.0000   1.0000   1.0000   1.0000   1.0000   1.0000   1.0000   1.0000
     1.0000   1.0000   1.0000   1.0000   1.0000   1.0000   1.0000   1.0000
     1.0000   1.0000   1.0000   1.0000   1.0000   1.0000   1.0000   1.0000
     1.0000   1.0000   1.0000   1.0000   1.0000   1.0000   1.0000   1.0000
     1.0000   1.0000   1.0000   1.0000   1.0000   1.0000   1.0000   1.0000
     1.0000   1.0000   1.0000   1.0000   1.0000   1.0000   1.0000   1.0000
     1.0000   1.0000   1.0000   1.0000   1.0000   1.0000   1.0000   1.0000
     1.0000   1.0000   1.0000   1.0000   1.0000   1.0000   1.0000   1.0000
     1.0000   1.0000   1.0000   1.0000   1.0000   1.0000   1.0000   1.0000
     1.0000   1.0000   1.0000   1.0000   1.0000   1.0000   1.0000   1.0000
     1.0000   1.0000   1.0000   1.0000   1.0000   1.0000   1.0000   1.0000
     1.0000   1.0000   1.0000   1.0000   1.0000   1.0000   1.0000   1.0000
     1.0000   1.0000   1.0000   1.0000   1.0000   1.0000   1.0000   1.0000
     1.0000   1.0000   1.0000   1.0000   1.0000   1.0000   1.0000   1.0000
     1.0000   1.0000   1.0000   1.0000   1.0000   1.0000   1.0000   1.0000
     1.0000   1.0000   1.0000   1.0000   1.0000   1.0000   1.0000   1.0000
     1.0000   1.0000   1.0000   1.0000   1.0000   1.0000   1.0000   1.0000
     1.0000   1.0000   1.0000   1.0000   1.0000   1.0000   1.0000   1.0000
     1.0000   1.0000   1.0000   1.0000   1.0000   1.0000   1.0000   1.0000
     1.0000   1.0000   1.0000   1.0000   1.0000   1.0000   1.0000   1.0000
     1.0000   1.0000   1.0000   1.0000   1.0000   1.0000   1.0000   1.0000
     1.0000   1.0000   1.0000   1.0000   1.0000   1.0000   1.0000   1.0000
     1.0000   1.0000   1.0000   1.0000   1.0000   1.0000   1.0000   1.0000
     1.0000   1.0000   1.0000   1.0000   1.0000   1.0000   1.0000   1.0000
     1.0000   1.0000   1.0000   1.0000   1.0000   1.0000   1.0000   1.0000
     1.0000   1.0000   1.0000   1.0000   1.0000   1.0000   1.0000   1.0000
     1.0000   1.0000   1.0000   1.0000   1.0000   1.0000   1.0000   1.0000

          k = 0.0247-0.5725 0.0000 (360514 PWs)   bands (ev):

   -25.0264 -25.0264 -25.0113 -25.0113 -24.7836 -24.7836 -24.7685 -24.7685
   -24.7328 -24.7328 -24.7178 -24.7178 -24.2888 -24.2888 -24.2723 -24.2723
   -24.2588 -24.2588 -24.2454 -24.2454 -24.1061 -24.1061 -24.0911 -24.0911
   -24.0813 -24.0813 -24.0664 -24.0664 -24.0655 -24.0655 -24.0505 -24.0505
   -23.8202 -23.8202 -23.8057 -23.8056 -23.8051 -23.8051 -23.7907 -23.7907
   -23.7735 -23.7735 -23.7643 -23.7643 -23.7587 -23.7586 -23.7493 -23.7493
   -20.0570 -20.0570 -20.0439 -20.0439 -20.0421 -20.0421 -20.0288 -20.0288
   -20.0125 -20.0124 -20.0022 -20.0022 -19.9977 -19.9977 -19.9873 -19.9872
   -19.9296 -19.9296 -19.9146 -19.9146 -19.9082 -19.9082 -19.8976 -19.8976
   -19.8934 -19.8934 -19.8863 -19.8863 -19.8826 -19.8826 -19.8780 -19.8780
   -19.8755 -19.8755 -19.8712 -19.8712 -19.8691 -19.8691 -19.8643 -19.8643
   -19.8633 -19.8633 -19.8604 -19.8604 -19.8580 -19.8580 -19.8539 -19.8539
   -19.8531 -19.8531 -19.8491 -19.8491 -19.8446 -19.8446 -19.8431 -19.8431
   -19.8384 -19.8384 -19.8296 -19.8296 -19.8231 -19.8231 -19.8225 -19.8225
   -19.8218 -19.8218 -19.8081 -19.8081 -19.8074 -19.8074 -19.8068 -19.8068
   -19.7896 -19.7896 -19.7745 -19.7745 -19.7721 -19.7721 -19.7637 -19.7637
   -19.7572 -19.7572 -19.7486 -19.7486 -19.7466 -19.7466 -19.7420 -19.7420
   -19.7362 -19.7362 -19.7318 -19.7318 -19.7271 -19.7271 -19.7211 -19.7211
   -19.7114 -19.7114 -19.7076 -19.7076 -19.7068 -19.7068 -19.6971 -19.6971
   -19.6967 -19.6967 -19.6929 -19.6929 -19.6918 -19.6918 -19.6821 -19.6821
   -19.6046 -19.6046 -19.5897 -19.5897 -19.5776 -19.5776 -19.5626 -19.5626
   -19.5398 -19.5398 -19.5250 -19.5250 -19.3821 -19.3821 -19.3667 -19.3667
   -19.2837 -19.2837 -19.2689 -19.2689 -19.2665 -19.2665 -19.2563 -19.2563
   -19.2511 -19.2511 -19.2417 -19.2417 -19.1516 -19.1516 -19.1352 -19.1352
   -19.0296 -19.0296 -19.0150 -19.0149 -18.9694 -18.9694 -18.9562 -18.9562
   -18.9434 -18.9434 -18.9404 -18.9404 -18.9283 -18.9283 -18.9247 -18.9247
   -13.0531 -13.0531 -13.0379 -13.0379 -12.8037 -12.8037 -12.7883 -12.7883
   -12.4414 -12.4414 -12.4278 -12.4278 -12.4260 -12.4260 -12.4129 -12.4129
   -12.2189 -12.2189 -12.2043 -12.2043 -11.5701 -11.5701 -11.5558 -11.5558
   -11.2143 -11.2143 -11.1973 -11.1973 -10.8052 -10.8052 -10.7889 -10.7889
   -10.6101 -10.6101 -10.6013 -10.6013 -10.5928 -10.5928 -10.5842 -10.5842
   -10.4005 -10.4005 -10.3850 -10.3850 -10.0121 -10.0121  -9.9970  -9.9970
    -9.9366  -9.9366  -9.9190  -9.9190  -9.8398  -9.8398  -9.8247  -9.8247
    -9.4278  -9.4278  -9.4124  -9.4124  -9.3570  -9.3570  -9.3387  -9.3387
    -9.2101  -9.2101  -9.1947  -9.1947  -9.1471  -9.1471  -9.1315  -9.1315
    -8.9688  -8.9688  -8.9449  -8.9449  -8.6269  -8.6269  -8.6121  -8.6121
    -8.5559  -8.5559  -8.5409  -8.5409  -8.4662  -8.4662  -8.4398  -8.4398
    -8.2645  -8.2645  -8.2474  -8.2474  -8.2243  -8.2243  -8.1967  -8.1967
    -8.1950  -8.1950  -8.1780  -8.1780  -7.8979  -7.8979  -7.8445  -7.8445
    -7.8119  -7.8119  -7.7950  -7.7950  -7.7440  -7.7440  -7.7244  -7.7244
    -7.6292  -7.6292  -7.6132  -7.6132  -7.5616  -7.5616  -7.5389  -7.5389
    -7.5187  -7.5187  -7.5059  -7.5059  -7.4865  -7.4865  -7.4641  -7.4641
    -7.4557  -7.4557  -7.4360  -7.4360  -7.4030  -7.4030  -7.3857  -7.3857
    -7.3658  -7.3658  -7.3507  -7.3506  -7.0455  -7.0455  -7.0306  -7.0306

     occupation numbers 
     1.0000   1.0000   1.0000   1.0000   1.0000   1.0000   1.0000   1.0000
     1.0000   1.0000   1.0000   1.0000   1.0000   1.0000   1.0000   1.0000
     1.0000   1.0000   1.0000   1.0000   1.0000   1.0000   1.0000   1.0000
     1.0000   1.0000   1.0000   1.0000   1.0000   1.0000   1.0000   1.0000
     1.0000   1.0000   1.0000   1.0000   1.0000   1.0000   1.0000   1.0000
     1.0000   1.0000   1.0000   1.0000   1.0000   1.0000   1.0000   1.0000
     1.0000   1.0000   1.0000   1.0000   1.0000   1.0000   1.0000   1.0000
     1.0000   1.0000   1.0000   1.0000   1.0000   1.0000   1.0000   1.0000
     1.0000   1.0000   1.0000   1.0000   1.0000   1.0000   1.0000   1.0000
     1.0000   1.0000   1.0000   1.0000   1.0000   1.0000   1.0000   1.0000
     1.0000   1.0000   1.0000   1.0000   1.0000   1.0000   1.0000   1.0000
     1.0000   1.0000   1.0000   1.0000   1.0000   1.0000   1.0000   1.0000
     1.0000   1.0000   1.0000   1.0000   1.0000   1.0000   1.0000   1.0000
     1.0000   1.0000   1.0000   1.0000   1.0000   1.0000   1.0000   1.0000
     1.0000   1.0000   1.0000   1.0000   1.0000   1.0000   1.0000   1.0000
     1.0000   1.0000   1.0000   1.0000   1.0000   1.0000   1.0000   1.0000
     1.0000   1.0000   1.0000   1.0000   1.0000   1.0000   1.0000   1.0000
     1.0000   1.0000   1.0000   1.0000   1.0000   1.0000   1.0000   1.0000
     1.0000   1.0000   1.0000   1.0000   1.0000   1.0000   1.0000   1.0000
     1.0000   1.0000   1.0000   1.0000   1.0000   1.0000   1.0000   1.0000
     1.0000   1.0000   1.0000   1.0000   1.0000   1.0000   1.0000   1.0000
     1.0000   1.0000   1.0000   1.0000   1.0000   1.0000   1.0000   1.0000
     1.0000   1.0000   1.0000   1.0000   1.0000   1.0000   1.0000   1.0000
     1.0000   1.0000   1.0000   1.0000   1.0000   1.0000   1.0000   1.0000
     1.0000   1.0000   1.0000   1.0000   1.0000   1.0000   1.0000   1.0000
     1.0000   1.0000   1.0000   1.0000   1.0000   1.0000   1.0000   1.0000
     1.0000   1.0000   1.0000   1.0000   1.0000   1.0000   1.0000   1.0000
     1.0000   1.0000   1.0000   1.0000   1.0000   1.0000   1.0000   1.0000
     1.0000   1.0000   1.0000   1.0000   1.0000   1.0000   1.0000   1.0000
     1.0000   1.0000   1.0000   1.0000   1.0000   1.0000   1.0000   1.0000
     1.0000   1.0000   1.0000   1.0000   1.0000   1.0000   1.0000   1.0000
     1.0000   1.0000   1.0000   1.0000   1.0000   1.0000   1.0000   1.0000
     1.0000   1.0000   1.0000   1.0000   1.0000   1.0000   1.0000   1.0000
     1.0000   1.0000   1.0000   1.0000   1.0000   1.0000   1.0000   1.0000
     1.0000   1.0000   1.0000   1.0000   1.0000   1.0000   1.0000   1.0000
     1.0000   1.0000   1.0000   1.0000   1.0000   1.0000   1.0000   1.0000
     1.0000   1.0000   1.0000   1.0000   1.0000   1.0000   1.0000   1.0000
     1.0000   1.0000   1.0000   1.0000   1.0000   1.0000   1.0000   1.0000
     1.0000   1.0000   1.0000   1.0000   1.0000   1.0000   1.0000   1.0000
     1.0000   1.0000   1.0000   1.0000   1.0000   1.0000   1.0000   1.0000
     1.0000   1.0000   1.0000   1.0000   1.0000   1.0000   1.0000   1.0000
     1.0000   1.0000   1.0000   1.0000   1.0000   1.0000   1.0000   1.0000
     1.0000   1.0000   1.0000   1.0000   1.0000   1.0000   1.0000   1.0000
     1.0000   1.0000   1.0000   1.0000   1.0000   1.0000   1.0000   1.0000

          k =-0.5052 0.1105 0.0000 (360696 PWs)   bands (ev):

   -24.9923 -24.9923 -24.9772 -24.9772 -24.9107 -24.9107 -24.8956 -24.8956
   -24.5158 -24.5158 -24.5008 -24.5008 -24.4969 -24.4969 -24.4818 -24.4818
   -24.1294 -24.1294 -24.1229 -24.1229 -24.1206 -24.1206 -24.1145 -24.1145
   -24.1079 -24.1079 -24.1058 -24.1058 -24.0580 -24.0580 -24.0428 -24.0428
   -23.8181 -23.8180 -23.8030 -23.8030 -23.7878 -23.7878 -23.7863 -23.7863
   -23.7730 -23.7730 -23.7716 -23.7716 -23.7682 -23.7682 -23.7530 -23.7529
   -20.0779 -20.0779 -20.0630 -20.0630 -20.0186 -20.0185 -20.0143 -20.0143
   -20.0037 -20.0037 -20.0035 -20.0034 -19.9996 -19.9996 -19.9883 -19.9883
   -19.9375 -19.9375 -19.9225 -19.9225 -19.9214 -19.9214 -19.9065 -19.9065
   -19.8960 -19.8960 -19.8867 -19.8867 -19.8810 -19.8810 -19.8745 -19.8745
   -19.8740 -19.8740 -19.8716 -19.8716 -19.8622 -19.8622 -19.8600 -19.8600
   -19.8591 -19.8590 -19.8551 -19.8551 -19.8493 -19.8493 -19.8470 -19.8470
   -19.8451 -19.8451 -19.8432 -19.8432 -19.8420 -19.8420 -19.8403 -19.8403
   -19.8344 -19.8343 -19.8302 -19.8302 -19.8284 -19.8284 -19.8268 -19.8268
   -19.8026 -19.8026 -19.7964 -19.7964 -19.7917 -19.7917 -19.7916 -19.7916
   -19.7874 -19.7874 -19.7814 -19.7814 -19.7767 -19.7767 -19.7766 -19.7766
   -19.7652 -19.7652 -19.7504 -19.7504 -19.7500 -19.7500 -19.7393 -19.7393
   -19.7353 -19.7353 -19.7335 -19.7335 -19.7282 -19.7282 -19.7246 -19.7246
   -19.7222 -19.7222 -19.7188 -19.7188 -19.7133 -19.7133 -19.7073 -19.7073
   -19.6988 -19.6988 -19.6919 -19.6918 -19.6840 -19.6839 -19.6769 -19.6768
   -19.6141 -19.6141 -19.5992 -19.5992 -19.5772 -19.5772 -19.5623 -19.5623
   -19.4889 -19.4889 -19.4740 -19.4740 -19.4522 -19.4522 -19.4367 -19.4367
   -19.3611 -19.3611 -19.3457 -19.3457 -19.2589 -19.2589 -19.2437 -19.2437
   -19.1621 -19.1621 -19.1480 -19.1480 -19.1160 -19.1160 -19.1004 -19.1004
   -19.0642 -19.0642 -19.0497 -19.0497 -18.9753 -18.9753 -18.9607 -18.9607
   -18.9551 -18.9550 -18.9385 -18.9385 -18.9253 -18.9253 -18.9115 -18.9115
   -12.9770 -12.9770 -12.9625 -12.9625 -12.8264 -12.8264 -12.8119 -12.8119
   -12.8108 -12.8108 -12.7971 -12.7971 -12.1563 -12.1563 -12.1398 -12.1398
   -12.0472 -12.0472 -12.0326 -12.0326 -11.8010 -11.8010 -11.7860 -11.7860
   -10.8633 -10.8633 -10.8470 -10.8470 -10.7187 -10.7187 -10.7022 -10.7022
   -10.6266 -10.6266 -10.6102 -10.6102 -10.5832 -10.5832 -10.5688 -10.5688
   -10.5291 -10.5291 -10.5130 -10.5130 -10.3423 -10.3423 -10.3258 -10.3258
   -10.0378 -10.0378 -10.0222 -10.0222  -9.7716  -9.7716  -9.7564  -9.7564
    -9.5627  -9.5626  -9.5478  -9.5477  -9.1043  -9.1043  -9.0904  -9.0904
    -9.0570  -9.0570  -9.0418  -9.0418  -8.9802  -8.9802  -8.9624  -8.9624
    -8.9029  -8.9029  -8.8880  -8.8880  -8.7601  -8.7601  -8.7380  -8.7380
    -8.6858  -8.6858  -8.6815  -8.6815  -8.6623  -8.6623  -8.6607  -8.6607
    -8.3497  -8.3497  -8.3335  -8.3334  -8.2757  -8.2757  -8.2482  -8.2482
    -7.9545  -7.9545  -7.9263  -7.9263  -7.9008  -7.9008  -7.8823  -7.8823
    -7.8803  -7.8802  -7.8652  -7.8651  -7.6532  -7.6532  -7.6492  -7.6492
    -7.6435  -7.6435  -7.6394  -7.6394  -7.6244  -7.6244  -7.5993  -7.5993
    -7.5323  -7.5323  -7.4937  -7.4937  -7.4212  -7.4212  -7.4102  -7.4102
    -7.4039  -7.4039  -7.3933  -7.3933  -7.3559  -7.3559  -7.3414  -7.3414
    -7.2393  -7.2393  -7.2218  -7.2218  -7.2056  -7.2056  -7.1920  -7.1920

     occupation numbers 
     1.0000   1.0000   1.0000   1.0000   1.0000   1.0000   1.0000   1.0000
     1.0000   1.0000   1.0000   1.0000   1.0000   1.0000   1.0000   1.0000
     1.0000   1.0000   1.0000   1.0000   1.0000   1.0000   1.0000   1.0000
     1.0000   1.0000   1.0000   1.0000   1.0000   1.0000   1.0000   1.0000
     1.0000   1.0000   1.0000   1.0000   1.0000   1.0000   1.0000   1.0000
     1.0000   1.0000   1.0000   1.0000   1.0000   1.0000   1.0000   1.0000
     1.0000   1.0000   1.0000   1.0000   1.0000   1.0000   1.0000   1.0000
     1.0000   1.0000   1.0000   1.0000   1.0000   1.0000   1.0000   1.0000
     1.0000   1.0000   1.0000   1.0000   1.0000   1.0000   1.0000   1.0000
     1.0000   1.0000   1.0000   1.0000   1.0000   1.0000   1.0000   1.0000
     1.0000   1.0000   1.0000   1.0000   1.0000   1.0000   1.0000   1.0000
     1.0000   1.0000   1.0000   1.0000   1.0000   1.0000   1.0000   1.0000
     1.0000   1.0000   1.0000   1.0000   1.0000   1.0000   1.0000   1.0000
     1.0000   1.0000   1.0000   1.0000   1.0000   1.0000   1.0000   1.0000
     1.0000   1.0000   1.0000   1.0000   1.0000   1.0000   1.0000   1.0000
     1.0000   1.0000   1.0000   1.0000   1.0000   1.0000   1.0000   1.0000
     1.0000   1.0000   1.0000   1.0000   1.0000   1.0000   1.0000   1.0000
     1.0000   1.0000   1.0000   1.0000   1.0000   1.0000   1.0000   1.0000
     1.0000   1.0000   1.0000   1.0000   1.0000   1.0000   1.0000   1.0000
     1.0000   1.0000   1.0000   1.0000   1.0000   1.0000   1.0000   1.0000
     1.0000   1.0000   1.0000   1.0000   1.0000   1.0000   1.0000   1.0000
     1.0000   1.0000   1.0000   1.0000   1.0000   1.0000   1.0000   1.0000
     1.0000   1.0000   1.0000   1.0000   1.0000   1.0000   1.0000   1.0000
     1.0000   1.0000   1.0000   1.0000   1.0000   1.0000   1.0000   1.0000
     1.0000   1.0000   1.0000   1.0000   1.0000   1.0000   1.0000   1.0000
     1.0000   1.0000   1.0000   1.0000   1.0000   1.0000   1.0000   1.0000
     1.0000   1.0000   1.0000   1.0000   1.0000   1.0000   1.0000   1.0000
     1.0000   1.0000   1.0000   1.0000   1.0000   1.0000   1.0000   1.0000
     1.0000   1.0000   1.0000   1.0000   1.0000   1.0000   1.0000   1.0000
     1.0000   1.0000   1.0000   1.0000   1.0000   1.0000   1.0000   1.0000
     1.0000   1.0000   1.0000   1.0000   1.0000   1.0000   1.0000   1.0000
     1.0000   1.0000   1.0000   1.0000   1.0000   1.0000   1.0000   1.0000
     1.0000   1.0000   1.0000   1.0000   1.0000   1.0000   1.0000   1.0000
     1.0000   1.0000   1.0000   1.0000   1.0000   1.0000   1.0000   1.0000
     1.0000   1.0000   1.0000   1.0000   1.0000   1.0000   1.0000   1.0000
     1.0000   1.0000   1.0000   1.0000   1.0000   1.0000   1.0000   1.0000
     1.0000   1.0000   1.0000   1.0000   1.0000   1.0000   1.0000   1.0000
     1.0000   1.0000   1.0000   1.0000   1.0000   1.0000   1.0000   1.0000
     1.0000   1.0000   1.0000   1.0000   1.0000   1.0000   1.0000   1.0000
     1.0000   1.0000   1.0000   1.0000   1.0000   1.0000   1.0000   1.0000
     1.0000   1.0000   1.0000   1.0000   1.0000   1.0000   1.0000   1.0000
     1.0000   1.0000   1.0000   1.0000   1.0000   1.0000   1.0000   1.0000
     1.0000   1.0000   1.0000   1.0000   1.0000   1.0000   1.0000   1.0000
     1.0000   1.0000   1.0000   1.0000   1.0000   1.0000   1.0000   1.0000

          k =-0.4805-0.4620 0.0000 (360682 PWs)   bands (ev):

   -24.9697 -24.9696 -24.9546 -24.9546 -24.9370 -24.9370 -24.9219 -24.9219
   -24.5284 -24.5284 -24.5133 -24.5133 -24.4829 -24.4829 -24.4679 -24.4679
   -24.1223 -24.1223 -24.1212 -24.1211 -24.1076 -24.1076 -24.1062 -24.1062
   -24.1047 -24.1047 -24.0897 -24.0897 -24.0768 -24.0768 -24.0619 -24.0619
   -23.8107 -23.8107 -23.8040 -23.8040 -23.7973 -23.7973 -23.7958 -23.7958
   -23.7888 -23.7888 -23.7824 -23.7824 -23.7519 -23.7519 -23.7371 -23.7371
   -20.0609 -20.0609 -20.0459 -20.0459 -20.0377 -20.0377 -20.0229 -20.0229
   -20.0187 -20.0187 -20.0036 -20.0036 -19.9993 -19.9992 -19.9844 -19.9844
   -19.9338 -19.9338 -19.9225 -19.9225 -19.9189 -19.9188 -19.9076 -19.9076
   -19.8912 -19.8912 -19.8884 -19.8884 -19.8760 -19.8760 -19.8735 -19.8735
   -19.8734 -19.8734 -19.8732 -19.8732 -19.8631 -19.8631 -19.8586 -19.8586
   -19.8584 -19.8584 -19.8573 -19.8573 -19.8535 -19.8534 -19.8522 -19.8521
   -19.8512 -19.8512 -19.8480 -19.8480 -19.8425 -19.8425 -19.8393 -19.8392
   -19.8385 -19.8385 -19.8370 -19.8370 -19.8364 -19.8364 -19.8243 -19.8243
   -19.7950 -19.7950 -19.7937 -19.7937 -19.7933 -19.7933 -19.7926 -19.7926
   -19.7798 -19.7798 -19.7787 -19.7787 -19.7783 -19.7783 -19.7775 -19.7775
   -19.7611 -19.7611 -19.7602 -19.7601 -19.7459 -19.7458 -19.7453 -19.7453
   -19.7382 -19.7382 -19.7276 -19.7276 -19.7263 -19.7263 -19.7233 -19.7232
   -19.7180 -19.7180 -19.7130 -19.7130 -19.7114 -19.7114 -19.7032 -19.7032
   -19.7022 -19.7022 -19.6943 -19.6943 -19.6871 -19.6871 -19.6794 -19.6794
   -19.6024 -19.6024 -19.5952 -19.5951 -19.5874 -19.5874 -19.5804 -19.5804
   -19.5001 -19.5001 -19.4850 -19.4850 -19.4284 -19.4284 -19.4134 -19.4134
   -19.2925 -19.2925 -19.2837 -19.2837 -19.2777 -19.2777 -19.2689 -19.2689
   -19.2187 -19.2187 -19.2026 -19.2026 -19.1407 -19.1407 -19.1252 -19.1252
   -19.0069 -19.0069 -18.9964 -18.9964 -18.9932 -18.9932 -18.9809 -18.9809
   -18.9559 -18.9559 -18.9417 -18.9417 -18.9258 -18.9258 -18.9103 -18.9103
   -13.0864 -13.0864 -13.0712 -13.0712 -12.6163 -12.6163 -12.6011 -12.6011
   -12.5968 -12.5968 -12.5815 -12.5815 -12.3371 -12.3371 -12.3223 -12.3223
   -12.2123 -12.2123 -12.1978 -12.1978 -11.9589 -11.9589 -11.9430 -11.9430
   -10.7754 -10.7754 -10.7587 -10.7587 -10.7383 -10.7383 -10.7239 -10.7239
   -10.6645 -10.6645 -10.6478 -10.6478 -10.4612 -10.4612 -10.4452 -10.4452
   -10.3785 -10.3785 -10.3637 -10.3637 -10.3572 -10.3572 -10.3417 -10.3417
    -9.9631  -9.9631  -9.9472  -9.9472  -9.7612  -9.7612  -9.7441  -9.7440
    -9.5149  -9.5149  -9.4996  -9.4996  -9.3229  -9.3229  -9.3056  -9.3056
    -9.2240  -9.2240  -9.2075  -9.2075  -8.9102  -8.9102  -8.8961  -8.8961
    -8.8622  -8.8622  -8.8610  -8.8610  -8.8473  -8.8473  -8.8441  -8.8441
    -8.7412  -8.7412  -8.7183  -8.7183  -8.5557  -8.5557  -8.5287  -8.5287
    -8.2655  -8.2655  -8.2551  -8.2551  -8.2409  -8.2409  -8.2374  -8.2374
    -7.9212  -7.9212  -7.9062  -7.9062  -7.8386  -7.8386  -7.8253  -7.8253
    -7.8205  -7.8205  -7.7951  -7.7951  -7.7221  -7.7220  -7.7062  -7.7062
    -7.6882  -7.6882  -7.6446  -7.6446  -7.6416  -7.6415  -7.6261  -7.6261
    -7.5454  -7.5454  -7.5100  -7.5100  -7.4930  -7.4930  -7.4743  -7.4743
    -7.4331  -7.4331  -7.4170  -7.4170  -7.3576  -7.3576  -7.3419  -7.3419
    -7.2186  -7.2186  -7.2150  -7.2150  -7.2044  -7.2044  -7.1986  -7.1986

     occupation numbers 
     1.0000   1.0000   1.0000   1.0000   1.0000   1.0000   1.0000   1.0000
     1.0000   1.0000   1.0000   1.0000   1.0000   1.0000   1.0000   1.0000
     1.0000   1.0000   1.0000   1.0000   1.0000   1.0000   1.0000   1.0000
     1.0000   1.0000   1.0000   1.0000   1.0000   1.0000   1.0000   1.0000
     1.0000   1.0000   1.0000   1.0000   1.0000   1.0000   1.0000   1.0000
     1.0000   1.0000   1.0000   1.0000   1.0000   1.0000   1.0000   1.0000
     1.0000   1.0000   1.0000   1.0000   1.0000   1.0000   1.0000   1.0000
     1.0000   1.0000   1.0000   1.0000   1.0000   1.0000   1.0000   1.0000
     1.0000   1.0000   1.0000   1.0000   1.0000   1.0000   1.0000   1.0000
     1.0000   1.0000   1.0000   1.0000   1.0000   1.0000   1.0000   1.0000
     1.0000   1.0000   1.0000   1.0000   1.0000   1.0000   1.0000   1.0000
     1.0000   1.0000   1.0000   1.0000   1.0000   1.0000   1.0000   1.0000
     1.0000   1.0000   1.0000   1.0000   1.0000   1.0000   1.0000   1.0000
     1.0000   1.0000   1.0000   1.0000   1.0000   1.0000   1.0000   1.0000
     1.0000   1.0000   1.0000   1.0000   1.0000   1.0000   1.0000   1.0000
     1.0000   1.0000   1.0000   1.0000   1.0000   1.0000   1.0000   1.0000
     1.0000   1.0000   1.0000   1.0000   1.0000   1.0000   1.0000   1.0000
     1.0000   1.0000   1.0000   1.0000   1.0000   1.0000   1.0000   1.0000
     1.0000   1.0000   1.0000   1.0000   1.0000   1.0000   1.0000   1.0000
     1.0000   1.0000   1.0000   1.0000   1.0000   1.0000   1.0000   1.0000
     1.0000   1.0000   1.0000   1.0000   1.0000   1.0000   1.0000   1.0000
     1.0000   1.0000   1.0000   1.0000   1.0000   1.0000   1.0000   1.0000
     1.0000   1.0000   1.0000   1.0000   1.0000   1.0000   1.0000   1.0000
     1.0000   1.0000   1.0000   1.0000   1.0000   1.0000   1.0000   1.0000
     1.0000   1.0000   1.0000   1.0000   1.0000   1.0000   1.0000   1.0000
     1.0000   1.0000   1.0000   1.0000   1.0000   1.0000   1.0000   1.0000
     1.0000   1.0000   1.0000   1.0000   1.0000   1.0000   1.0000   1.0000
     1.0000   1.0000   1.0000   1.0000   1.0000   1.0000   1.0000   1.0000
     1.0000   1.0000   1.0000   1.0000   1.0000   1.0000   1.0000   1.0000
     1.0000   1.0000   1.0000   1.0000   1.0000   1.0000   1.0000   1.0000
     1.0000   1.0000   1.0000   1.0000   1.0000   1.0000   1.0000   1.0000
     1.0000   1.0000   1.0000   1.0000   1.0000   1.0000   1.0000   1.0000
     1.0000   1.0000   1.0000   1.0000   1.0000   1.0000   1.0000   1.0000
     1.0000   1.0000   1.0000   1.0000   1.0000   1.0000   1.0000   1.0000
     1.0000   1.0000   1.0000   1.0000   1.0000   1.0000   1.0000   1.0000
     1.0000   1.0000   1.0000   1.0000   1.0000   1.0000   1.0000   1.0000
     1.0000   1.0000   1.0000   1.0000   1.0000   1.0000   1.0000   1.0000
     1.0000   1.0000   1.0000   1.0000   1.0000   1.0000   1.0000   1.0000
     1.0000   1.0000   1.0000   1.0000   1.0000   1.0000   1.0000   1.0000
     1.0000   1.0000   1.0000   1.0000   1.0000   1.0000   1.0000   1.0000
     1.0000   1.0000   1.0000   1.0000   1.0000   1.0000   1.0000   1.0000
     1.0000   1.0000   1.0000   1.0000   1.0000   1.0000   1.0000   1.0000
     1.0000   1.0000   1.0000   1.0000   1.0000   1.0000   1.0000   1.0000
     1.0000   1.0000   1.0000   1.0000   1.0000   1.0000   1.0000   1.0000

     highest occupied level (ev):    -7.0215

!    total energy              =  -10896.06325873 Ry
     estimated scf accuracy    <          2.5E-09 Ry

     convergence has been achieved in  42 iterations

     negative rho (up, down):  3.354E-03 0.000E+00

     Forces acting on atoms (cartesian axes, Ry/au):

     atom    1 type  1   force =    -0.00003084   -0.00001567    0.00002373
     atom    2 type  1   force =     0.00000849   -0.00004977    0.00004361
     atom    3 type  2   force =     0.00000396   -0.00006612    0.00001712
     atom    4 type  2   force =     0.00001518   -0.00001547    0.00006334
     atom    5 type  2   force =     0.00002417   -0.00002866    0.00005380
     atom    6 type  1   force =    -0.00003156    0.00004787   -0.00004731
     atom    7 type  1   force =     0.00000927    0.00001942   -0.00003668
     atom    8 type  2   force =     0.00000324    0.00000608   -0.00003564
     atom    9 type  2   force =     0.00001003    0.00003496   -0.00009162
     atom   10 type  2   force =     0.00001863    0.00004318    0.00000324
     atom   11 type  1   force =    -0.00003779   -0.00000223    0.00002330
     atom   12 type  1   force =     0.00001244   -0.00003906    0.00003951
     atom   13 type  2   force =     0.00000358   -0.00006673    0.00001633
     atom   14 type  2   force =     0.00001368   -0.00001500    0.00006307
     atom   15 type  2   force =     0.00002333   -0.00002925    0.00005383
     atom   16 type  1   force =    -0.00004618    0.00004511   -0.00003822
     atom   17 type  1   force =    -0.00000136    0.00001799   -0.00002981
     atom   18 type  2   force =     0.00000357    0.00000669   -0.00003870
     atom   19 type  2   force =     0.00001260    0.00003515   -0.00009161
     atom   20 type  2   force =     0.00001885    0.00004360   -0.00000172
     atom   21 type  1   force =    -0.00003158   -0.00000387    0.00003036
     atom   22 type  1   force =    -0.00000360   -0.00004574    0.00003755
     atom   23 type  2   force =     0.00000425   -0.00006648    0.00001473
     atom   24 type  2   force =     0.00001641   -0.00001515    0.00006277
     atom   25 type  2   force =     0.00002461   -0.00002936    0.00005243
     atom   26 type  1   force =    -0.00003400    0.00005569   -0.00004287
     atom   27 type  1   force =     0.00000046    0.00002220   -0.00002959
     atom   28 type  2   force =     0.00000379    0.00000686   -0.00003550
     atom   29 type  2   force =     0.00001150    0.00003417   -0.00009144
     atom   30 type  2   force =     0.00002076    0.00004402    0.00000202
     atom   31 type  1   force =    -0.00005230   -0.00000262    0.00002155
     atom   32 type  1   force =     0.00000419   -0.00004208    0.00004618
     atom   33 type  2   force =     0.00000428   -0.00006597    0.00001298
     atom   34 type  2   force =     0.00001378   -0.00001542    0.00006307
     atom   35 type  2   force =     0.00002508   -0.00002823    0.00005206
     atom   36 type  1   force =    -0.00004502    0.00005062   -0.00003427
     atom   37 type  1   force =    -0.00000176    0.00002386   -0.00003204
     atom   38 type  2   force =     0.00000360    0.00000651   -0.00003921
     atom   39 type  2   force =     0.00001252    0.00003428   -0.00009157
     atom   40 type  2   force =     0.00001932    0.00004335    0.00000033
     atom   41 type  1   force =    -0.00005054    0.00000993    0.00002261
     atom   42 type  1   force =     0.00000361   -0.00003485    0.00003362
     atom   43 type  2   force =     0.00000434   -0.00006709    0.00001540
     atom   44 type  2   force =     0.00001230   -0.00001569    0.00006258
     atom   45 type  2   force =     0.00002408   -0.00002917    0.00005565
     atom   46 type  1   force =    -0.00005382    0.00005883   -0.00003845
     atom   47 type  1   force =    -0.00000454    0.00001620   -0.00002026
     atom   48 type  2   force =     0.00000540    0.00000666   -0.00003822
     atom   49 type  2   force =     0.00001247    0.00003527   -0.00009167
     atom   50 type  2   force =     0.00001993    0.00004411   -0.00000410
     atom   51 type  1   force =    -0.00003733   -0.00001110    0.00002839
     atom   52 type  1   force =     0.00000763   -0.00004134    0.00005239
     atom   53 type  2   force =     0.00000500   -0.00006553    0.00001729
     atom   54 type  2   force =     0.00001596   -0.00001584    0.00006340
     atom   55 type  2   force =     0.00002458   -0.00002835    0.00005460
     atom   56 type  1   force =    -0.00004381    0.00006200   -0.00005372
     atom   57 type  1   force =     0.00000437    0.00002806   -0.00002592
     atom   58 type  2   force =     0.00000399    0.00000616   -0.00003758
     atom   59 type  2   force =     0.00001015    0.00003316   -0.00009153
     atom   60 type  2   force =     0.00001942    0.00004399    0.00000099
     atom   61 type  1   force =    -0.00003613   -0.00001035    0.00002272
     atom   62 type  1   force =     0.00001002   -0.00003723    0.00003903
     atom   63 type  2   force =     0.00000483   -0.00006641    0.00001931
     atom   64 type  2   force =     0.00001406   -0.00001572    0.00006339
     atom   65 type  2   force =     0.00002382   -0.00002870    0.00005651
     atom   66 type  1   force =    -0.00003606    0.00005166   -0.00004605
     atom   67 type  1   force =    -0.00000887    0.00001316   -0.00001741
     atom   68 type  2   force =     0.00000315    0.00000554   -0.00003893
     atom   69 type  2   force =     0.00001218    0.00003573   -0.00009199
     atom   70 type  2   force =     0.00001815    0.00004306   -0.00000001
     atom   71 type  1   force =    -0.00004177   -0.00000275    0.00002277
     atom   72 type  1   force =     0.00000248   -0.00004178    0.00004482
     atom   73 type  2   force =     0.00000421   -0.00006602    0.00001609
     atom   74 type  2   force =     0.00001349   -0.00001558    0.00006325
     atom   75 type  2   force =     0.00002389   -0.00002882    0.00005262
     atom   76 type  1   force =    -0.00004233    0.00005310   -0.00005328
     atom   77 type  1   force =    -0.00001349    0.00001333   -0.00002205
     atom   78 type  2   force =     0.00000394    0.00000623   -0.00003515
     atom   79 type  2   force =     0.00001266    0.00003361   -0.00009145
     atom   80 type  2   force =     0.00001897    0.00004376    0.00000124
     The non-local contrib.  to forces
     atom    1 type  1   force =     0.10896395   -0.06433744    0.05782746
     atom    2 type  1   force =     0.06288591    0.08530369   -0.06093403
     atom    3 type  2   force =    -0.09030061    0.30442179   -1.03556582
     atom    4 type  2   force =     0.81131493    0.07443432    0.00217374
     atom    5 type  2   force =    -0.04542949   -0.32064915    1.03269709
     atom    6 type  1   force =     0.10894640   -0.06338670    0.06234489
     atom    7 type  1   force =     0.06293049    0.08607121   -0.05609691
     atom    8 type  2   force =    -0.09061453    0.30545189   -1.03259064
     atom    9 type  2   force =     0.81108175    0.07695294    0.01877702
     atom   10 type  2   force =    -0.04517998   -0.31942661    1.03581564
     atom   11 type  1   force =     0.10896325   -0.06434033    0.05782745
     atom   12 type  1   force =     0.06288566    0.08530423   -0.06093199
     atom   13 type  2   force =    -0.09030191    0.30442035   -1.03556922
     atom   14 type  2   force =     0.81131095    0.07443706    0.00217295
     atom   15 type  2   force =    -0.04543214   -0.32065094    1.03269654
     atom   16 type  1   force =     0.10895386   -0.06338705    0.06234845
     atom   17 type  1   force =     0.06292749    0.08606745   -0.05609629
     atom   18 type  2   force =    -0.09061255    0.30545051   -1.03259920
     atom   19 type  2   force =     0.81109279    0.07695411    0.01877789
     atom   20 type  2   force =    -0.04517984   -0.31942703    1.03580312
     atom   21 type  1   force =     0.10896552   -0.06433881    0.05782699
     atom   22 type  1   force =     0.06288220    0.08530549   -0.06092979
     atom   23 type  2   force =    -0.09029970    0.30442005   -1.03557321
     atom   24 type  2   force =     0.81131861    0.07443782    0.00217186
     atom   25 type  2   force =    -0.04542735   -0.32065142    1.03269318
     atom   26 type  1   force =     0.10894551   -0.06338915    0.06234738
     atom   27 type  1   force =     0.06293042    0.08607025   -0.05609981
     atom   28 type  2   force =    -0.09061220    0.30545400   -1.03258955
     atom   29 type  2   force =     0.81108659    0.07695056    0.01877943
     atom   30 type  2   force =    -0.04517421   -0.31942635    1.03581381
     atom   31 type  1   force =     0.10895984   -0.06434078    0.05782851
     atom   32 type  1   force =     0.06288964    0.08530576   -0.06093259
     atom   33 type  2   force =    -0.09029929    0.30442254   -1.03557628
     atom   34 type  2   force =     0.81131069    0.07443591    0.00217239
     atom   35 type  2   force =    -0.04542619   -0.32064731    1.03269226
     atom   36 type  1   force =     0.10895119   -0.06338802    0.06234517
     atom   37 type  1   force =     0.06292846    0.08606849   -0.05609551
     atom   38 type  2   force =    -0.09061233    0.30545153   -1.03260033
     atom   39 type  2   force =     0.81109284    0.07695201    0.01877774
     atom   40 type  2   force =    -0.04517693   -0.31942680    1.03580819
     atom   41 type  1   force =     0.10896140   -0.06433933    0.05782353
     atom   42 type  1   force =     0.06288795    0.08530499   -0.06093230
     atom   43 type  2   force =    -0.09029770    0.30441880   -1.03557019
     atom   44 type  2   force =     0.81130819    0.07443447    0.00217276
     atom   45 type  2   force =    -0.04542838   -0.32065023    1.03270280
     atom   46 type  1   force =     0.10895310   -0.06338701    0.06235002
     atom   47 type  1   force =     0.06292636    0.08606583   -0.05609633
     atom   48 type  2   force =    -0.09060658    0.30545139   -1.03259815
     atom   49 type  2   force =     0.81109332    0.07695380    0.01877775
     atom   50 type  2   force =    -0.04517524   -0.31942457    1.03579800
     atom   51 type  1   force =     0.10896807   -0.06433773    0.05782630
     atom   52 type  1   force =     0.06288415    0.08530072   -0.06093267
     atom   53 type  2   force =    -0.09029725    0.30442350   -1.03556471
     atom   54 type  2   force =     0.81131798    0.07443383    0.00217437
     atom   55 type  2   force =    -0.04542540   -0.32064865    1.03269935
     atom   56 type  1   force =     0.10894740   -0.06338683    0.06234754
     atom   57 type  1   force =     0.06293049    0.08606623   -0.05609620
     atom   58 type  2   force =    -0.09061164    0.30545048   -1.03259505
     atom   59 type  2   force =     0.81108411    0.07694817    0.01877718
     atom   60 type  2   force =    -0.04517741   -0.31942647    1.03581112
     atom   61 type  1   force =     0.10896531   -0.06433620    0.05782362
     atom   62 type  1   force =     0.06288581    0.08530202   -0.06093625
     atom   63 type  2   force =    -0.09029869    0.30442121   -1.03556082
     atom   64 type  2   force =     0.81131305    0.07443385    0.00217385
     atom   65 type  2   force =    -0.04542885   -0.32064903    1.03270485
     atom   66 type  1   force =     0.10894747   -0.06338593    0.06234870
     atom   67 type  1   force =     0.06292930    0.08606585   -0.05609487
     atom   68 type  2   force =    -0.09061413    0.30544876   -1.03260192
     atom   69 type  2   force =     0.81108999    0.07695654    0.01877696
     atom   70 type  2   force =    -0.04518178   -0.31942630    1.03580877
     atom   71 type  1   force =     0.10896371   -0.06433864    0.05782559
     atom   72 type  1   force =     0.06288714    0.08530304   -0.06093341
     atom   73 type  2   force =    -0.09029807    0.30442122   -1.03557130
     atom   74 type  2   force =     0.81131230    0.07443453    0.00217476
     atom   75 type  2   force =    -0.04542942   -0.32064918    1.03269625
     atom   76 type  1   force =     0.10894756   -0.06338365    0.06234752
     atom   77 type  1   force =     0.06292993    0.08606826   -0.05609911
     atom   78 type  2   force =    -0.09061035    0.30545123   -1.03258898
     atom   79 type  2   force =     0.81109331    0.07694910    0.01877861
     atom   80 type  2   force =    -0.04517698   -0.31942555    1.03581186
     The ionic contribution  to forces
     atom    1 type  1   force =     1.30091894   11.26953443  -88.96537229
     atom    2 type  1   force =     1.77615943  -10.92465729 -129.42724916
     atom    3 type  2   force =     0.20569702   -0.61353127  -15.21815376
     atom    4 type  2   force =    -3.42437897   -0.18932404  -50.47810866
     atom    5 type  2   force =     0.13006812    0.72520624  -85.63260241
     atom    6 type  1   force =     1.30547776   11.15187097  129.56464931
     atom    7 type  1   force =     1.78195038  -11.04673916   89.11511674
     atom    8 type  2   force =     0.21580787   -0.78920051   85.76654982
     atom    9 type  2   force =    -3.42713732   -0.12837940   49.92210604
     atom   10 type  2   force =     0.13543676    0.54522004   15.35306435
     atom   11 type  1   force =     1.30091894   11.26953443  -88.96537229
     atom   12 type  1   force =     1.77615943  -10.92465729 -129.42724916
     atom   13 type  2   force =     0.20569702   -0.61353127  -15.21815376
     atom   14 type  2   force =    -3.42437897   -0.18932404  -50.47810866
     atom   15 type  2   force =     0.13006812    0.72520624  -85.63260241
     atom   16 type  1   force =     1.30547776   11.15187097  129.56464931
     atom   17 type  1   force =     1.78195038  -11.04673916   89.11511674
     atom   18 type  2   force =     0.21580787   -0.78920051   85.76654982
     atom   19 type  2   force =    -3.42713732   -0.12837940   49.92210604
     atom   20 type  2   force =     0.13543676    0.54522004   15.35306435
     atom   21 type  1   force =     1.30091894   11.26953443  -88.96537229
     atom   22 type  1   force =     1.77615943  -10.92465729 -129.42724916
     atom   23 type  2   force =     0.20569702   -0.61353127  -15.21815376
     atom   24 type  2   force =    -3.42437897   -0.18932404  -50.47810866
     atom   25 type  2   force =     0.13006812    0.72520624  -85.63260241
     atom   26 type  1   force =     1.30547776   11.15187097  129.56464931
     atom   27 type  1   force =     1.78195038  -11.04673916   89.11511674
     atom   28 type  2   force =     0.21580787   -0.78920051   85.76654982
     atom   29 type  2   force =    -3.42713732   -0.12837940   49.92210604
     atom   30 type  2   force =     0.13543676    0.54522004   15.35306435
     atom   31 type  1   force =     1.30091894   11.26953443  -88.96537229
     atom   32 type  1   force =     1.77615943  -10.92465729 -129.42724916
     atom   33 type  2   force =     0.20569702   -0.61353127  -15.21815376
     atom   34 type  2   force =    -3.42437897   -0.18932404  -50.47810866
     atom   35 type  2   force =     0.13006812    0.72520624  -85.63260241
     atom   36 type  1   force =     1.30547776   11.15187097  129.56464931
     atom   37 type  1   force =     1.78195038  -11.04673916   89.11511674
     atom   38 type  2   force =     0.21580787   -0.78920051   85.76654982
     atom   39 type  2   force =    -3.42713732   -0.12837940   49.92210604
     atom   40 type  2   force =     0.13543676    0.54522004   15.35306435
     atom   41 type  1   force =     1.30091894   11.26953443  -88.96537229
     atom   42 type  1   force =     1.77615943  -10.92465729 -129.42724916
     atom   43 type  2   force =     0.20569702   -0.61353127  -15.21815376
     atom   44 type  2   force =    -3.42437897   -0.18932404  -50.47810866
     atom   45 type  2   force =     0.13006812    0.72520624  -85.63260241
     atom   46 type  1   force =     1.30547776   11.15187097  129.56464931
     atom   47 type  1   force =     1.78195038  -11.04673916   89.11511674
     atom   48 type  2   force =     0.21580787   -0.78920051   85.76654982
     atom   49 type  2   force =    -3.42713732   -0.12837940   49.92210604
     atom   50 type  2   force =     0.13543676    0.54522004   15.35306435
     atom   51 type  1   force =     1.30091894   11.26953443  -88.96537229
     atom   52 type  1   force =     1.77615943  -10.92465729 -129.42724916
     atom   53 type  2   force =     0.20569702   -0.61353127  -15.21815376
     atom   54 type  2   force =    -3.42437897   -0.18932404  -50.47810866
     atom   55 type  2   force =     0.13006812    0.72520624  -85.63260241
     atom   56 type  1   force =     1.30547776   11.15187097  129.56464931
     atom   57 type  1   force =     1.78195038  -11.04673916   89.11511674
     atom   58 type  2   force =     0.21580787   -0.78920051   85.76654982
     atom   59 type  2   force =    -3.42713732   -0.12837940   49.92210604
     atom   60 type  2   force =     0.13543676    0.54522004   15.35306435
     atom   61 type  1   force =     1.30091894   11.26953443  -88.96537229
     atom   62 type  1   force =     1.77615943  -10.92465729 -129.42724916
     atom   63 type  2   force =     0.20569702   -0.61353127  -15.21815376
     atom   64 type  2   force =    -3.42437897   -0.18932404  -50.47810866
     atom   65 type  2   force =     0.13006812    0.72520624  -85.63260241
     atom   66 type  1   force =     1.30547776   11.15187097  129.56464931
     atom   67 type  1   force =     1.78195038  -11.04673916   89.11511674
     atom   68 type  2   force =     0.21580787   -0.78920051   85.76654982
     atom   69 type  2   force =    -3.42713732   -0.12837940   49.92210604
     atom   70 type  2   force =     0.13543676    0.54522004   15.35306435
     atom   71 type  1   force =     1.30091894   11.26953443  -88.96537229
     atom   72 type  1   force =     1.77615943  -10.92465729 -129.42724916
     atom   73 type  2   force =     0.20569702   -0.61353127  -15.21815376
     atom   74 type  2   force =    -3.42437897   -0.18932404  -50.47810866
     atom   75 type  2   force =     0.13006812    0.72520624  -85.63260241
     atom   76 type  1   force =     1.30547776   11.15187097  129.56464931
     atom   77 type  1   force =     1.78195038  -11.04673916   89.11511674
     atom   78 type  2   force =     0.21580787   -0.78920051   85.76654982
     atom   79 type  2   force =    -3.42713732   -0.12837940   49.92210604
     atom   80 type  2   force =     0.13543676    0.54522004   15.35306435
     The local contribution  to forces
     atom    1 type  1   force =    -1.41006517  -11.20783129   88.90817726
     atom    2 type  1   force =    -1.83964755   10.84210976  129.48751905
     atom    3 type  2   force =    -0.11626603    0.31189664   16.24546759
     atom    4 type  2   force =     2.62053884    0.11557205   50.47601549
     atom    5 type  2   force =    -0.08505029   -0.40759366   84.60821616
     atom    6 type  1   force =    -1.41460770  -11.09105057 -129.62639070
     atom    7 type  1   force =    -1.84548990   10.96349416  -89.05971056
     atom    8 type  2   force =    -0.12606457    0.48662444  -84.74224667
     atom    9 type  2   force =     2.62352137    0.05217897  -49.94081348
     atom   10 type  2   force =    -0.09067613   -0.22873929  -16.38059853
     atom   11 type  1   force =    -1.41006647  -11.20783252   88.90817697
     atom   12 type  1   force =    -1.83965153   10.84210443  129.48751571
     atom   13 type  2   force =    -0.11626170    0.31189874   16.24546777
     atom   14 type  2   force =     2.62054125    0.11557439   50.47601450
     atom   15 type  2   force =    -0.08505318   -0.40759062   84.60821867
     atom   16 type  1   force =    -1.41461611  -11.09104699 -129.62640407
     atom   17 type  1   force =    -1.84547585   10.96350263  -89.05971691
     atom   18 type  2   force =    -0.12606769    0.48662111  -84.74224714
     atom   19 type  2   force =     2.62351652    0.05218189  -49.94081414
     atom   20 type  2   force =    -0.09067755   -0.22874477  -16.38059263
     atom   21 type  1   force =    -1.41006430  -11.20783176   88.90817551
     atom   22 type  1   force =    -1.83963922   10.84210775  129.48751022
     atom   23 type  2   force =    -0.11626277    0.31189629   16.24547056
     atom   24 type  2   force =     2.62054099    0.11557246   50.47601405
     atom   25 type  2   force =    -0.08505420   -0.40759739   84.60821694
     atom   26 type  1   force =    -1.41460330  -11.09104763 -129.62639661
     atom   27 type  1   force =    -1.84548217   10.96349617  -89.05970739
     atom   28 type  2   force =    -0.12606393    0.48662293  -84.74224637
     atom   29 type  2   force =     2.62352129    0.05217811  -49.94081443
     atom   30 type  2   force =    -0.09066984   -0.22873871  -16.38059904
     atom   31 type  1   force =    -1.41004610  -11.20783378   88.90817544
     atom   32 type  1   force =    -1.83965136   10.84209953  129.48751142
     atom   33 type  2   force =    -0.11626539    0.31189794   16.24547177
     atom   34 type  2   force =     2.62053958    0.11557443   50.47601393
     atom   35 type  2   force =    -0.08505456   -0.40759010   84.60821459
     atom   36 type  1   force =    -1.41460934  -11.09104887 -129.62639707
     atom   37 type  1   force =    -1.84548136   10.96350009  -89.05971839
     atom   38 type  2   force =    -0.12606191    0.48662118  -84.74224317
     atom   39 type  2   force =     2.62351671    0.05217820  -49.94081381
     atom   40 type  2   force =    -0.09067799   -0.22874287  -16.38059688
     atom   41 type  1   force =    -1.41005166  -11.20783827   88.90818746
     atom   42 type  1   force =    -1.83965443   10.84209801  129.48751777
     atom   43 type  2   force =    -0.11625620    0.31189660   16.24547152
     atom   44 type  2   force =     2.62054224    0.11557413   50.47601464
     atom   45 type  2   force =    -0.08505250   -0.40759180   84.60821613
     atom   46 type  1   force =    -1.41461347  -11.09105276 -129.62640805
     atom   47 type  1   force =    -1.84546720   10.96350844  -89.05971894
     atom   48 type  2   force =    -0.12606644    0.48662358  -84.74224661
     atom   49 type  2   force =     2.62351703    0.05218360  -49.94081518
     atom   50 type  2   force =    -0.09067105   -0.22874434  -16.38059159
     atom   51 type  1   force =    -1.41007068  -11.20782908   88.90817988
     atom   52 type  1   force =    -1.83964727   10.84211654  129.48751540
     atom   53 type  2   force =    -0.11626142    0.31190047   16.24546888
     atom   54 type  2   force =     2.62053980    0.11556542   50.47601663
     atom   55 type  2   force =    -0.08505022   -0.40759128   84.60821536
     atom   56 type  1   force =    -1.41460146  -11.09105409 -129.62639479
     atom   57 type  1   force =    -1.84548397   10.96349743  -89.05971551
     atom   58 type  2   force =    -0.12606440    0.48662291  -84.74224284
     atom   59 type  2   force =     2.62352208    0.05217520  -49.94081397
     atom   60 type  2   force =    -0.09067483   -0.22874173  -16.38060165
     atom   61 type  1   force =    -1.41006713  -11.20783385   88.90818674
     atom   62 type  1   force =    -1.83964960   10.84210843  129.48752601
     atom   63 type  2   force =    -0.11626250    0.31189858   16.24546761
     atom   64 type  2   force =     2.62053976    0.11557129   50.47601677
     atom   65 type  2   force =    -0.08505245   -0.40759211   84.60821581
     atom   66 type  1   force =    -1.41460562  -11.09105464 -129.62639988
     atom   67 type  1   force =    -1.84548612   10.96350984  -89.05972326
     atom   68 type  2   force =    -0.12606129    0.48662086  -84.74224696
     atom   69 type  2   force =     2.62351902    0.05218168  -49.94081596
     atom   70 type  2   force =    -0.09068237   -0.22874183  -16.38059629
     atom   71 type  1   force =    -1.41006089  -11.20783468   88.90818009
     atom   72 type  1   force =    -1.83964699   10.84210506  129.48751744
     atom   73 type  2   force =    -0.11626042    0.31189770   16.24547006
     atom   74 type  2   force =     2.62054084    0.11557324   50.47601533
     atom   75 type  2   force =    -0.08505232   -0.40759221   84.60821796
     atom   76 type  1   force =    -1.41460933  -11.09105696 -129.62639584
     atom   77 type  1   force =    -1.84548044   10.96350314  -89.05971013
     atom   78 type  2   force =    -0.12606119    0.48662271  -84.74224613
     atom   79 type  2   force =     2.62351660    0.05217367  -49.94081401
     atom   80 type  2   force =    -0.09066994   -0.22874086  -16.38059570
     The core correction contribution to forces
     atom    1 type  1   force =     0.00014345    0.00262448   -0.00060024
     atom    2 type  1   force =     0.00060560   -0.00279197    0.00072216
     atom    3 type  2   force =     0.00086725   -0.00285399    0.00827034
     atom    4 type  2   force =    -0.00746274   -0.00069966   -0.00001321
     atom    5 type  2   force =     0.00043540    0.00300792   -0.00825278
     atom    6 type  1   force =     0.00014395    0.00261590   -0.00064086
     atom    7 type  1   force =     0.00060332   -0.00279983    0.00067804
     atom    8 type  2   force =     0.00087032   -0.00286466    0.00825091
     atom    9 type  2   force =    -0.00746068   -0.00072187   -0.00015936
     atom   10 type  2   force =     0.00043378    0.00299540   -0.00827303
     atom   11 type  1   force =     0.00014357    0.00262465   -0.00060021
     atom   12 type  1   force =     0.00060579   -0.00279188    0.00072217
     atom   13 type  2   force =     0.00086727   -0.00285398    0.00827038
     atom   14 type  2   force =    -0.00746269   -0.00069969   -0.00001320
     atom   15 type  2   force =     0.00043543    0.00300794   -0.00825277
     atom   16 type  1   force =     0.00014387    0.00261574   -0.00064065
     atom   17 type  1   force =     0.00060309   -0.00279995    0.00067820
     atom   18 type  2   force =     0.00087029   -0.00286465    0.00825101
     atom   19 type  2   force =    -0.00746083   -0.00072189   -0.00015937
     atom   20 type  2   force =     0.00043378    0.00299540   -0.00827288
     atom   21 type  1   force =     0.00014328    0.00262450   -0.00060015
     atom   22 type  1   force =     0.00060565   -0.00279205    0.00072225
     atom   23 type  2   force =     0.00086724   -0.00285397    0.00827043
     atom   24 type  2   force =    -0.00746278   -0.00069971   -0.00001319
     atom   25 type  2   force =     0.00043537    0.00300795   -0.00825273
     atom   26 type  1   force =     0.00014394    0.00261594   -0.00064084
     atom   27 type  1   force =     0.00060311   -0.00279986    0.00067807
     atom   28 type  2   force =     0.00087029   -0.00286469    0.00825089
     atom   29 type  2   force =    -0.00746074   -0.00072184   -0.00015939
     atom   30 type  2   force =     0.00043371    0.00299540   -0.00827301
     atom   31 type  1   force =     0.00014311    0.00262473   -0.00060020
     atom   32 type  1   force =     0.00060550   -0.00279179    0.00072232
     atom   33 type  2   force =     0.00086723   -0.00285400    0.00827046
     atom   34 type  2   force =    -0.00746269   -0.00069968   -0.00001320
     atom   35 type  2   force =     0.00043535    0.00300790   -0.00825272
     atom   36 type  1   force =     0.00014379    0.00261584   -0.00064069
     atom   37 type  1   force =     0.00060324   -0.00279997    0.00067822
     atom   38 type  2   force =     0.00087029   -0.00286466    0.00825102
     atom   39 type  2   force =    -0.00746083   -0.00072186   -0.00015937
     atom   40 type  2   force =     0.00043373    0.00299540   -0.00827294
     atom   41 type  1   force =     0.00014319    0.00262474   -0.00060034
     atom   42 type  1   force =     0.00060576   -0.00279171    0.00072214
     atom   43 type  2   force =     0.00086722   -0.00285395    0.00827039
     atom   44 type  2   force =    -0.00746267   -0.00069966   -0.00001320
     atom   45 type  2   force =     0.00043539    0.00300794   -0.00825285
     atom   46 type  1   force =     0.00014388    0.00261586   -0.00064058
     atom   47 type  1   force =     0.00060286   -0.00280003    0.00067824
     atom   48 type  2   force =     0.00087021   -0.00286466    0.00825100
     atom   49 type  2   force =    -0.00746083   -0.00072187   -0.00015937
     atom   50 type  2   force =     0.00043372    0.00299537   -0.00827283
     atom   51 type  1   force =     0.00014339    0.00262439   -0.00060025
     atom   52 type  1   force =     0.00060574   -0.00279207    0.00072219
     atom   53 type  2   force =     0.00086721   -0.00285401    0.00827033
     atom   54 type  2   force =    -0.00746278   -0.00069967   -0.00001322
     atom   55 type  2   force =     0.00043535    0.00300791   -0.00825281
     atom   56 type  1   force =     0.00014375    0.00261594   -0.00064085
     atom   57 type  1   force =     0.00060318   -0.00279970    0.00067810
     atom   58 type  2   force =     0.00087028   -0.00286464    0.00825096
     atom   59 type  2   force =    -0.00746071   -0.00072182   -0.00015936
     atom   60 type  2   force =     0.00043374    0.00299540   -0.00827298
     atom   61 type  1   force =     0.00014342    0.00262444   -0.00060034
     atom   62 type  1   force =     0.00060572   -0.00279185    0.00072205
     atom   63 type  2   force =     0.00086723   -0.00285399    0.00827028
     atom   64 type  2   force =    -0.00746272   -0.00069966   -0.00001322
     atom   65 type  2   force =     0.00043539    0.00300792   -0.00825288
     atom   66 type  1   force =     0.00014382    0.00261600   -0.00064078
     atom   67 type  1   force =     0.00060334   -0.00280001    0.00067826
     atom   68 type  2   force =     0.00087032   -0.00286462    0.00825105
     atom   69 type  2   force =    -0.00746079   -0.00072192   -0.00015936
     atom   70 type  2   force =     0.00043379    0.00299540   -0.00827296
     atom   71 type  1   force =     0.00014332    0.00262459   -0.00060017
     atom   72 type  1   force =     0.00060554   -0.00279180    0.00072222
     atom   73 type  2   force =     0.00086723   -0.00285399    0.00827041
     atom   74 type  2   force =    -0.00746272   -0.00069967   -0.00001323
     atom   75 type  2   force =     0.00043540    0.00300792   -0.00825277
     atom   76 type  1   force =     0.00014402    0.00261583   -0.00064081
     atom   77 type  1   force =     0.00060317   -0.00280003    0.00067809
     atom   78 type  2   force =     0.00087027   -0.00286466    0.00825089
     atom   79 type  2   force =    -0.00746083   -0.00072183   -0.00015938
     atom   80 type  2   force =     0.00043375    0.00299539   -0.00827298
     The Hubbard contrib.    to forces
     atom    1 type  1   force =     0.00000000    0.00000000    0.00000000
     atom    2 type  1   force =     0.00000000    0.00000000    0.00000000
     atom    3 type  2   force =     0.00000000    0.00000000    0.00000000
     atom    4 type  2   force =     0.00000000    0.00000000    0.00000000
     atom    5 type  2   force =     0.00000000    0.00000000    0.00000000
     atom    6 type  1   force =     0.00000000    0.00000000    0.00000000
     atom    7 type  1   force =     0.00000000    0.00000000    0.00000000
     atom    8 type  2   force =     0.00000000    0.00000000    0.00000000
     atom    9 type  2   force =     0.00000000    0.00000000    0.00000000
     atom   10 type  2   force =     0.00000000    0.00000000    0.00000000
     atom   11 type  1   force =     0.00000000    0.00000000    0.00000000
     atom   12 type  1   force =     0.00000000    0.00000000    0.00000000
     atom   13 type  2   force =     0.00000000    0.00000000    0.00000000
     atom   14 type  2   force =     0.00000000    0.00000000    0.00000000
     atom   15 type  2   force =     0.00000000    0.00000000    0.00000000
     atom   16 type  1   force =     0.00000000    0.00000000    0.00000000
     atom   17 type  1   force =     0.00000000    0.00000000    0.00000000
     atom   18 type  2   force =     0.00000000    0.00000000    0.00000000
     atom   19 type  2   force =     0.00000000    0.00000000    0.00000000
     atom   20 type  2   force =     0.00000000    0.00000000    0.00000000
     atom   21 type  1   force =     0.00000000    0.00000000    0.00000000
     atom   22 type  1   force =     0.00000000    0.00000000    0.00000000
     atom   23 type  2   force =     0.00000000    0.00000000    0.00000000
     atom   24 type  2   force =     0.00000000    0.00000000    0.00000000
     atom   25 type  2   force =     0.00000000    0.00000000    0.00000000
     atom   26 type  1   force =     0.00000000    0.00000000    0.00000000
     atom   27 type  1   force =     0.00000000    0.00000000    0.00000000
     atom   28 type  2   force =     0.00000000    0.00000000    0.00000000
     atom   29 type  2   force =     0.00000000    0.00000000    0.00000000
     atom   30 type  2   force =     0.00000000    0.00000000    0.00000000
     atom   31 type  1   force =     0.00000000    0.00000000    0.00000000
     atom   32 type  1   force =     0.00000000    0.00000000    0.00000000
     atom   33 type  2   force =     0.00000000    0.00000000    0.00000000
     atom   34 type  2   force =     0.00000000    0.00000000    0.00000000
     atom   35 type  2   force =     0.00000000    0.00000000    0.00000000
     atom   36 type  1   force =     0.00000000    0.00000000    0.00000000
     atom   37 type  1   force =     0.00000000    0.00000000    0.00000000
     atom   38 type  2   force =     0.00000000    0.00000000    0.00000000
     atom   39 type  2   force =     0.00000000    0.00000000    0.00000000
     atom   40 type  2   force =     0.00000000    0.00000000    0.00000000
     atom   41 type  1   force =     0.00000000    0.00000000    0.00000000
     atom   42 type  1   force =     0.00000000    0.00000000    0.00000000
     atom   43 type  2   force =     0.00000000    0.00000000    0.00000000
     atom   44 type  2   force =     0.00000000    0.00000000    0.00000000
     atom   45 type  2   force =     0.00000000    0.00000000    0.00000000
     atom   46 type  1   force =     0.00000000    0.00000000    0.00000000
     atom   47 type  1   force =     0.00000000    0.00000000    0.00000000
     atom   48 type  2   force =     0.00000000    0.00000000    0.00000000
     atom   49 type  2   force =     0.00000000    0.00000000    0.00000000
     atom   50 type  2   force =     0.00000000    0.00000000    0.00000000
     atom   51 type  1   force =     0.00000000    0.00000000    0.00000000
     atom   52 type  1   force =     0.00000000    0.00000000    0.00000000
     atom   53 type  2   force =     0.00000000    0.00000000    0.00000000
     atom   54 type  2   force =     0.00000000    0.00000000    0.00000000
     atom   55 type  2   force =     0.00000000    0.00000000    0.00000000
     atom   56 type  1   force =     0.00000000    0.00000000    0.00000000
     atom   57 type  1   force =     0.00000000    0.00000000    0.00000000
     atom   58 type  2   force =     0.00000000    0.00000000    0.00000000
     atom   59 type  2   force =     0.00000000    0.00000000    0.00000000
     atom   60 type  2   force =     0.00000000    0.00000000    0.00000000
     atom   61 type  1   force =     0.00000000    0.00000000    0.00000000
     atom   62 type  1   force =     0.00000000    0.00000000    0.00000000
     atom   63 type  2   force =     0.00000000    0.00000000    0.00000000
     atom   64 type  2   force =     0.00000000    0.00000000    0.00000000
     atom   65 type  2   force =     0.00000000    0.00000000    0.00000000
     atom   66 type  1   force =     0.00000000    0.00000000    0.00000000
     atom   67 type  1   force =     0.00000000    0.00000000    0.00000000
     atom   68 type  2   force =     0.00000000    0.00000000    0.00000000
     atom   69 type  2   force =     0.00000000    0.00000000    0.00000000
     atom   70 type  2   force =     0.00000000    0.00000000    0.00000000
     atom   71 type  1   force =     0.00000000    0.00000000    0.00000000
     atom   72 type  1   force =     0.00000000    0.00000000    0.00000000
     atom   73 type  2   force =     0.00000000    0.00000000    0.00000000
     atom   74 type  2   force =     0.00000000    0.00000000    0.00000000
     atom   75 type  2   force =     0.00000000    0.00000000    0.00000000
     atom   76 type  1   force =     0.00000000    0.00000000    0.00000000
     atom   77 type  1   force =     0.00000000    0.00000000    0.00000000
     atom   78 type  2   force =     0.00000000    0.00000000    0.00000000
     atom   79 type  2   force =     0.00000000    0.00000000    0.00000000
     atom   80 type  2   force =     0.00000000    0.00000000    0.00000000
     The SCF correction term to forces
     atom    1 type  1   force =     0.00000684   -0.00000571   -0.00001033
     atom    2 type  1   force =     0.00000394   -0.00001382   -0.00001627
     atom    3 type  2   force =     0.00000517    0.00000087   -0.00000310
     atom    4 type  2   force =     0.00000197    0.00000201   -0.00000590
     atom    5 type  2   force =    -0.00000073    0.00000013   -0.00000613
     atom    6 type  1   force =     0.00000688   -0.00000159   -0.00001181
     atom    7 type  1   force =     0.00001383   -0.00000682   -0.00002585
     atom    8 type  2   force =     0.00000300   -0.00000494   -0.00000093
     atom    9 type  2   force =     0.00000375    0.00000447   -0.00000371
     atom   10 type  2   force =     0.00000305   -0.00000622   -0.00000707
     atom   11 type  1   force =     0.00000177    0.00001167   -0.00001048
     atom   12 type  1   force =     0.00001194    0.00000160   -0.00001909
     atom   13 type  2   force =     0.00000173   -0.00000043   -0.00000071
     atom   14 type  2   force =     0.00000199   -0.00000258   -0.00000438
     atom   15 type  2   force =     0.00000394   -0.00000174   -0.00000808
     atom   16 type  1   force =    -0.00000672   -0.00000742    0.00000687
     atom   17 type  1   force =    -0.00000762   -0.00001284   -0.00001341
     atom   18 type  2   force =     0.00000449    0.00000037    0.00000494
     atom   19 type  2   force =     0.00000027    0.00000057   -0.00000390
     atom   20 type  2   force =     0.00000454    0.00000011   -0.00000556
     atom   21 type  1   force =     0.00000384    0.00000791   -0.00000156
     atom   22 type  1   force =    -0.00001281   -0.00000949   -0.00001784
     atom   23 type  2   force =     0.00000130    0.00000257   -0.00000116
     atom   24 type  2   force =    -0.00000259   -0.00000153   -0.00000316
     atom   25 type  2   force =     0.00000151    0.00000541   -0.00000442
     atom   26 type  1   force =     0.00000093    0.00000570   -0.00000397
     atom   27 type  1   force =    -0.00000243   -0.00000506   -0.00001907
     atom   28 type  2   force =     0.00000060   -0.00000474   -0.00000216
     atom   29 type  2   force =     0.00000052    0.00000689   -0.00000496
     atom   30 type  2   force =    -0.00000681   -0.00000621   -0.00000596
     atom   31 type  1   force =    -0.00002925    0.00001292   -0.00001177
     atom   32 type  1   force =    -0.00000018    0.00000186   -0.00000768
     atom   33 type  2   force =     0.00000355   -0.00000104   -0.00000109
     atom   34 type  2   force =     0.00000401   -0.00000189   -0.00000325
     atom   35 type  2   force =     0.00000120   -0.00000483   -0.00000152
     atom   36 type  1   force =    -0.00000957    0.00000085    0.00000715
     atom   37 type  1   force =    -0.00000363   -0.00000544   -0.00001497
     atom   38 type  2   force =    -0.00000148   -0.00000089    0.00000158
     atom   39 type  2   force =    -0.00000004    0.00000548   -0.00000404
     atom   40 type  2   force =     0.00000260   -0.00000228   -0.00000426
     atom   41 type  1   force =    -0.00002356    0.00002850   -0.00001761
     atom   42 type  1   force =     0.00000375    0.00001130   -0.00002670
     atom   43 type  2   force =    -0.00000716    0.00000288   -0.00000444
     atom   44 type  2   force =     0.00000235   -0.00000044   -0.00000482
     atom   45 type  2   force =     0.00000029   -0.00000118   -0.00000989
     atom   46 type  1   force =    -0.00001624    0.00001191    0.00000898
     atom   47 type  1   force =    -0.00001809   -0.00001874   -0.00000182
     atom   48 type  2   force =    -0.00000082   -0.00000300    0.00000385
     atom   49 type  2   force =    -0.00000090   -0.00000070   -0.00000278
     atom   50 type  2   force =    -0.00000543   -0.00000225   -0.00000390
     atom   51 type  1   force =     0.00000180   -0.00000298   -0.00000711
     atom   52 type  1   force =     0.00000442   -0.00000910   -0.00000523
     atom   53 type  2   force =    -0.00000173   -0.00000407   -0.00000532
     atom   54 type  2   force =    -0.00000123    0.00000877   -0.00000760
     atom   55 type  2   force =    -0.00000443   -0.00000242   -0.00000677
     atom   56 type  1   force =    -0.00001241    0.00001616   -0.00001680
     atom   57 type  1   force =     0.00000314    0.00000340   -0.00001091
     atom   58 type  2   force =     0.00000073   -0.00000194   -0.00000234
     atom   59 type  2   force =     0.00000083    0.00001116   -0.00000329
     atom   60 type  2   force =     0.00000001   -0.00000310   -0.00000171
     atom   61 type  1   force =     0.00000218    0.00000097   -0.00001687
     atom   62 type  1   force =     0.00000751    0.00000161   -0.00002550
     atom   63 type  2   force =     0.00000061   -0.00000080   -0.00000587
     atom   64 type  2   force =     0.00000179    0.00000299   -0.00000723
     atom   65 type  2   force =     0.00000046   -0.00000158   -0.00001073
     atom   66 type  1   force =    -0.00000064    0.00000540   -0.00000526
     atom   67 type  1   force =    -0.00000693   -0.00002321    0.00000386
     atom   68 type  2   force =    -0.00000077    0.00000120    0.00000720
     atom   69 type  2   force =     0.00000013   -0.00000103   -0.00000154
     atom   70 type  2   force =     0.00001060   -0.00000411   -0.00000575
     atom   71 type  1   force =    -0.00000800    0.00001168   -0.00001233
     atom   72 type  1   force =    -0.00000379   -0.00000064   -0.00001414
     atom   73 type  2   force =    -0.00000271    0.00000047   -0.00000119
     atom   74 type  2   force =     0.00000087    0.00000051   -0.00000683
     atom   75 type  2   force =     0.00000096   -0.00000146   -0.00000828
     atom   76 type  1   force =    -0.00000350    0.00000705   -0.00001533
     atom   77 type  1   force =    -0.00001770   -0.00001874   -0.00000952
     atom   78 type  2   force =    -0.00000382   -0.00000240   -0.00000262
     atom   79 type  2   force =    -0.00000026    0.00001222   -0.00000460
     atom   80 type  2   force =    -0.00000577   -0.00000511   -0.00000815

     Total force =     0.000570     Total SCF correction =     0.000128
     SCF correction compared to forces is large: reduce conv_thr to get better values


     Computing stress (Cartesian axis) and pressure


     negative rho (up, down):  3.354E-03 0.000E+00
          total   stress  (Ry/bohr**3)                   (kbar)     P=       -5.03
  -0.00002899   0.00001071  -0.00000005           -4.26        1.58       -0.01
   0.00001071  -0.00007181   0.00000044            1.58      -10.56        0.07
  -0.00000005   0.00000044  -0.00000180           -0.01        0.07       -0.27

     kinetic stress (kbar)   4917.33      2.73     -0.54
                                2.73   4911.02     -5.04
                               -0.54     -5.04   4910.66

     local   stress (kbar)-444634.44     93.62     19.41
                               93.62-441861.00  -1510.97
                               19.41  -1510.97 442444.73

     nonloc. stress (kbar)   -240.45      6.28     -1.65
                                6.28   -287.36     13.53
                               -1.65     13.53   -110.17

     hartree stress (kbar) 224479.80    -17.48    -13.48
                              -17.48 223038.64    688.44
                              -13.48    688.44-215194.83

     exc-cor stress (kbar)    595.18     -0.37      0.09
                               -0.37    597.41     -0.47
                                0.09     -0.47    586.28

     corecor stress (kbar)  -2382.52      0.02     -0.01
                                0.02  -2382.72      0.16
                               -0.01      0.16  -2381.71

     ewald   stress (kbar) 217260.84    -83.22     -3.83
                              -83.22 215973.44    814.41
                               -3.83    814.41-230255.22

     hubbard stress (kbar)      0.00      0.00      0.00
                                0.00      0.00      0.00
                                0.00      0.00      0.00

     DFT-D   stress (kbar)      0.00      0.00      0.00
                                0.00      0.00      0.00
                                0.00      0.00      0.00

     XDM     stress (kbar)      0.00      0.00      0.00
                                0.00      0.00      0.00
                                0.00      0.00      0.00

     dft-nl  stress (kbar)      0.00      0.00      0.00
                                0.00      0.00      0.00
                                0.00      0.00      0.00

     TS-vdW  stress (kbar)      0.00      0.00      0.00
                                0.00      0.00      0.00
                                0.00      0.00      0.00


                                0.00      0.00      0.00
                                0.00      0.00      0.00


                                0.00      0.00      0.00


     Molecular Dynamics Calculation

     Starting temperature  =   300.00 K

     temperature is controlled by stochastic velocity rescaling
     Characteristic time   =200*timestep
     mass Ga               =    69.72
     mass O                =    16.00
     Time step             =    20.00 a.u.,  0.9676 femto-seconds

     Entering Dynamics:    iteration =     1
                           time      =   0.0010 pico-seconds


     Canonical sampling velocity rescaling

ATOMIC_POSITIONS (crystal)
Ga            0.2009740211        0.3549229650        0.4082766347
Ga            0.1225879571        0.1549639875        0.3855068552
O             0.0896975379        0.2883086895        0.4296472120
O             0.1306713491        0.0037115746        0.3968846166
O             0.2305444040        0.2207842812        0.3641798194
Ga            0.2009658500        0.3549298045        0.6145740870
Ga            0.1223452463        0.1548723010        0.5917672385
O             0.0900977333        0.2884232545        0.6361100435
O             0.1307149540        0.0038737014        0.6024606947
O             0.2307482110        0.2215201493        0.5703385339
Ga            0.2011856514        0.8549391861        0.4082116561
Ga            0.1226809050        0.6547441980        0.3853461530
O             0.0905962242        0.7878998036        0.4296081612
O             0.1303310765        0.5037530102        0.3967192419
O             0.2306448104        0.7209786668        0.3640609543
Ga            0.2011029012        0.8549698916        0.6145614303
Ga            0.1224108161        0.6552573629        0.5916269012
O             0.0897115815        0.7883027558        0.6361441193
O             0.1304887342        0.5041381517        0.6027888836
O             0.2308409775        0.7213772731        0.5706071214
Ga            0.4510801304        0.3547783671        0.4083088163
Ga            0.3723904352        0.1548984186        0.3855860974
O             0.3398354560        0.2880044075        0.4297470437
O             0.3808856465        0.0029921577        0.3968432434
O             0.4808646368        0.2207180690        0.3639506898
Ga            0.4510563242        0.3551410757        0.6146164327
Ga            0.3721219788        0.1551971901        0.5917947724
O             0.3398941024        0.2883284038        0.6361549309
O             0.3803086150        0.0045013961        0.6028767400
O             0.4808416157        0.2210796896        0.5706797753
Ga            0.4511884089        0.8550213603        0.4082735007
Ga            0.3723182484        0.6551251840        0.3854506781
O             0.3396790129        0.7880196977        0.4295238363
O             0.3803458134        0.5036604767        0.3970045296
O             0.4803313635        0.7214663068        0.3642361811
Ga            0.4509396325        0.8551083740        0.6146079328
Ga            0.3720871528        0.6549969714        0.5916729451
O             0.3401214025        0.7879438182        0.6361389771
O             0.3810921787        0.5035195784        0.6029869723
O             0.4808210767        0.7219862824        0.5705031868
Ga            0.7009630258        0.3548861405        0.4082362988
Ga            0.6222013015        0.1550914996        0.3855476350
O             0.5898283612        0.2877563728        0.4295036902
O             0.6308608282        0.0033478543        0.3968725523
O             0.7310344741        0.2211931982        0.3638175186
Ga            0.7007048608        0.3552763545        0.6146500371
Ga            0.6221563705        0.1552847113        0.5917206516
O             0.5892670355        0.2887277913        0.6361049256
O             0.6308990153        0.0031804221        0.6029711159
O             0.7308824266        0.2211498495        0.5705575622
Ga            0.7011153052        0.8548816917        0.4083344450
Ga            0.6224296799        0.6547791026        0.3855196813
O             0.5903008367        0.7875683265        0.4296230104
O             0.6307519239        0.5034983476        0.3969334944
O             0.7311101697        0.7215874823        0.3639220907
Ga            0.7009191015        0.8552566155        0.6145695300
Ga            0.6222419908        0.6550905400        0.5917654456
O             0.5896698481        0.7878475947        0.6361005251
O             0.6305691369        0.5033846930        0.6028821123
O             0.7305699407        0.7215444322        0.5705597977
Ga            0.9507509598        0.3552313303        0.4082296037
Ga            0.8723254881        0.1552881918        0.3854792830
O             0.8395848335        0.2884522706        0.4294802848
O             0.8807233822        0.0036098736        0.3966151575
O             0.9809020632        0.2208794084        0.3639369281
Ga            0.9510756439        0.3550280896        0.6146761245
Ga            0.8720608600        0.1552653276        0.5918796202
O             0.8397780852        0.2880527794        0.6359761261
O             0.8810719310        0.0031608370        0.6027240904
O             0.9813053111        0.2216552064        0.5703752612
Ga            0.9509531079        0.8545102923        0.4083351626
Ga            0.8721935082        0.6547880188        0.3854209177
O             0.8400635662        0.7875274854        0.4297857782
O             0.8809049468        0.5034490281        0.3966442626
O             0.9813840868        0.7209452414        0.3641589637
Ga            0.9512026787        0.8552018188        0.6145836338
Ga            0.8721439822        0.6553222309        0.5917846962
O             0.8401114571        0.7877151597        0.6359077189
O             0.8807050401        0.5040755425        0.6030334225
O             0.9805555035        0.7213757476        0.5705805508


     kinetic energy (Ekin) =           0.22663075 Ry
     temperature           =         301.95919967 K 
     Ekin + Etot (const)   =      -10895.83662798 Ry
     Ions kinetic stress =            0.74 (kbar)
                                      0.68          -0.07          -0.13
                                     -0.07           0.74          -0.03
                                     -0.13          -0.03           0.82



     Linear momentum :    0.0000000000    0.0000000000    0.0000000000

     Writing config-only to output data dir ./tmp/md/Ga2O3-BL-001-4x2x1-300K.save/
     NEW-OLD atomic charge density approx. for the potential

     negative rho (up, down):  3.356E-03 0.000E+00

     total cpu time spent up to now is     5478.9 secs

     Self-consistent Calculation

     iteration #  1     ecut=    80.00 Ry     beta= 0.20
     Davidson diagonalization with overlap

---- Real-time Memory Report at c_bands before calling an iterative solver
          1590 MiB given to the printing process from OS
             0 MiB allocation reported by mallinfo(arena+hblkhd)
        348729 MiB available memory on the node where the printing process lives
------------------
     ethr =  1.00E-06,  avg # of iterations =  9.0

     negative rho (up, down):  3.354E-03 0.000E+00

     total cpu time spent up to now is     5662.5 secs

     total energy              =  -10896.06251883 Ry
     estimated scf accuracy    <       0.01586967 Ry

     iteration #  2     ecut=    80.00 Ry     beta= 0.20
     Davidson diagonalization with overlap

---- Real-time Memory Report at c_bands before calling an iterative solver
          1590 MiB given to the printing process from OS
             0 MiB allocation reported by mallinfo(arena+hblkhd)
        348286 MiB available memory on the node where the printing process lives
------------------
     ethr =  2.25E-06,  avg # of iterations =  1.0

     negative rho (up, down):  3.352E-03 0.000E+00

     total cpu time spent up to now is     5719.8 secs

     total energy              =  -10896.05848160 Ry
     estimated scf accuracy    <       0.00743740 Ry

     iteration #  3     ecut=    80.00 Ry     beta= 0.20
     Davidson diagonalization with overlap

---- Real-time Memory Report at c_bands before calling an iterative solver
          1590 MiB given to the printing process from OS
             0 MiB allocation reported by mallinfo(arena+hblkhd)
        348255 MiB available memory on the node where the printing process lives
------------------
     ethr =  1.06E-06,  avg # of iterations =  2.0

     negative rho (up, down):  3.351E-03 0.000E+00

     total cpu time spent up to now is     5793.8 secs

     total energy              =  -10896.06039066 Ry
     estimated scf accuracy    <       0.00065586 Ry

     iteration #  4     ecut=    80.00 Ry     beta= 0.20
     Davidson diagonalization with overlap

---- Real-time Memory Report at c_bands before calling an iterative solver
          1590 MiB given to the printing process from OS
             0 MiB allocation reported by mallinfo(arena+hblkhd)
        348150 MiB available memory on the node where the printing process lives
------------------
     ethr =  9.32E-08,  avg # of iterations = 12.0

     negative rho (up, down):  3.351E-03 0.000E+00

     total cpu time spent up to now is     5908.6 secs

     total energy              =  -10896.06072971 Ry
     estimated scf accuracy    <       0.00019345 Ry

     iteration #  5     ecut=    80.00 Ry     beta= 0.20
     Davidson diagonalization with overlap

---- Real-time Memory Report at c_bands before calling an iterative solver
          1590 MiB given to the printing process from OS
             0 MiB allocation reported by mallinfo(arena+hblkhd)
        347983 MiB available memory on the node where the printing process lives
------------------
     ethr =  2.75E-08,  avg # of iterations = 17.8

     negative rho (up, down):  3.352E-03 0.000E+00

     total cpu time spent up to now is     6113.8 secs

     total energy              =  -10896.06098677 Ry
     estimated scf accuracy    <       0.00023635 Ry

     iteration #  6     ecut=    80.00 Ry     beta= 0.20
     Davidson diagonalization with overlap

---- Real-time Memory Report at c_bands before calling an iterative solver
          1590 MiB given to the printing process from OS
             0 MiB allocation reported by mallinfo(arena+hblkhd)
        347935 MiB available memory on the node where the printing process lives
------------------
     ethr =  2.75E-08,  avg # of iterations =  1.5

     negative rho (up, down):  3.353E-03 0.000E+00

     total cpu time spent up to now is     6174.6 secs

     total energy              =  -10896.06101520 Ry
     estimated scf accuracy    <       0.00025206 Ry

     iteration #  7     ecut=    80.00 Ry     beta= 0.20
     Davidson diagonalization with overlap

---- Real-time Memory Report at c_bands before calling an iterative solver
          1590 MiB given to the printing process from OS
             0 MiB allocation reported by mallinfo(arena+hblkhd)
        347866 MiB available memory on the node where the printing process lives
------------------
     ethr =  2.75E-08,  avg # of iterations =  1.0

     negative rho (up, down):  3.351E-03 0.000E+00

     total cpu time spent up to now is     6231.9 secs

     total energy              =  -10896.06140637 Ry
     estimated scf accuracy    <       0.00029945 Ry

     iteration #  8     ecut=    80.00 Ry     beta= 0.20
     Davidson diagonalization with overlap

---- Real-time Memory Report at c_bands before calling an iterative solver
          1590 MiB given to the printing process from OS
             0 MiB allocation reported by mallinfo(arena+hblkhd)
        347728 MiB available memory on the node where the printing process lives
------------------
     ethr =  2.75E-08,  avg # of iterations =  9.8

     negative rho (up, down):  3.352E-03 0.000E+00

     total cpu time spent up to now is     6370.1 secs

     total energy              =  -10896.06175532 Ry
     estimated scf accuracy    <       0.00041948 Ry

     iteration #  9     ecut=    80.00 Ry     beta= 0.20
     Davidson diagonalization with overlap

---- Real-time Memory Report at c_bands before calling an iterative solver
          1590 MiB given to the printing process from OS
             0 MiB allocation reported by mallinfo(arena+hblkhd)
        347612 MiB available memory on the node where the printing process lives
------------------
     ethr =  2.75E-08,  avg # of iterations =  7.8

     negative rho (up, down):  3.351E-03 0.000E+00

     total cpu time spent up to now is     6460.4 secs

     total energy              =  -10896.06171141 Ry
     estimated scf accuracy    <       0.00104901 Ry

     iteration # 10     ecut=    80.00 Ry     beta= 0.20
     Davidson diagonalization with overlap

---- Real-time Memory Report at c_bands before calling an iterative solver
          1590 MiB given to the printing process from OS
             0 MiB allocation reported by mallinfo(arena+hblkhd)
        347572 MiB available memory on the node where the printing process lives
------------------
     ethr =  2.75E-08,  avg # of iterations =  6.8

     negative rho (up, down):  3.350E-03 0.000E+00

     total cpu time spent up to now is     6542.4 secs

     total energy              =  -10896.06172914 Ry
     estimated scf accuracy    <       0.00038272 Ry

     iteration # 11     ecut=    80.00 Ry     beta= 0.20
     Davidson diagonalization with overlap

---- Real-time Memory Report at c_bands before calling an iterative solver
          1590 MiB given to the printing process from OS
             0 MiB allocation reported by mallinfo(arena+hblkhd)
        347517 MiB available memory on the node where the printing process lives
------------------
     ethr =  2.75E-08,  avg # of iterations =  2.0

     negative rho (up, down):  3.351E-03 0.000E+00

     total cpu time spent up to now is     6607.7 secs

     total energy              =  -10896.06175008 Ry
     estimated scf accuracy    <       0.00031925 Ry

     iteration # 12     ecut=    80.00 Ry     beta= 0.20
     Davidson diagonalization with overlap

---- Real-time Memory Report at c_bands before calling an iterative solver
          1590 MiB given to the printing process from OS
             0 MiB allocation reported by mallinfo(arena+hblkhd)
        347529 MiB available memory on the node where the printing process lives
------------------
     ethr =  2.75E-08,  avg # of iterations =  1.5

     negative rho (up, down):  3.352E-03 0.000E+00

     total cpu time spent up to now is     6669.4 secs

     total energy              =  -10896.06166366 Ry
     estimated scf accuracy    <       0.00034178 Ry

     iteration # 13     ecut=    80.00 Ry     beta= 0.20
     Davidson diagonalization with overlap

---- Real-time Memory Report at c_bands before calling an iterative solver
          1590 MiB given to the printing process from OS
             0 MiB allocation reported by mallinfo(arena+hblkhd)
        347515 MiB available memory on the node where the printing process lives
------------------
     ethr =  2.75E-08,  avg # of iterations =  1.0

     negative rho (up, down):  3.350E-03 0.000E+00

     total cpu time spent up to now is     6727.6 secs

     total energy              =  -10896.06173386 Ry
     estimated scf accuracy    <       0.00046988 Ry

     iteration # 14     ecut=    80.00 Ry     beta= 0.20
     Davidson diagonalization with overlap

---- Real-time Memory Report at c_bands before calling an iterative solver
          1590 MiB given to the printing process from OS
             0 MiB allocation reported by mallinfo(arena+hblkhd)
        347507 MiB available memory on the node where the printing process lives
------------------
     ethr =  2.75E-08,  avg # of iterations =  7.2

     negative rho (up, down):  3.351E-03 0.000E+00

     total cpu time spent up to now is     6832.6 secs

     total energy              =  -10896.06185299 Ry
     estimated scf accuracy    <       0.00032228 Ry

     iteration # 15     ecut=    80.00 Ry     beta= 0.20
     Davidson diagonalization with overlap

---- Real-time Memory Report at c_bands before calling an iterative solver
          1590 MiB given to the printing process from OS
             0 MiB allocation reported by mallinfo(arena+hblkhd)
        347491 MiB available memory on the node where the printing process lives
------------------
     ethr =  2.75E-08,  avg # of iterations =  5.0

     negative rho (up, down):  3.351E-03 0.000E+00

     total cpu time spent up to now is     6928.4 secs

     total energy              =  -10896.06192340 Ry
     estimated scf accuracy    <       0.00085493 Ry

     iteration # 16     ecut=    80.00 Ry     beta= 0.20
     Davidson diagonalization with overlap

---- Real-time Memory Report at c_bands before calling an iterative solver
          1590 MiB given to the printing process from OS
             0 MiB allocation reported by mallinfo(arena+hblkhd)
        347487 MiB available memory on the node where the printing process lives
------------------
     ethr =  2.75E-08,  avg # of iterations =  2.0

     negative rho (up, down):  3.352E-03 0.000E+00

     total cpu time spent up to now is     6992.9 secs

     total energy              =  -10896.06182186 Ry
     estimated scf accuracy    <       0.00092386 Ry

     iteration # 17     ecut=    80.00 Ry     beta= 0.20
     Davidson diagonalization with overlap

---- Real-time Memory Report at c_bands before calling an iterative solver
          1590 MiB given to the printing process from OS
             0 MiB allocation reported by mallinfo(arena+hblkhd)
        347496 MiB available memory on the node where the printing process lives
------------------
     ethr =  2.75E-08,  avg # of iterations =  2.0

     negative rho (up, down):  3.349E-03 0.000E+00

     total cpu time spent up to now is     7057.5 secs

     total energy              =  -10896.06151801 Ry
     estimated scf accuracy    <       0.00072090 Ry

     iteration # 18     ecut=    80.00 Ry     beta= 0.20
     Davidson diagonalization with overlap

---- Real-time Memory Report at c_bands before calling an iterative solver
          1590 MiB given to the printing process from OS
             0 MiB allocation reported by mallinfo(arena+hblkhd)
        347490 MiB available memory on the node where the printing process lives
------------------
     ethr =  2.75E-08,  avg # of iterations = 12.0

     negative rho (up, down):  3.350E-03 0.000E+00

     total cpu time spent up to now is     7217.5 secs

     total energy              =  -10896.06181317 Ry
     estimated scf accuracy    <       0.00120428 Ry

     iteration # 19     ecut=    80.00 Ry     beta= 0.20
     Davidson diagonalization with overlap

---- Real-time Memory Report at c_bands before calling an iterative solver
          1590 MiB given to the printing process from OS
             0 MiB allocation reported by mallinfo(arena+hblkhd)
        347454 MiB available memory on the node where the printing process lives
------------------
     ethr =  2.75E-08,  avg # of iterations =  6.0

     negative rho (up, down):  3.350E-03 0.000E+00

     total cpu time spent up to now is     7306.3 secs

     total energy              =  -10896.06187869 Ry
     estimated scf accuracy    <       0.00034446 Ry

     iteration # 20     ecut=    80.00 Ry     beta= 0.20
     Davidson diagonalization with overlap

---- Real-time Memory Report at c_bands before calling an iterative solver
          1590 MiB given to the printing process from OS
             0 MiB allocation reported by mallinfo(arena+hblkhd)
        347463 MiB available memory on the node where the printing process lives
------------------
     ethr =  2.75E-08,  avg # of iterations =  1.0

     negative rho (up, down):  3.349E-03 0.000E+00

     total cpu time spent up to now is     7363.6 secs

     total energy              =  -10896.06189827 Ry
     estimated scf accuracy    <       0.00032040 Ry

     iteration # 21     ecut=    80.00 Ry     beta= 0.20
     Davidson diagonalization with overlap

---- Real-time Memory Report at c_bands before calling an iterative solver
          1590 MiB given to the printing process from OS
             0 MiB allocation reported by mallinfo(arena+hblkhd)
        347474 MiB available memory on the node where the printing process lives
------------------
     ethr =  2.75E-08,  avg # of iterations =  1.0

     negative rho (up, down):  3.350E-03 0.000E+00

     total cpu time spent up to now is     7420.8 secs

     total energy              =  -10896.06188695 Ry
     estimated scf accuracy    <       0.00028103 Ry

     iteration # 22     ecut=    80.00 Ry     beta= 0.20
     Davidson diagonalization with overlap

---- Real-time Memory Report at c_bands before calling an iterative solver
          1590 MiB given to the printing process from OS
             0 MiB allocation reported by mallinfo(arena+hblkhd)
        347467 MiB available memory on the node where the printing process lives
------------------
     ethr =  2.75E-08,  avg # of iterations =  2.0

     negative rho (up, down):  3.350E-03 0.000E+00

     total cpu time spent up to now is     7490.4 secs

     total energy              =  -10896.06188644 Ry
     estimated scf accuracy    <       0.00023309 Ry

     iteration # 23     ecut=    80.00 Ry     beta= 0.20
     Davidson diagonalization with overlap

---- Real-time Memory Report at c_bands before calling an iterative solver
          1590 MiB given to the printing process from OS
             0 MiB allocation reported by mallinfo(arena+hblkhd)
        347489 MiB available memory on the node where the printing process lives
------------------
     ethr =  2.75E-08,  avg # of iterations =  1.5

     negative rho (up, down):  3.350E-03 0.000E+00

     total cpu time spent up to now is     7551.0 secs

     total energy              =  -10896.06185985 Ry
     estimated scf accuracy    <       0.00018936 Ry

     iteration # 24     ecut=    80.00 Ry     beta= 0.20
     Davidson diagonalization with overlap

---- Real-time Memory Report at c_bands before calling an iterative solver
          1590 MiB given to the printing process from OS
             0 MiB allocation reported by mallinfo(arena+hblkhd)
        347474 MiB available memory on the node where the printing process lives
------------------
     ethr =  2.69E-08,  avg # of iterations =  2.0

     negative rho (up, down):  3.352E-03 0.000E+00

     total cpu time spent up to now is     7618.8 secs

     total energy              =  -10896.06178920 Ry
     estimated scf accuracy    <       0.00010543 Ry

     iteration # 25     ecut=    80.00 Ry     beta= 0.20
     Davidson diagonalization with overlap

---- Real-time Memory Report at c_bands before calling an iterative solver
          1590 MiB given to the printing process from OS
             0 MiB allocation reported by mallinfo(arena+hblkhd)
        347449 MiB available memory on the node where the printing process lives
------------------
     ethr =  1.50E-08,  avg # of iterations =  7.0

     negative rho (up, down):  3.350E-03 0.000E+00

     total cpu time spent up to now is     7741.3 secs

     total energy              =  -10896.06185483 Ry
     estimated scf accuracy    <       0.00003202 Ry

     iteration # 26     ecut=    80.00 Ry     beta= 0.20
     Davidson diagonalization with overlap

---- Real-time Memory Report at c_bands before calling an iterative solver
          1590 MiB given to the printing process from OS
             0 MiB allocation reported by mallinfo(arena+hblkhd)
        347446 MiB available memory on the node where the printing process lives
------------------
     ethr =  4.55E-09,  avg # of iterations =  5.0

     negative rho (up, down):  3.350E-03 0.000E+00

     total cpu time spent up to now is     7840.0 secs

     total energy              =  -10896.06186597 Ry
     estimated scf accuracy    <       0.00000311 Ry

     iteration # 27     ecut=    80.00 Ry     beta= 0.20
     Davidson diagonalization with overlap

---- Real-time Memory Report at c_bands before calling an iterative solver
          1590 MiB given to the printing process from OS
             0 MiB allocation reported by mallinfo(arena+hblkhd)
        347449 MiB available memory on the node where the printing process lives
------------------
     ethr =  4.42E-10,  avg # of iterations = 15.0

     negative rho (up, down):  3.350E-03 0.000E+00

     total cpu time spent up to now is     8034.1 secs

     total energy              =  -10896.06187088 Ry
     estimated scf accuracy    <       0.00000653 Ry

     iteration # 28     ecut=    80.00 Ry     beta= 0.20
     Davidson diagonalization with overlap

---- Real-time Memory Report at c_bands before calling an iterative solver
          1590 MiB given to the printing process from OS
             0 MiB allocation reported by mallinfo(arena+hblkhd)
        347452 MiB available memory on the node where the printing process lives
------------------
     ethr =  4.42E-10,  avg # of iterations =  6.2

     negative rho (up, down):  3.350E-03 0.000E+00

     total cpu time spent up to now is     8135.0 secs

     total energy              =  -10896.06187104 Ry
     estimated scf accuracy    <       0.00000240 Ry

     iteration # 29     ecut=    80.00 Ry     beta= 0.20
     Davidson diagonalization with overlap

---- Real-time Memory Report at c_bands before calling an iterative solver
          1590 MiB given to the printing process from OS
             0 MiB allocation reported by mallinfo(arena+hblkhd)
        347457 MiB available memory on the node where the printing process lives
------------------
     ethr =  3.42E-10,  avg # of iterations = 10.8

     negative rho (up, down):  3.350E-03 0.000E+00

     total cpu time spent up to now is     8275.8 secs

     total energy              =  -10896.06187252 Ry
     estimated scf accuracy    <       0.00000353 Ry

     iteration # 30     ecut=    80.00 Ry     beta= 0.20
     Davidson diagonalization with overlap

---- Real-time Memory Report at c_bands before calling an iterative solver
          1590 MiB given to the printing process from OS
             0 MiB allocation reported by mallinfo(arena+hblkhd)
        347430 MiB available memory on the node where the printing process lives
------------------
     ethr =  3.42E-10,  avg # of iterations =  4.2

     negative rho (up, down):  3.350E-03 0.000E+00

     total cpu time spent up to now is     8345.5 secs

     total energy              =  -10896.06187231 Ry
     estimated scf accuracy    <       0.00000203 Ry

     iteration # 31     ecut=    80.00 Ry     beta= 0.20
     Davidson diagonalization with overlap

---- Real-time Memory Report at c_bands before calling an iterative solver
          1590 MiB given to the printing process from OS
             0 MiB allocation reported by mallinfo(arena+hblkhd)
        347451 MiB available memory on the node where the printing process lives
------------------
     ethr =  2.89E-10,  avg # of iterations =  7.0

     negative rho (up, down):  3.350E-03 0.000E+00

     total cpu time spent up to now is     8474.6 secs

     total energy              =  -10896.06187317 Ry
     estimated scf accuracy    <       0.00000103 Ry

     iteration # 32     ecut=    80.00 Ry     beta= 0.20
     Davidson diagonalization with overlap

---- Real-time Memory Report at c_bands before calling an iterative solver
          1590 MiB given to the printing process from OS
             0 MiB allocation reported by mallinfo(arena+hblkhd)
        347467 MiB available memory on the node where the printing process lives
------------------
     ethr =  1.46E-10,  avg # of iterations =  5.5

     negative rho (up, down):  3.350E-03 0.000E+00

     total cpu time spent up to now is     8556.7 secs

     total energy              =  -10896.06187319 Ry
     estimated scf accuracy    <       0.00000032 Ry

     iteration # 33     ecut=    80.00 Ry     beta= 0.20
     Davidson diagonalization with overlap

---- Real-time Memory Report at c_bands before calling an iterative solver
          1590 MiB given to the printing process from OS
             0 MiB allocation reported by mallinfo(arena+hblkhd)
        347443 MiB available memory on the node where the printing process lives
------------------
     ethr =  4.50E-11,  avg # of iterations = 14.5

     negative rho (up, down):  3.350E-03 0.000E+00

     total cpu time spent up to now is     8712.7 secs

     total energy              =  -10896.06187362 Ry
     estimated scf accuracy    <       0.00000035 Ry

     iteration # 34     ecut=    80.00 Ry     beta= 0.20
     Davidson diagonalization with overlap

---- Real-time Memory Report at c_bands before calling an iterative solver
          1590 MiB given to the printing process from OS
             0 MiB allocation reported by mallinfo(arena+hblkhd)
        347430 MiB available memory on the node where the printing process lives
------------------
     ethr =  4.50E-11,  avg # of iterations =  1.8

     negative rho (up, down):  3.350E-03 0.000E+00

     total cpu time spent up to now is     8775.1 secs

     total energy              =  -10896.06187350 Ry
     estimated scf accuracy    <       0.00000037 Ry

     iteration # 35     ecut=    80.00 Ry     beta= 0.20
     Davidson diagonalization with overlap

---- Real-time Memory Report at c_bands before calling an iterative solver
          1590 MiB given to the printing process from OS
             0 MiB allocation reported by mallinfo(arena+hblkhd)
        347435 MiB available memory on the node where the printing process lives
------------------
     ethr =  4.50E-11,  avg # of iterations =  9.5

     negative rho (up, down):  3.350E-03 0.000E+00

     total cpu time spent up to now is     8870.0 secs

     total energy              =  -10896.06187360 Ry
     estimated scf accuracy    <       0.00000002 Ry

     iteration # 36     ecut=    80.00 Ry     beta= 0.20
     Davidson diagonalization with overlap

---- Real-time Memory Report at c_bands before calling an iterative solver
          1590 MiB given to the printing process from OS
             0 MiB allocation reported by mallinfo(arena+hblkhd)
        347442 MiB available memory on the node where the printing process lives
------------------
     c_bands:  3 eigenvalues not converged
     ethr =  2.47E-12,  avg # of iterations = 23.8

     negative rho (up, down):  3.350E-03 0.000E+00

     total cpu time spent up to now is     9374.7 secs

     total energy              =  -10896.06187373 Ry
     estimated scf accuracy    <       0.00000002 Ry

     iteration # 37     ecut=    80.00 Ry     beta= 0.20
     Davidson diagonalization with overlap

---- Real-time Memory Report at c_bands before calling an iterative solver
          1590 MiB given to the printing process from OS
             0 MiB allocation reported by mallinfo(arena+hblkhd)
        347390 MiB available memory on the node where the printing process lives
------------------
     ethr =  2.47E-12,  avg # of iterations =  2.0

     negative rho (up, down):  3.350E-03 0.000E+00

     total cpu time spent up to now is     9447.8 secs

     total energy              =  -10896.06187373 Ry
     estimated scf accuracy    <       0.00000002 Ry

     iteration # 38     ecut=    80.00 Ry     beta= 0.20
     Davidson diagonalization with overlap

---- Real-time Memory Report at c_bands before calling an iterative solver
          1590 MiB given to the printing process from OS
             0 MiB allocation reported by mallinfo(arena+hblkhd)
        347401 MiB available memory on the node where the printing process lives
------------------
     ethr =  2.47E-12,  avg # of iterations =  3.0

     negative rho (up, down):  3.350E-03 0.000E+00

     total cpu time spent up to now is     9548.6 secs

     End of self-consistent calculation

          k = 0.0000 0.0000 0.0000 (360677 PWs)   bands (ev):

   -25.0789 -25.0671 -24.9865 -24.9731 -24.7964 -24.7878 -24.7841 -24.7782
   -24.7452 -24.7336 -24.7291 -24.7237 -24.3057 -24.2991 -24.2966 -24.2737
   -24.2719 -24.2644 -24.2520 -24.2491 -24.1706 -24.1598 -24.1052 -24.0866
   -24.0852 -24.0772 -24.0744 -24.0699 -24.0622 -24.0587 -24.0563 -24.0347
   -23.8367 -23.8351 -23.8297 -23.8291 -23.8211 -23.8084 -23.8044 -23.7925
   -23.7911 -23.7769 -23.7731 -23.7715 -23.7634 -23.7506 -23.7492 -23.7220
   -20.1004 -20.0926 -20.0584 -20.0532 -20.0491 -20.0416 -20.0299 -20.0247
   -20.0238 -20.0178 -20.0166 -20.0114 -20.0045 -20.0038 -19.9960 -19.9842
   -19.9581 -19.9492 -19.9247 -19.9199 -19.9182 -19.9155 -19.9137 -19.9104
   -19.9088 -19.9052 -19.9004 -19.8996 -19.8982 -19.8949 -19.8940 -19.8938
   -19.8926 -19.8910 -19.8896 -19.8894 -19.8858 -19.8828 -19.8810 -19.8807
   -19.8773 -19.8735 -19.8710 -19.8700 -19.8684 -19.8671 -19.8654 -19.8621
   -19.8599 -19.8570 -19.8563 -19.8538 -19.8534 -19.8502 -19.8499 -19.8446
   -19.8442 -19.8388 -19.8381 -19.8378 -19.8347 -19.8315 -19.8309 -19.8305
   -19.8275 -19.8255 -19.8227 -19.8192 -19.8169 -19.8152 -19.8110 -19.8047
   -19.7978 -19.7946 -19.7900 -19.7810 -19.7799 -19.7779 -19.7767 -19.7713
   -19.7699 -19.7688 -19.7680 -19.7651 -19.7605 -19.7576 -19.7569 -19.7556
   -19.7511 -19.7483 -19.7444 -19.7435 -19.7419 -19.7390 -19.7343 -19.7338
   -19.7312 -19.7251 -19.7237 -19.7199 -19.7149 -19.7126 -19.7115 -19.7110
   -19.7039 -19.7034 -19.6985 -19.6956 -19.6946 -19.6885 -19.6760 -19.6734
   -19.6266 -19.6182 -19.6104 -19.5953 -19.5923 -19.5842 -19.5799 -19.5761
   -19.5372 -19.5314 -19.5240 -19.5198 -19.3960 -19.3898 -19.3896 -19.3855
   -19.3774 -19.3747 -19.3226 -19.3190 -19.3120 -19.3053 -19.2656 -19.2582
   -19.2523 -19.2488 -19.1390 -19.1283 -19.1214 -19.1181 -19.1140 -19.1089
   -19.0979 -19.0862 -19.0204 -19.0078 -19.0057 -19.0051 -19.0003 -18.9947
   -18.9532 -18.9525 -18.9481 -18.9363 -18.9361 -18.9339 -18.9255 -18.9168
   -13.0723 -13.0582 -13.0485 -13.0378 -12.8771 -12.8650 -12.8061 -12.8022
   -12.7918 -12.7882 -12.4633 -12.4505 -12.4368 -12.4255 -12.2547 -12.2464
   -12.2382 -12.2327 -11.6902 -11.6766 -11.5518 -11.5409 -11.5335 -11.5299
   -11.2374 -11.2315 -11.2269 -11.2245 -10.8384 -10.8311 -10.8176 -10.8150
   -10.6621 -10.6586 -10.6405 -10.6253 -10.5741 -10.5695 -10.5621 -10.5591
   -10.5427 -10.5283 -10.4736 -10.4627 -10.4432 -10.4241  -9.9726  -9.9629
    -9.9540  -9.9512  -9.8991  -9.8884  -9.8516  -9.8358  -9.7352  -9.7316
    -9.7098  -9.6879  -9.3596  -9.3541  -9.3430  -9.3400  -9.2612  -9.2494
    -9.2239  -9.2107  -9.1805  -9.1763  -9.1678  -9.1625  -8.9560  -8.9536
    -8.9330  -8.9294  -8.7379  -8.7282  -8.6074  -8.5980  -8.5635  -8.5604
    -8.5505  -8.5463  -8.5288  -8.5118  -8.4846  -8.4789  -8.4651  -8.4628
    -8.4620  -8.4574  -8.4546  -8.4478  -8.3161  -8.3017  -8.2336  -8.2139
    -8.1954  -8.1526  -8.1457  -8.1364  -8.1285  -8.1194  -7.8485  -7.7855
    -7.7732  -7.7621  -7.7524  -7.7494  -7.7416  -7.7401  -7.7311  -7.7174
    -7.6521  -7.6470  -7.6366  -7.6351  -7.5951  -7.5603  -7.5417  -7.5381
    -7.5241  -7.5217  -7.5109  -7.5060  -7.4900  -7.4877  -7.4657  -7.4623
    -7.4449  -7.4395  -7.4156  -7.4045  -7.3827  -7.3746  -7.3714  -7.3696
    -7.3675  -7.3535  -7.3454  -7.3280  -7.0732  -7.0653  -7.0431  -7.0282

     occupation numbers 
     1.0000   1.0000   1.0000   1.0000   1.0000   1.0000   1.0000   1.0000
     1.0000   1.0000   1.0000   1.0000   1.0000   1.0000   1.0000   1.0000
     1.0000   1.0000   1.0000   1.0000   1.0000   1.0000   1.0000   1.0000
     1.0000   1.0000   1.0000   1.0000   1.0000   1.0000   1.0000   1.0000
     1.0000   1.0000   1.0000   1.0000   1.0000   1.0000   1.0000   1.0000
     1.0000   1.0000   1.0000   1.0000   1.0000   1.0000   1.0000   1.0000
     1.0000   1.0000   1.0000   1.0000   1.0000   1.0000   1.0000   1.0000
     1.0000   1.0000   1.0000   1.0000   1.0000   1.0000   1.0000   1.0000
     1.0000   1.0000   1.0000   1.0000   1.0000   1.0000   1.0000   1.0000
     1.0000   1.0000   1.0000   1.0000   1.0000   1.0000   1.0000   1.0000
     1.0000   1.0000   1.0000   1.0000   1.0000   1.0000   1.0000   1.0000
     1.0000   1.0000   1.0000   1.0000   1.0000   1.0000   1.0000   1.0000
     1.0000   1.0000   1.0000   1.0000   1.0000   1.0000   1.0000   1.0000
     1.0000   1.0000   1.0000   1.0000   1.0000   1.0000   1.0000   1.0000
     1.0000   1.0000   1.0000   1.0000   1.0000   1.0000   1.0000   1.0000
     1.0000   1.0000   1.0000   1.0000   1.0000   1.0000   1.0000   1.0000
     1.0000   1.0000   1.0000   1.0000   1.0000   1.0000   1.0000   1.0000
     1.0000   1.0000   1.0000   1.0000   1.0000   1.0000   1.0000   1.0000
     1.0000   1.0000   1.0000   1.0000   1.0000   1.0000   1.0000   1.0000
     1.0000   1.0000   1.0000   1.0000   1.0000   1.0000   1.0000   1.0000
     1.0000   1.0000   1.0000   1.0000   1.0000   1.0000   1.0000   1.0000
     1.0000   1.0000   1.0000   1.0000   1.0000   1.0000   1.0000   1.0000
     1.0000   1.0000   1.0000   1.0000   1.0000   1.0000   1.0000   1.0000
     1.0000   1.0000   1.0000   1.0000   1.0000   1.0000   1.0000   1.0000
     1.0000   1.0000   1.0000   1.0000   1.0000   1.0000   1.0000   1.0000
     1.0000   1.0000   1.0000   1.0000   1.0000   1.0000   1.0000   1.0000
     1.0000   1.0000   1.0000   1.0000   1.0000   1.0000   1.0000   1.0000
     1.0000   1.0000   1.0000   1.0000   1.0000   1.0000   1.0000   1.0000
     1.0000   1.0000   1.0000   1.0000   1.0000   1.0000   1.0000   1.0000
     1.0000   1.0000   1.0000   1.0000   1.0000   1.0000   1.0000   1.0000
     1.0000   1.0000   1.0000   1.0000   1.0000   1.0000   1.0000   1.0000
     1.0000   1.0000   1.0000   1.0000   1.0000   1.0000   1.0000   1.0000
     1.0000   1.0000   1.0000   1.0000   1.0000   1.0000   1.0000   1.0000
     1.0000   1.0000   1.0000   1.0000   1.0000   1.0000   1.0000   1.0000
     1.0000   1.0000   1.0000   1.0000   1.0000   1.0000   1.0000   1.0000
     1.0000   1.0000   1.0000   1.0000   1.0000   1.0000   1.0000   1.0000
     1.0000   1.0000   1.0000   1.0000   1.0000   1.0000   1.0000   1.0000
     1.0000   1.0000   1.0000   1.0000   1.0000   1.0000   1.0000   1.0000
     1.0000   1.0000   1.0000   1.0000   1.0000   1.0000   1.0000   1.0000
     1.0000   1.0000   1.0000   1.0000   1.0000   1.0000   1.0000   1.0000
     1.0000   1.0000   1.0000   1.0000   1.0000   1.0000   1.0000   1.0000
     1.0000   1.0000   1.0000   1.0000   1.0000   1.0000   1.0000   1.0000
     1.0000   1.0000   1.0000   1.0000   1.0000   1.0000   1.0000   1.0000
     1.0000   1.0000   1.0000   1.0000   1.0000   1.0000   1.0000   1.0000

          k = 0.0247-0.5725 0.0000 (360514 PWs)   bands (ev):

   -25.0383 -25.0325 -25.0300 -25.0158 -24.7959 -24.7875 -24.7834 -24.7773
   -24.7455 -24.7346 -24.7301 -24.7244 -24.3060 -24.2988 -24.2967 -24.2737
   -24.2719 -24.2646 -24.2520 -24.2489 -24.1297 -24.1179 -24.1161 -24.1015
   -24.0851 -24.0831 -24.0811 -24.0734 -24.0722 -24.0614 -24.0580 -24.0449
   -23.8381 -23.8365 -23.8322 -23.8258 -23.8168 -23.8125 -23.8091 -23.7911
   -23.7873 -23.7797 -23.7768 -23.7713 -23.7574 -23.7530 -23.7508 -23.7215
   -20.0703 -20.0674 -20.0669 -20.0587 -20.0543 -20.0485 -20.0427 -20.0367
   -20.0263 -20.0206 -20.0169 -20.0117 -20.0064 -20.0046 -19.9994 -19.9843
   -19.9427 -19.9402 -19.9371 -19.9294 -19.9208 -19.9176 -19.9118 -19.9109
   -19.9091 -19.9091 -19.8973 -19.8965 -19.8964 -19.8960 -19.8937 -19.8917
   -19.8915 -19.8886 -19.8875 -19.8866 -19.8840 -19.8825 -19.8821 -19.8771
   -19.8765 -19.8758 -19.8735 -19.8726 -19.8725 -19.8681 -19.8646 -19.8637
   -19.8636 -19.8607 -19.8582 -19.8549 -19.8530 -19.8509 -19.8508 -19.8485
   -19.8482 -19.8418 -19.8364 -19.8363 -19.8336 -19.8319 -19.8312 -19.8299
   -19.8268 -19.8261 -19.8249 -19.8248 -19.8203 -19.8155 -19.8126 -19.8099
   -19.7992 -19.7963 -19.7957 -19.7824 -19.7802 -19.7776 -19.7763 -19.7738
   -19.7717 -19.7652 -19.7642 -19.7626 -19.7621 -19.7582 -19.7534 -19.7524
   -19.7496 -19.7492 -19.7427 -19.7421 -19.7397 -19.7376 -19.7318 -19.7297
   -19.7263 -19.7230 -19.7196 -19.7175 -19.7167 -19.7134 -19.7099 -19.7065
   -19.7046 -19.7030 -19.6999 -19.6992 -19.6952 -19.6916 -19.6802 -19.6763
   -19.6203 -19.6131 -19.6114 -19.6006 -19.5857 -19.5820 -19.5750 -19.5703
   -19.5490 -19.5454 -19.5365 -19.5326 -19.3906 -19.3904 -19.3870 -19.3736
   -19.2941 -19.2923 -19.2861 -19.2846 -19.2770 -19.2722 -19.2669 -19.2644
   -19.2615 -19.2582 -19.2558 -19.2518 -19.1606 -19.1599 -19.1479 -19.1461
   -19.0407 -19.0379 -19.0351 -19.0253 -18.9790 -18.9779 -18.9702 -18.9700
   -18.9534 -18.9516 -18.9481 -18.9476 -18.9463 -18.9429 -18.9312 -18.9240
   -13.0645 -13.0570 -13.0552 -13.0412 -12.8146 -12.8091 -12.7968 -12.7952
   -12.4551 -12.4437 -12.4431 -12.4386 -12.4325 -12.4305 -12.4298 -12.4133
   -12.2290 -12.2230 -12.2150 -12.2139 -11.5795 -11.5733 -11.5680 -11.5641
   -11.2251 -11.2232 -11.2104 -11.2076 -10.8142 -10.8093 -10.8019 -10.7983
   -10.6292 -10.6198 -10.6150 -10.6086 -10.6071 -10.6010 -10.5922 -10.5853
   -10.4103 -10.4071 -10.4017 -10.3851 -10.0201 -10.0179 -10.0151 -10.0012
    -9.9479  -9.9429  -9.9327  -9.9281  -9.8495  -9.8456  -9.8448  -9.8230
    -9.4389  -9.4352  -9.4258  -9.4181  -9.3664  -9.3619  -9.3511  -9.3468
    -9.2224  -9.2129  -9.2125  -9.1974  -9.1567  -9.1537  -9.1442  -9.1413
    -8.9799  -8.9768  -8.9559  -8.9546  -8.6416  -8.6368  -8.6258  -8.6129
    -8.5672  -8.5614  -8.5523  -8.5494  -8.4772  -8.4738  -8.4514  -8.4498
    -8.2779  -8.2712  -8.2667  -8.2542  -8.2357  -8.2304  -8.2083  -8.2070
    -8.2043  -8.2012  -8.1907  -8.1878  -7.9112  -7.9028  -7.8596  -7.8498
    -7.8226  -7.8200  -7.8148  -7.8005  -7.7533  -7.7497  -7.7356  -7.7340
    -7.6395  -7.6362  -7.6261  -7.6238  -7.5721  -7.5712  -7.5547  -7.5476
    -7.5279  -7.5267  -7.5183  -7.5175  -7.4956  -7.4935  -7.4779  -7.4766
    -7.4649  -7.4611  -7.4463  -7.4438  -7.4141  -7.4091  -7.4004  -7.3939
    -7.3773  -7.3657  -7.3651  -7.3478  -7.0586  -7.0539  -7.0481  -7.0299

     occupation numbers 
     1.0000   1.0000   1.0000   1.0000   1.0000   1.0000   1.0000   1.0000
     1.0000   1.0000   1.0000   1.0000   1.0000   1.0000   1.0000   1.0000
     1.0000   1.0000   1.0000   1.0000   1.0000   1.0000   1.0000   1.0000
     1.0000   1.0000   1.0000   1.0000   1.0000   1.0000   1.0000   1.0000
     1.0000   1.0000   1.0000   1.0000   1.0000   1.0000   1.0000   1.0000
     1.0000   1.0000   1.0000   1.0000   1.0000   1.0000   1.0000   1.0000
     1.0000   1.0000   1.0000   1.0000   1.0000   1.0000   1.0000   1.0000
     1.0000   1.0000   1.0000   1.0000   1.0000   1.0000   1.0000   1.0000
     1.0000   1.0000   1.0000   1.0000   1.0000   1.0000   1.0000   1.0000
     1.0000   1.0000   1.0000   1.0000   1.0000   1.0000   1.0000   1.0000
     1.0000   1.0000   1.0000   1.0000   1.0000   1.0000   1.0000   1.0000
     1.0000   1.0000   1.0000   1.0000   1.0000   1.0000   1.0000   1.0000
     1.0000   1.0000   1.0000   1.0000   1.0000   1.0000   1.0000   1.0000
     1.0000   1.0000   1.0000   1.0000   1.0000   1.0000   1.0000   1.0000
     1.0000   1.0000   1.0000   1.0000   1.0000   1.0000   1.0000   1.0000
     1.0000   1.0000   1.0000   1.0000   1.0000   1.0000   1.0000   1.0000
     1.0000   1.0000   1.0000   1.0000   1.0000   1.0000   1.0000   1.0000
     1.0000   1.0000   1.0000   1.0000   1.0000   1.0000   1.0000   1.0000
     1.0000   1.0000   1.0000   1.0000   1.0000   1.0000   1.0000   1.0000
     1.0000   1.0000   1.0000   1.0000   1.0000   1.0000   1.0000   1.0000
     1.0000   1.0000   1.0000   1.0000   1.0000   1.0000   1.0000   1.0000
     1.0000   1.0000   1.0000   1.0000   1.0000   1.0000   1.0000   1.0000
     1.0000   1.0000   1.0000   1.0000   1.0000   1.0000   1.0000   1.0000
     1.0000   1.0000   1.0000   1.0000   1.0000   1.0000   1.0000   1.0000
     1.0000   1.0000   1.0000   1.0000   1.0000   1.0000   1.0000   1.0000
     1.0000   1.0000   1.0000   1.0000   1.0000   1.0000   1.0000   1.0000
     1.0000   1.0000   1.0000   1.0000   1.0000   1.0000   1.0000   1.0000
     1.0000   1.0000   1.0000   1.0000   1.0000   1.0000   1.0000   1.0000
     1.0000   1.0000   1.0000   1.0000   1.0000   1.0000   1.0000   1.0000
     1.0000   1.0000   1.0000   1.0000   1.0000   1.0000   1.0000   1.0000
     1.0000   1.0000   1.0000   1.0000   1.0000   1.0000   1.0000   1.0000
     1.0000   1.0000   1.0000   1.0000   1.0000   1.0000   1.0000   1.0000
     1.0000   1.0000   1.0000   1.0000   1.0000   1.0000   1.0000   1.0000
     1.0000   1.0000   1.0000   1.0000   1.0000   1.0000   1.0000   1.0000
     1.0000   1.0000   1.0000   1.0000   1.0000   1.0000   1.0000   1.0000
     1.0000   1.0000   1.0000   1.0000   1.0000   1.0000   1.0000   1.0000
     1.0000   1.0000   1.0000   1.0000   1.0000   1.0000   1.0000   1.0000
     1.0000   1.0000   1.0000   1.0000   1.0000   1.0000   1.0000   1.0000
     1.0000   1.0000   1.0000   1.0000   1.0000   1.0000   1.0000   1.0000
     1.0000   1.0000   1.0000   1.0000   1.0000   1.0000   1.0000   1.0000
     1.0000   1.0000   1.0000   1.0000   1.0000   1.0000   1.0000   1.0000
     1.0000   1.0000   1.0000   1.0000   1.0000   1.0000   1.0000   1.0000
     1.0000   1.0000   1.0000   1.0000   1.0000   1.0000   1.0000   1.0000
     1.0000   1.0000   1.0000   1.0000   1.0000   1.0000   1.0000   1.0000

          k =-0.5052 0.1105 0.0000 (360696 PWs)   bands (ev):

   -25.0073 -25.0010 -24.9973 -24.9764 -24.9207 -24.9181 -24.9134 -24.8935
   -24.5347 -24.5301 -24.5207 -24.5073 -24.5017 -24.4974 -24.4955 -24.4810
   -24.1531 -24.1501 -24.1471 -24.1410 -24.1375 -24.1245 -24.1211 -24.1181
   -24.1169 -24.1147 -24.1086 -24.0962 -24.0641 -24.0628 -24.0572 -24.0360
   -23.8346 -23.8344 -23.8249 -23.8190 -23.8097 -23.8092 -23.8057 -23.7953
   -23.7848 -23.7822 -23.7784 -23.7719 -23.7668 -23.7553 -23.7497 -23.7251
   -20.0913 -20.0872 -20.0842 -20.0691 -20.0334 -20.0307 -20.0297 -20.0235
   -20.0199 -20.0197 -20.0172 -20.0129 -20.0063 -20.0052 -19.9966 -19.9844
   -19.9521 -19.9460 -19.9458 -19.9332 -19.9319 -19.9304 -19.9261 -19.9159
   -19.9093 -19.9069 -19.9015 -19.8991 -19.8948 -19.8937 -19.8932 -19.8914
   -19.8898 -19.8870 -19.8866 -19.8857 -19.8831 -19.8767 -19.8731 -19.8724
   -19.8718 -19.8694 -19.8675 -19.8651 -19.8627 -19.8609 -19.8597 -19.8580
   -19.8563 -19.8557 -19.8523 -19.8515 -19.8494 -19.8478 -19.8476 -19.8470
   -19.8443 -19.8442 -19.8423 -19.8383 -19.8370 -19.8347 -19.8261 -19.8208
   -19.8157 -19.8119 -19.8087 -19.8083 -19.8071 -19.8057 -19.8018 -19.7982
   -19.7973 -19.7956 -19.7954 -19.7917 -19.7898 -19.7887 -19.7800 -19.7799
   -19.7762 -19.7715 -19.7674 -19.7624 -19.7618 -19.7588 -19.7575 -19.7566
   -19.7523 -19.7482 -19.7470 -19.7435 -19.7418 -19.7391 -19.7344 -19.7337
   -19.7325 -19.7311 -19.7294 -19.7263 -19.7247 -19.7199 -19.7152 -19.7099
   -19.7076 -19.7003 -19.6973 -19.6965 -19.6947 -19.6897 -19.6783 -19.6739
   -19.6285 -19.6223 -19.6221 -19.6037 -19.5868 -19.5829 -19.5804 -19.5625
   -19.4989 -19.4959 -19.4907 -19.4837 -19.4608 -19.4585 -19.4507 -19.4457
   -19.3719 -19.3677 -19.3671 -19.3507 -19.2702 -19.2662 -19.2599 -19.2514
   -19.1712 -19.1700 -19.1652 -19.1591 -19.1257 -19.1237 -19.1163 -19.1115
   -19.0755 -19.0710 -19.0671 -19.0567 -18.9879 -18.9833 -18.9817 -18.9661
   -18.9646 -18.9608 -18.9594 -18.9417 -18.9347 -18.9320 -18.9277 -18.9138
   -12.9863 -12.9837 -12.9822 -12.9648 -12.8418 -12.8348 -12.8268 -12.8203
   -12.8193 -12.8119 -12.8069 -12.7920 -12.1690 -12.1627 -12.1609 -12.1432
   -12.0577 -12.0524 -12.0490 -12.0327 -11.8135 -11.8051 -11.8045 -11.7846
   -10.8750 -10.8704 -10.8647 -10.8524 -10.7315 -10.7241 -10.7220 -10.7032
   -10.6400 -10.6351 -10.6323 -10.6194 -10.5922 -10.5852 -10.5825 -10.5726
   -10.5398 -10.5316 -10.5305 -10.5127 -10.3533 -10.3488 -10.3435 -10.3242
   -10.0480 -10.0432 -10.0387 -10.0232  -9.7835  -9.7811  -9.7706  -9.7542
    -9.5788  -9.5700  -9.5659  -9.5429  -9.1191  -9.1146  -9.1110  -9.0925
    -9.0662  -9.0635  -9.0584  -9.0474  -8.9915  -8.9853  -8.9822  -8.9599
    -8.9099  -8.9098  -8.9080  -8.8899  -8.7740  -8.7670  -8.7559  -8.7451
    -8.7002  -8.6986  -8.6904  -8.6870  -8.6754  -8.6737  -8.6696  -8.6622
    -8.3625  -8.3553  -8.3509  -8.3322  -8.2922  -8.2794  -8.2688  -8.2456
    -7.9679  -7.9588  -7.9420  -7.9296  -7.9127  -7.9060  -7.8965  -7.8948
    -7.8923  -7.8869  -7.8822  -7.8736  -7.6708  -7.6679  -7.6644  -7.6588
    -7.6570  -7.6524  -7.6489  -7.6442  -7.6378  -7.6267  -7.6156  -7.5999
    -7.5462  -7.5348  -7.5107  -7.4946  -7.4359  -7.4323  -7.4248  -7.4194
    -7.4153  -7.4082  -7.4039  -7.3925  -7.3679  -7.3606  -7.3561  -7.3383
    -7.2529  -7.2455  -7.2434  -7.2312  -7.2194  -7.2102  -7.2061  -7.1861

     occupation numbers 
     1.0000   1.0000   1.0000   1.0000   1.0000   1.0000   1.0000   1.0000
     1.0000   1.0000   1.0000   1.0000   1.0000   1.0000   1.0000   1.0000
     1.0000   1.0000   1.0000   1.0000   1.0000   1.0000   1.0000   1.0000
     1.0000   1.0000   1.0000   1.0000   1.0000   1.0000   1.0000   1.0000
     1.0000   1.0000   1.0000   1.0000   1.0000   1.0000   1.0000   1.0000
     1.0000   1.0000   1.0000   1.0000   1.0000   1.0000   1.0000   1.0000
     1.0000   1.0000   1.0000   1.0000   1.0000   1.0000   1.0000   1.0000
     1.0000   1.0000   1.0000   1.0000   1.0000   1.0000   1.0000   1.0000
     1.0000   1.0000   1.0000   1.0000   1.0000   1.0000   1.0000   1.0000
     1.0000   1.0000   1.0000   1.0000   1.0000   1.0000   1.0000   1.0000
     1.0000   1.0000   1.0000   1.0000   1.0000   1.0000   1.0000   1.0000
     1.0000   1.0000   1.0000   1.0000   1.0000   1.0000   1.0000   1.0000
     1.0000   1.0000   1.0000   1.0000   1.0000   1.0000   1.0000   1.0000
     1.0000   1.0000   1.0000   1.0000   1.0000   1.0000   1.0000   1.0000
     1.0000   1.0000   1.0000   1.0000   1.0000   1.0000   1.0000   1.0000
     1.0000   1.0000   1.0000   1.0000   1.0000   1.0000   1.0000   1.0000
     1.0000   1.0000   1.0000   1.0000   1.0000   1.0000   1.0000   1.0000
     1.0000   1.0000   1.0000   1.0000   1.0000   1.0000   1.0000   1.0000
     1.0000   1.0000   1.0000   1.0000   1.0000   1.0000   1.0000   1.0000
     1.0000   1.0000   1.0000   1.0000   1.0000   1.0000   1.0000   1.0000
     1.0000   1.0000   1.0000   1.0000   1.0000   1.0000   1.0000   1.0000
     1.0000   1.0000   1.0000   1.0000   1.0000   1.0000   1.0000   1.0000
     1.0000   1.0000   1.0000   1.0000   1.0000   1.0000   1.0000   1.0000
     1.0000   1.0000   1.0000   1.0000   1.0000   1.0000   1.0000   1.0000
     1.0000   1.0000   1.0000   1.0000   1.0000   1.0000   1.0000   1.0000
     1.0000   1.0000   1.0000   1.0000   1.0000   1.0000   1.0000   1.0000
     1.0000   1.0000   1.0000   1.0000   1.0000   1.0000   1.0000   1.0000
     1.0000   1.0000   1.0000   1.0000   1.0000   1.0000   1.0000   1.0000
     1.0000   1.0000   1.0000   1.0000   1.0000   1.0000   1.0000   1.0000
     1.0000   1.0000   1.0000   1.0000   1.0000   1.0000   1.0000   1.0000
     1.0000   1.0000   1.0000   1.0000   1.0000   1.0000   1.0000   1.0000
     1.0000   1.0000   1.0000   1.0000   1.0000   1.0000   1.0000   1.0000
     1.0000   1.0000   1.0000   1.0000   1.0000   1.0000   1.0000   1.0000
     1.0000   1.0000   1.0000   1.0000   1.0000   1.0000   1.0000   1.0000
     1.0000   1.0000   1.0000   1.0000   1.0000   1.0000   1.0000   1.0000
     1.0000   1.0000   1.0000   1.0000   1.0000   1.0000   1.0000   1.0000
     1.0000   1.0000   1.0000   1.0000   1.0000   1.0000   1.0000   1.0000
     1.0000   1.0000   1.0000   1.0000   1.0000   1.0000   1.0000   1.0000
     1.0000   1.0000   1.0000   1.0000   1.0000   1.0000   1.0000   1.0000
     1.0000   1.0000   1.0000   1.0000   1.0000   1.0000   1.0000   1.0000
     1.0000   1.0000   1.0000   1.0000   1.0000   1.0000   1.0000   1.0000
     1.0000   1.0000   1.0000   1.0000   1.0000   1.0000   1.0000   1.0000
     1.0000   1.0000   1.0000   1.0000   1.0000   1.0000   1.0000   1.0000
     1.0000   1.0000   1.0000   1.0000   1.0000   1.0000   1.0000   1.0000

          k =-0.4805-0.4620 0.0000 (360682 PWs)   bands (ev):

   -24.9914 -24.9734 -24.9680 -24.9663 -24.9557 -24.9327 -24.9318 -24.9232
   -24.5457 -24.5368 -24.5302 -24.5197 -24.4969 -24.4828 -24.4785 -24.4724
   -24.1472 -24.1443 -24.1416 -24.1362 -24.1232 -24.1202 -24.1193 -24.1094
   -24.1088 -24.1025 -24.0984 -24.0967 -24.0828 -24.0713 -24.0691 -24.0546
   -23.8321 -23.8315 -23.8264 -23.8248 -23.8176 -23.8145 -23.8117 -23.7995
   -23.7917 -23.7900 -23.7852 -23.7637 -23.7634 -23.7481 -23.7437 -23.7172
   -20.0760 -20.0688 -20.0657 -20.0615 -20.0504 -20.0466 -20.0408 -20.0304
   -20.0293 -20.0221 -20.0218 -20.0130 -20.0112 -20.0018 -19.9967 -19.9837
   -19.9479 -19.9421 -19.9404 -19.9359 -19.9348 -19.9316 -19.9242 -19.9149
   -19.9063 -19.9015 -19.9002 -19.8984 -19.8965 -19.8945 -19.8923 -19.8903
   -19.8899 -19.8871 -19.8848 -19.8838 -19.8816 -19.8789 -19.8746 -19.8742
   -19.8730 -19.8697 -19.8671 -19.8665 -19.8651 -19.8644 -19.8615 -19.8611
   -19.8598 -19.8591 -19.8569 -19.8568 -19.8543 -19.8540 -19.8514 -19.8503
   -19.8493 -19.8466 -19.8435 -19.8393 -19.8391 -19.8369 -19.8280 -19.8244
   -19.8136 -19.8075 -19.8065 -19.8065 -19.8028 -19.8013 -19.8011 -19.7974
   -19.7969 -19.7944 -19.7927 -19.7898 -19.7886 -19.7861 -19.7797 -19.7783
   -19.7725 -19.7710 -19.7709 -19.7686 -19.7657 -19.7620 -19.7571 -19.7523
   -19.7505 -19.7490 -19.7473 -19.7447 -19.7377 -19.7374 -19.7334 -19.7302
   -19.7297 -19.7297 -19.7268 -19.7217 -19.7203 -19.7181 -19.7160 -19.7145
   -19.7031 -19.7019 -19.6990 -19.6987 -19.6969 -19.6913 -19.6789 -19.6767
   -19.6225 -19.6135 -19.6129 -19.6030 -19.6022 -19.5923 -19.5914 -19.5768
   -19.5090 -19.5072 -19.4995 -19.4961 -19.4398 -19.4343 -19.4274 -19.4229
   -19.3056 -19.2977 -19.2964 -19.2943 -19.2927 -19.2900 -19.2795 -19.2766
   -19.2319 -19.2222 -19.2175 -19.2128 -19.1527 -19.1470 -19.1390 -19.1350
   -19.0210 -19.0178 -19.0144 -19.0099 -19.0066 -18.9976 -18.9955 -18.9846
   -18.9673 -18.9610 -18.9558 -18.9539 -18.9353 -18.9323 -18.9207 -18.9160
   -13.0979 -13.0900 -13.0852 -13.0747 -12.6328 -12.6215 -12.6182 -12.6110
   -12.6080 -12.5971 -12.5960 -12.5805 -12.3502 -12.3367 -12.3323 -12.3306
   -12.2253 -12.2150 -12.2136 -12.1992 -11.9709 -11.9627 -11.9569 -11.9515
   -10.7873 -10.7818 -10.7727 -10.7657 -10.7485 -10.7440 -10.7401 -10.7346
   -10.6835 -10.6656 -10.6618 -10.6557 -10.4819 -10.4601 -10.4575 -10.4514
   -10.3917 -10.3821 -10.3774 -10.3715 -10.3674 -10.3563 -10.3514 -10.3476
    -9.9760  -9.9686  -9.9627  -9.9520  -9.7727  -9.7683  -9.7531  -9.7498
    -9.5250  -9.5195  -9.5175  -9.5062  -9.3372  -9.3245  -9.3188  -9.3128
    -9.2341  -9.2291  -9.2219  -9.2158  -8.9236  -8.9137  -8.9109  -8.9004
    -8.8885  -8.8738  -8.8731  -8.8644  -8.8612  -8.8569  -8.8481  -8.8377
    -8.7519  -8.7495  -8.7326  -8.7276  -8.5653  -8.5647  -8.5409  -8.5389
    -8.2834  -8.2746  -8.2694  -8.2656  -8.2576  -8.2546  -8.2392  -8.2307
    -7.9349  -7.9242  -7.9241  -7.9158  -7.8484  -7.8465  -7.8388  -7.8366
    -7.8329  -7.8265  -7.8073  -7.8003  -7.7391  -7.7288  -7.7197  -7.7163
    -7.7000  -7.6942  -7.6590  -7.6555  -7.6511  -7.6481  -7.6369  -7.6344
    -7.5593  -7.5510  -7.5238  -7.5197  -7.5028  -7.4982  -7.4835  -7.4794
    -7.4454  -7.4376  -7.4321  -7.4238  -7.3723  -7.3581  -7.3563  -7.3399
    -7.2352  -7.2318  -7.2295  -7.2266  -7.2187  -7.2135  -7.2094  -7.1868

     occupation numbers 
     1.0000   1.0000   1.0000   1.0000   1.0000   1.0000   1.0000   1.0000
     1.0000   1.0000   1.0000   1.0000   1.0000   1.0000   1.0000   1.0000
     1.0000   1.0000   1.0000   1.0000   1.0000   1.0000   1.0000   1.0000
     1.0000   1.0000   1.0000   1.0000   1.0000   1.0000   1.0000   1.0000
     1.0000   1.0000   1.0000   1.0000   1.0000   1.0000   1.0000   1.0000
     1.0000   1.0000   1.0000   1.0000   1.0000   1.0000   1.0000   1.0000
     1.0000   1.0000   1.0000   1.0000   1.0000   1.0000   1.0000   1.0000
     1.0000   1.0000   1.0000   1.0000   1.0000   1.0000   1.0000   1.0000
     1.0000   1.0000   1.0000   1.0000   1.0000   1.0000   1.0000   1.0000
     1.0000   1.0000   1.0000   1.0000   1.0000   1.0000   1.0000   1.0000
     1.0000   1.0000   1.0000   1.0000   1.0000   1.0000   1.0000   1.0000
     1.0000   1.0000   1.0000   1.0000   1.0000   1.0000   1.0000   1.0000
     1.0000   1.0000   1.0000   1.0000   1.0000   1.0000   1.0000   1.0000
     1.0000   1.0000   1.0000   1.0000   1.0000   1.0000   1.0000   1.0000
     1.0000   1.0000   1.0000   1.0000   1.0000   1.0000   1.0000   1.0000
     1.0000   1.0000   1.0000   1.0000   1.0000   1.0000   1.0000   1.0000
     1.0000   1.0000   1.0000   1.0000   1.0000   1.0000   1.0000   1.0000
     1.0000   1.0000   1.0000   1.0000   1.0000   1.0000   1.0000   1.0000
     1.0000   1.0000   1.0000   1.0000   1.0000   1.0000   1.0000   1.0000
     1.0000   1.0000   1.0000   1.0000   1.0000   1.0000   1.0000   1.0000
     1.0000   1.0000   1.0000   1.0000   1.0000   1.0000   1.0000   1.0000
     1.0000   1.0000   1.0000   1.0000   1.0000   1.0000   1.0000   1.0000
     1.0000   1.0000   1.0000   1.0000   1.0000   1.0000   1.0000   1.0000
     1.0000   1.0000   1.0000   1.0000   1.0000   1.0000   1.0000   1.0000
     1.0000   1.0000   1.0000   1.0000   1.0000   1.0000   1.0000   1.0000
     1.0000   1.0000   1.0000   1.0000   1.0000   1.0000   1.0000   1.0000
     1.0000   1.0000   1.0000   1.0000   1.0000   1.0000   1.0000   1.0000
     1.0000   1.0000   1.0000   1.0000   1.0000   1.0000   1.0000   1.0000
     1.0000   1.0000   1.0000   1.0000   1.0000   1.0000   1.0000   1.0000
     1.0000   1.0000   1.0000   1.0000   1.0000   1.0000   1.0000   1.0000
     1.0000   1.0000   1.0000   1.0000   1.0000   1.0000   1.0000   1.0000
     1.0000   1.0000   1.0000   1.0000   1.0000   1.0000   1.0000   1.0000
     1.0000   1.0000   1.0000   1.0000   1.0000   1.0000   1.0000   1.0000
     1.0000   1.0000   1.0000   1.0000   1.0000   1.0000   1.0000   1.0000
     1.0000   1.0000   1.0000   1.0000   1.0000   1.0000   1.0000   1.0000
     1.0000   1.0000   1.0000   1.0000   1.0000   1.0000   1.0000   1.0000
     1.0000   1.0000   1.0000   1.0000   1.0000   1.0000   1.0000   1.0000
     1.0000   1.0000   1.0000   1.0000   1.0000   1.0000   1.0000   1.0000
     1.0000   1.0000   1.0000   1.0000   1.0000   1.0000   1.0000   1.0000
     1.0000   1.0000   1.0000   1.0000   1.0000   1.0000   1.0000   1.0000
     1.0000   1.0000   1.0000   1.0000   1.0000   1.0000   1.0000   1.0000
     1.0000   1.0000   1.0000   1.0000   1.0000   1.0000   1.0000   1.0000
     1.0000   1.0000   1.0000   1.0000   1.0000   1.0000   1.0000   1.0000
     1.0000   1.0000   1.0000   1.0000   1.0000   1.0000   1.0000   1.0000

     highest occupied level (ev):    -7.0282

!    total energy              =  -10896.06187373 Ry
     estimated scf accuracy    <          3.3E-09 Ry

     convergence has been achieved in  38 iterations

     negative rho (up, down):  3.350E-03 0.000E+00

     Forces acting on atoms (cartesian axes, Ry/au):

     atom    1 type  1   force =    -0.00181624    0.00247759   -0.00010878
     atom    2 type  1   force =    -0.00632110   -0.00217722    0.00076643
     atom    3 type  2   force =    -0.00075455   -0.00052922   -0.00045746
     atom    4 type  2   force =     0.00063389    0.00082952   -0.00008496
     atom    5 type  2   force =     0.00669635    0.00173499   -0.00006435
     atom    6 type  1   force =    -0.00015311    0.00543265   -0.00102184
     atom    7 type  1   force =     0.00245994    0.00642921   -0.00151375
     atom    8 type  2   force =    -0.00200375   -0.00164341   -0.00027808
     atom    9 type  2   force =     0.00060623   -0.00969568    0.00206368
     atom   10 type  2   force =     0.00020642    0.00029113    0.00164708
     atom   11 type  1   force =    -0.00227332    0.00139198   -0.00023090
     atom   12 type  1   force =    -0.00110472    0.00091949    0.00176544
     atom   13 type  2   force =    -0.00516569   -0.00003543    0.00003515
     atom   14 type  2   force =     0.00102753   -0.00409110    0.00072714
     atom   15 type  2   force =     0.00470396    0.00039046   -0.00159516
     atom   16 type  1   force =    -0.00156655    0.00375993    0.00176586
     atom   17 type  1   force =    -0.00441264    0.00005554    0.00167401
     atom   18 type  2   force =     0.00308606    0.00005631   -0.00185972
     atom   19 type  2   force =     0.00181113   -0.00638061    0.00087159
     atom   20 type  2   force =     0.00100628    0.00106562   -0.00222414
     atom   21 type  1   force =    -0.00300698    0.00234934   -0.00149594
     atom   22 type  1   force =    -0.00234192   -0.00422519   -0.00020743
     atom   23 type  2   force =     0.00055854   -0.00114644   -0.00145606
     atom   24 type  2   force =    -0.00073940    0.01097341   -0.00187053
     atom   25 type  2   force =    -0.00030916    0.00135291    0.00223383
     atom   26 type  1   force =    -0.00305350   -0.00115109    0.00097172
     atom   27 type  1   force =    -0.00031235    0.00525432   -0.00003220
     atom   28 type  2   force =    -0.00101317   -0.00020279   -0.00191533
     atom   29 type  2   force =     0.00110899   -0.01306103    0.00247446
     atom   30 type  2   force =     0.00080095    0.00107546   -0.00215487
     atom   31 type  1   force =     0.00054050   -0.00604830    0.00209438
     atom   32 type  1   force =    -0.00391906   -0.00336332    0.00097944
     atom   33 type  2   force =     0.00276141   -0.00024968    0.00145357
     atom   34 type  2   force =     0.00133352    0.00058296   -0.00026292
     atom   35 type  2   force =     0.00659715   -0.00141128   -0.00116277
     atom   36 type  1   force =    -0.00156191    0.00565230   -0.00025932
     atom   37 type  1   force =     0.00440883    0.00074961    0.00129542
     atom   38 type  2   force =    -0.00238387    0.00097113   -0.00180062
     atom   39 type  2   force =    -0.00099832    0.00414633   -0.00175124
     atom   40 type  2   force =    -0.00255695   -0.00301204   -0.00076125
     atom   41 type  1   force =    -0.00029747   -0.00150364   -0.00199171
     atom   42 type  1   force =     0.00264705   -0.00432824   -0.00270377
     atom   43 type  2   force =     0.00115565    0.00015143    0.00153596
     atom   44 type  2   force =    -0.00049645    0.00540043   -0.00052698
     atom   45 type  2   force =    -0.00297450    0.00013815    0.00363907
     atom   46 type  1   force =     0.00097440   -0.00314955    0.00107548
     atom   47 type  1   force =    -0.00108938   -0.00589614    0.00267588
     atom   48 type  2   force =     0.00489511   -0.00283738   -0.00057524
     atom   49 type  2   force =    -0.00096474    0.01188145   -0.00254924
     atom   50 type  2   force =    -0.00139252    0.00101165   -0.00003074
     atom   51 type  1   force =     0.00209872   -0.00181504    0.00001404
     atom   52 type  1   force =     0.00033423    0.00238275   -0.00185459
     atom   53 type  2   force =    -0.00184039   -0.00002922   -0.00015183
     atom   54 type  2   force =    -0.00075494    0.00299825   -0.00063683
     atom   55 type  2   force =    -0.00324801   -0.00228485    0.00185556
     atom   56 type  1   force =     0.00180850   -0.00741341    0.00278508
     atom   57 type  1   force =    -0.00071669   -0.00105266    0.00115676
     atom   58 type  2   force =     0.00174407    0.00142888   -0.00036717
     atom   59 type  2   force =    -0.00047213    0.00606645   -0.00185420
     atom   60 type  2   force =     0.00034770   -0.00056130   -0.00113608
     atom   61 type  1   force =     0.00364991   -0.00546139   -0.00071737
     atom   62 type  1   force =    -0.00035038   -0.00479829   -0.00162878
     atom   63 type  2   force =     0.00104335   -0.00132800    0.00194108
     atom   64 type  2   force =     0.00073408   -0.00131790    0.00101958
     atom   65 type  2   force =     0.00177411    0.00200959    0.00295383
     atom   66 type  1   force =    -0.00003147    0.00352244   -0.00166044
     atom   67 type  1   force =     0.00461045   -0.00293387   -0.00121329
     atom   68 type  2   force =     0.00008126    0.00036347    0.00012596
     atom   69 type  2   force =    -0.00094975    0.00896228   -0.00170498
     atom   70 type  2   force =    -0.00567491   -0.00105219    0.00290077
     atom   71 type  1   force =     0.00336161    0.00282289   -0.00019064
     atom   72 type  1   force =     0.00367304    0.00197385   -0.00096270
     atom   73 type  2   force =    -0.00100467   -0.00001238   -0.00093089
     atom   74 type  2   force =    -0.00191549    0.00405257   -0.00076751
     atom   75 type  2   force =    -0.00463152   -0.00007996    0.00071727
     atom   76 type  1   force =    -0.00110544   -0.00490867    0.00095185
     atom   77 type  1   force =     0.00001804   -0.00033388    0.00051701
     atom   78 type  2   force =    -0.00186675    0.00290804    0.00102130
     atom   79 type  2   force =     0.00012787   -0.00533723    0.00073664
     atom   80 type  2   force =     0.00411905    0.00084226   -0.00171770
     The non-local contrib.  to forces
     atom    1 type  1   force =     0.12075887   -0.07157675    0.05469562
     atom    2 type  1   force =     0.06214216    0.09099576   -0.05497195
     atom    3 type  2   force =    -0.08858882    0.30280369   -1.03487311
     atom    4 type  2   force =     0.82163408    0.07650788   -0.00424517
     atom    5 type  2   force =    -0.04883627   -0.31990825    1.03658782
     atom    6 type  1   force =     0.11156336   -0.06013890    0.05747523
     atom    7 type  1   force =     0.06633182    0.08964848   -0.04269816
     atom    8 type  2   force =    -0.09039448    0.30725218   -1.03170859
     atom    9 type  2   force =     0.81178231    0.08842308    0.03411348
     atom   10 type  2   force =    -0.03953143   -0.31588680    1.04514162
     atom   11 type  1   force =     0.11816604   -0.06199617    0.04475998
     atom   12 type  1   force =     0.06277420    0.07898953   -0.05999509
     atom   13 type  2   force =    -0.09050583    0.30467888   -1.02836072
     atom   14 type  2   force =     0.82544407    0.07269460    0.00083861
     atom   15 type  2   force =    -0.04589861   -0.32585646    1.02859913
     atom   16 type  1   force =     0.11133389   -0.05940153    0.05680335
     atom   17 type  1   force =     0.07210619    0.10069350   -0.06487109
     atom   18 type  2   force =    -0.08911154    0.31435445   -1.04082796
     atom   19 type  2   force =     0.81807633    0.08351577    0.00767828
     atom   20 type  2   force =    -0.04378787   -0.32064517    1.03264599
     atom   21 type  1   force =     0.11410042   -0.07467931    0.05526530
     atom   22 type  1   force =     0.05811118    0.08455582   -0.05427100
     atom   23 type  2   force =    -0.08796922    0.29565278   -1.04326844
     atom   24 type  2   force =     0.81900313    0.06869658    0.00891966
     atom   25 type  2   force =    -0.04724134   -0.31967960    1.04505275
     atom   26 type  1   force =     0.10555861   -0.06426875    0.04958590
     atom   27 type  1   force =     0.06469846    0.09642293   -0.06066506
     atom   28 type  2   force =    -0.09369723    0.30387666   -1.04015405
     atom   29 type  2   force =     0.81177698    0.08622984    0.00962185
     atom   30 type  2   force =    -0.03514880   -0.31848604    1.02571475
     atom   31 type  1   force =     0.11923615   -0.06821999    0.06534196
     atom   32 type  1   force =     0.06377458    0.07489163   -0.06355889
     atom   33 type  2   force =    -0.09580263    0.29878653   -1.03166722
     atom   34 type  2   force =     0.82271719    0.06744725   -0.00978320
     atom   35 type  2   force =    -0.04895897   -0.32359829    1.02930675
     atom   36 type  1   force =     0.10483440   -0.04642455    0.05694103
     atom   37 type  1   force =     0.06024834    0.08596731   -0.06680216
     atom   38 type  2   force =    -0.09387966    0.31277399   -1.03994744
     atom   39 type  2   force =     0.80411773    0.07583647   -0.00061192
     atom   40 type  2   force =    -0.04517871   -0.32197563    1.03070189
     atom   41 type  1   force =     0.09665153   -0.06708513    0.06262429
     atom   42 type  1   force =     0.06090341    0.08572988   -0.05326517
     atom   43 type  2   force =    -0.09549826    0.29651412   -1.03626885
     atom   44 type  2   force =     0.80847418    0.07024088    0.00798186
     atom   45 type  2   force =    -0.04561857   -0.31422180    1.04876497
     atom   46 type  1   force =     0.11380213   -0.07550459    0.06135004
     atom   47 type  1   force =     0.06828200    0.08474912   -0.05492421
     atom   48 type  2   force =    -0.09126073    0.30599251   -1.03692202
     atom   49 type  2   force =     0.81198647    0.06384939    0.01162929
     atom   50 type  2   force =    -0.04998163   -0.32257830    1.03502430
     atom   51 type  1   force =     0.11021427   -0.06690918    0.06028930
     atom   52 type  1   force =     0.06263004    0.08006802   -0.06886560
     atom   53 type  2   force =    -0.08820284    0.29927187   -1.03772709
     atom   54 type  2   force =     0.81126891    0.07314953   -0.00611506
     atom   55 type  2   force =    -0.03775528   -0.32891228    1.04135286
     atom   56 type  1   force =     0.10672108   -0.06541889    0.06358060
     atom   57 type  1   force =     0.05962149    0.07111599   -0.05962523
     atom   58 type  2   force =    -0.09695626    0.30606777   -1.03415154
     atom   59 type  2   force =     0.81607178    0.06923577    0.01304717
     atom   60 type  2   force =    -0.04904202   -0.32049108    1.03144301
     atom   61 type  1   force =     0.10292312   -0.06956824    0.06095372
     atom   62 type  1   force =     0.05635546    0.09082993   -0.04395393
     atom   63 type  2   force =    -0.09673695    0.29997175   -1.03188604
     atom   64 type  2   force =     0.80536504    0.07615438    0.01910300
     atom   65 type  2   force =    -0.05276435   -0.31524651    1.04156568
     atom   66 type  1   force =     0.10152851   -0.06799088    0.06864917
     atom   67 type  1   force =     0.06560068    0.08477720   -0.05609340
     atom   68 type  2   force =    -0.08950762    0.29625101   -1.03267980
     atom   69 type  2   force =     0.80823120    0.07559716    0.02974015
     atom   70 type  2   force =    -0.04104300   -0.31688979    1.04514852
     atom   71 type  1   force =     0.10278407   -0.06517450    0.06412286
     atom   72 type  1   force =     0.06105473    0.08291166   -0.05831649
     atom   73 type  2   force =    -0.08767971    0.30752812   -1.04158809
     atom   74 type  2   force =     0.80263655    0.07290804    0.00935147
     atom   75 type  2   force =    -0.04596194   -0.31509586    1.03137275
     atom   76 type  1   force =     0.10890697   -0.05936758    0.06237808
     atom   77 type  1   force =     0.05446089    0.08067214   -0.07011919
     atom   78 type  2   force =    -0.09488228    0.30333589   -1.02859681
     atom   79 type  2   force =     0.80415741    0.07525353    0.00452762
     atom   80 type  2   force =    -0.03950850   -0.31618860    1.02568266
     The ionic contribution  to forces
     atom    1 type  1   force =     1.36081435   11.28076830  -89.04611723
     atom    2 type  1   force =     1.58855582  -10.93978432 -129.22930462
     atom    3 type  2   force =     0.15392607   -0.60176751  -15.23145614
     atom    4 type  2   force =    -3.49989501   -0.16969505  -50.36087976
     atom    5 type  2   force =     0.28587480    0.72687423  -85.59594635
     atom    6 type  1   force =     1.30800624   11.27779242  129.42509301
     atom    7 type  1   force =     1.76145197  -10.89655863   89.23552045
     atom    8 type  2   force =     0.15945880   -0.81952186   85.78965786
     atom    9 type  2   force =    -3.43375445   -0.36314809   49.63231216
     atom   10 type  2   force =     0.11217526    0.58318257   15.21899582
     atom   11 type  1   force =     1.23044757   11.36991895  -89.18501683
     atom   12 type  1   force =     1.71785262  -10.91618926 -129.52526043
     atom   13 type  2   force =     0.07930539   -0.58774540  -15.26176487
     atom   14 type  2   force =    -3.46417211   -0.27001891  -50.50404728
     atom   15 type  2   force =     0.21170334    0.74581525  -85.68989405
     atom   16 type  1   force =     1.29743629   11.25673446  129.56347103
     atom   17 type  1   force =     1.70540281  -11.00673211   88.83028830
     atom   18 type  2   force =     0.27039053   -0.81980226   85.85585984
     atom   19 type  2   force =    -3.42040956   -0.29526223   49.98573282
     atom   20 type  2   force =     0.14976208    0.56214854   15.40850446
     atom   21 type  1   force =     1.26191589   11.28541670  -89.04831080
     atom   22 type  1   force =     1.72384267  -10.94731279 -129.15311890
     atom   23 type  2   force =     0.20987492   -0.59293370  -15.16904696
     atom   24 type  2   force =    -3.45649046    0.07832288  -50.50934823
     atom   25 type  2   force =     0.11285867    0.73286517  -85.75969638
     atom   26 type  1   force =     1.17336869   11.09981911  129.44687813
     atom   27 type  1   force =     1.79116982  -10.91220387   89.12763629
     atom   28 type  2   force =     0.19654948   -0.77324151   85.83464348
     atom   29 type  2   force =    -3.40474734   -0.44563950   50.09298359
     atom   30 type  2   force =     0.11789150    0.50890461   15.47062251
     atom   31 type  1   force =     1.42784199   11.15318236  -88.90865086
     atom   32 type  1   force =     1.78778962  -11.10454619 -129.45223146
     atom   33 type  2   force =     0.29232434   -0.59082273  -15.26147757
     atom   34 type  2   force =    -3.42653624   -0.15567210  -50.25998799
     atom   35 type  2   force =     0.28804562    0.69060370  -85.56816559
     atom   36 type  1   force =     1.25538126   11.33451881  129.51880626
     atom   37 type  1   force =     1.88925130  -11.01579781   88.85640226
     atom   38 type  2   force =     0.19310643   -0.81780274   85.83908358
     atom   39 type  2   force =    -3.42953844   -0.03133632   50.10789239
     atom   40 type  2   force =     0.08670006    0.54265229   15.34218557
     atom   41 type  1   force =     1.20423062   11.18017608  -89.07187914
     atom   42 type  1   force =     1.86668555  -11.02579520 -129.24804501
     atom   43 type  2   force =     0.26016310   -0.58221776  -15.27932507
     atom   44 type  2   force =    -3.40134799   -0.05129740  -50.44373787
     atom   45 type  2   force =     0.06144227    0.68538507  -85.83150234
     atom   46 type  1   force =     1.44443358   11.00814921  129.58896025
     atom   47 type  1   force =     1.83695987  -11.15662545   89.03387629
     atom   48 type  2   force =     0.33678434   -0.85703722   85.80332826
     atom   49 type  2   force =    -3.43405729    0.16516588   50.05348761
     atom   50 type  2   force =     0.15645312    0.54563926   15.39521431
     atom   51 type  1   force =     1.37391727   11.25344959  -88.89225069
     atom   52 type  1   force =     1.76368264  -10.90210081 -129.41970433
     atom   53 type  2   force =     0.16576594   -0.62868495  -15.23029886
     atom   54 type  2   force =    -3.46861049   -0.10546515  -50.34266715
     atom   55 type  2   force =     0.01972587    0.77555148  -85.78725501
     atom   56 type  1   force =     1.34084849   11.05514412  129.55966017
     atom   57 type  1   force =     1.76682864  -11.14402629   89.06880968
     atom   58 type  2   force =     0.28458076   -0.79280249   85.82313619
     atom   59 type  2   force =    -3.42615592    0.03495915   49.94181606
     atom   60 type  2   force =     0.14769698    0.53189554   15.37856299
     atom   61 type  1   force =     1.38767714   11.05315173  -89.05368570
     atom   62 type  1   force =     1.75334005  -11.06343772 -129.21006682
     atom   63 type  2   force =     0.24843886   -0.61312090  -15.28873116
     atom   64 type  2   force =    -3.38038879   -0.22650620  -50.65434403
     atom   65 type  2   force =     0.21088811    0.69788827  -85.69852641
     atom   66 type  1   force =     1.22780729   11.13695880  129.62469661
     atom   67 type  1   force =     1.89587346  -11.05352210   89.28649380
     atom   68 type  2   force =     0.22733320   -0.75035977   85.69076608
     atom   69 type  2   force =    -3.43897712    0.07476069   49.77449387
     atom   70 type  2   force =    -0.02574645    0.56256339   15.27530601
     atom   71 type  1   force =     1.33638815   11.34821675  -88.82382396
     atom   72 type  1   force =     1.81724501  -10.82099403 -129.47714070
     atom   73 type  2   force =     0.20333917   -0.64301162  -15.11094972
     atom   74 type  2   force =    -3.43603810   -0.10049566  -50.63525619
     atom   75 type  2   force =     0.03541278    0.71819744  -85.55300689
     atom   76 type  1   force =     1.28099173   11.12331824  129.55728570
     atom   77 type  1   force =     1.72760718  -11.13022633   89.02607308
     atom   78 type  2   force =     0.19961893   -0.73009171   85.71388547
     atom   79 type  2   force =    -3.41145253   -0.24832780   50.18223133
     atom   80 type  2   force =     0.17568199    0.51959044   15.41126580
     The local contribution  to forces
     atom    1 type  1   force =    -1.48347644  -11.20932841   88.99186400
     atom    2 type  1   force =    -1.65797039   10.84940574  129.28441671
     atom    3 type  2   force =    -0.06695824    0.30127657   16.25759519
     atom    4 type  2   force =     2.68644522    0.09473761   50.36499106
     atom    5 type  2   force =    -0.23075816   -0.40822053   84.56757147
     atom    6 type  1   force =    -1.41982359  -11.21447813 -129.48305043
     atom    7 type  1   force =    -1.82576117   10.81648917  -89.19493561
     atom    8 type  2   force =    -0.07195253    0.51350054  -84.76647639
     atom    9 type  2   force =     2.63004550    0.26576633  -49.66404151
     atom   10 type  2   force =    -0.07282166   -0.26996141  -16.25411673
     atom   11 type  1   force =    -1.35103963  -11.30908805   89.14041109
     atom   12 type  1   force =    -1.78244163   10.84091656  129.58640775
     atom   13 type  2   force =     0.00512603    0.28589424   16.28194355
     atom   14 type  2   force =     2.64735074    0.19389040   50.50393791
     atom   15 type  2   force =    -0.16150948   -0.42261385   84.66790195
     atom   16 type  1   force =    -1.41050998  -11.19593447 -129.61785842
     atom   17 type  1   force =    -1.78266908   10.90908059  -88.76441424
     atom   18 type  2   force =    -0.17903187    0.50844533  -84.82522767
     atom   19 type  2   force =     2.61168502    0.20608604  -49.99246857
     atom   20 type  2   force =    -0.10538439   -0.24343292  -16.43515113
     atom   21 type  1   force =    -1.37925621  -11.21103626   88.99204228
     atom   22 type  1   force =    -1.78507681   10.86108108  129.20650395
     atom   23 type  2   force =    -0.12219361    0.29890519   16.20249872
     atom   24 type  2   force =     2.64426981   -0.13530633   50.49860844
     atom   25 type  2   force =    -0.06638103   -0.41482872   84.72524840
     atom   26 type  1   force =    -1.28235259  -11.03939082 -129.49495466
     atom   27 type  1   force =    -1.85676494   10.82423579  -89.06774073
     atom   28 type  2   force =    -0.10476947    0.47201673  -84.80473910
     atom   29 type  2   force =     2.60155364    0.34703246  -50.10002154
     atom   30 type  2   force =    -0.08228273   -0.19232486  -16.49032664
     atom   31 type  1   force =    -1.54657921  -11.09401320   88.84620031
     atom   32 type  1   force =    -1.85629000   11.02882744  129.51607738
     atom   33 type  2   force =    -0.19465579    0.29458708   16.28637465
     atom   34 type  2   force =     2.61273091    0.08946019   50.26940729
     atom   35 type  2   force =    -0.23290930   -0.37145494   84.54590116
     atom   36 type  1   force =    -1.36201240  -11.28456776 -129.57543157
     atom   37 type  1   force =    -1.94549330   10.93339286  -88.78901191
     atom   38 type  2   force =    -0.10252595    0.50893645  -84.80926260
     atom   39 type  2   force =     2.63180731   -0.03961236  -50.10906071
     atom   40 type  2   force =    -0.04453211   -0.22672746  -16.36541975
     atom   41 type  1   force =    -1.30151161  -11.11731708   89.00781473
     atom   42 type  1   force =    -1.92542291   10.93830043  129.29780677
     atom   43 type  2   force =    -0.16440970    0.28863541   16.30886384
     atom   44 type  2   force =     2.59981655   -0.01283370   50.43528420
     atom   45 type  2   force =    -0.01925526   -0.37398548   84.79479915
     atom   46 type  1   force =    -1.55729889  -10.93872342 -129.64852358
     atom   47 type  1   force =    -1.90689897   11.06843782  -88.97675321
     atom   48 type  2   force =    -0.24146615    0.55105546  -84.77526805
     atom   49 type  2   force =     2.62856796   -0.21642435  -50.06758571
     atom   50 type  2   force =    -0.10834783   -0.22506671  -16.42200259
     atom   51 type  1   force =    -1.48206164  -11.19108908   88.83258545
     atom   52 type  1   force =    -1.82657855   10.82725924  129.48575468
     atom   53 type  2   force =    -0.08026911    0.33218787   16.25957707
     atom   54 type  2   force =     2.66403904    0.03602706   50.34807272
     atom   55 type  2   force =     0.01438680   -0.45201583   84.75609635
     atom   56 type  1   force =    -1.44586207  -11.00018985 -129.61961067
     atom   57 type  1   force =    -1.82781804   11.07442032  -89.00865152
     atom   58 type  2   force =    -0.18678776    0.49103826  -84.79761308
     atom   59 type  2   force =     2.61711628   -0.09741779  -49.95662284
     atom   60 type  2   force =    -0.09876725   -0.21497622  -16.40290854
     atom   61 type  1   force =    -1.48704177  -10.99196276   88.99260351
     atom   62 type  1   force =    -1.81074042   10.97042619  129.25178183
     atom   63 type  2   force =    -0.15156911    0.31462521   16.31433754
     atom   64 type  2   force =     2.58318757    0.14974128   50.63642680
     atom   65 type  2   force =    -0.15683222   -0.38358441   84.66827173
     atom   66 type  1   force =    -1.32959492  -11.06789117 -129.69433810
     atom   67 type  1   force =    -1.95717516   10.96842681  -89.23239547
     atom   68 type  2   force =    -0.13860321    0.45726637  -84.66621033
     atom   69 type  2   force =     2.63722398   -0.14061431  -49.80569261
     atom   70 type  2   force =     0.06066890   -0.24970464  -16.30917144
     atom   71 type  1   force =    -1.43579478  -11.28268744   88.76017233
     atom   72 type  1   force =    -1.87500131   10.74287270  129.53373172
     atom   73 type  2   force =    -0.11751119    0.33835379   16.14326487
     atom   74 type  2   force =     2.63885225    0.03235785   50.62520031
     atom   75 type  2   force =     0.00544653   -0.40614184   84.53059831
     atom   76 type  1   force =    -1.39126140  -11.07170546 -129.61802108
     atom   77 type  1   force =    -1.78275352   11.05194474  -88.95624214
     atom   78 type  2   force =    -0.10752351    0.43252790  -84.69246684
     atom   79 type  2   force =     2.61482758    0.16840157  -50.18597912
     atom   80 type  2   force =    -0.13240994   -0.20552657  -16.43049199
     The core correction contribution to forces
     atom    1 type  1   force =     0.00007958    0.00261621   -0.00056620
     atom    2 type  1   force =     0.00095282   -0.00279672    0.00061613
     atom    3 type  2   force =     0.00086297   -0.00284088    0.00827061
     atom    4 type  2   force =    -0.00755881   -0.00072476    0.00004521
     atom    5 type  2   force =     0.00040935    0.00298709   -0.00828486
     atom    6 type  1   force =     0.00010128    0.00228191   -0.00053882
     atom    7 type  1   force =     0.00043773   -0.00315484    0.00060286
     atom    8 type  2   force =     0.00088400   -0.00286823    0.00824859
     atom    9 type  2   force =    -0.00747144   -0.00073625   -0.00031674
     atom   10 type  2   force =     0.00038411    0.00295926   -0.00837095
     atom   11 type  1   force =     0.00015511    0.00256233   -0.00039626
     atom   12 type  1   force =     0.00070813   -0.00279341    0.00060359
     atom   13 type  2   force =     0.00091299   -0.00286073    0.00820899
     atom   14 type  2   force =    -0.00759788   -0.00065111   -0.00000597
     atom   15 type  2   force =     0.00040404    0.00304883   -0.00820153
     atom   16 type  1   force =     0.00016788    0.00237179   -0.00063697
     atom   17 type  1   force =     0.00072788   -0.00300441    0.00068237
     atom   18 type  2   force =     0.00083245   -0.00294386    0.00834019
     atom   19 type  2   force =    -0.00754439   -0.00071991   -0.00006856
     atom   20 type  2   force =     0.00041353    0.00299457   -0.00821916
     atom   21 type  1   force =     0.00022719    0.00265463   -0.00050962
     atom   22 type  1   force =     0.00077588   -0.00255342    0.00067696
     atom   23 type  2   force =     0.00084352   -0.00276928    0.00835331
     atom   24 type  2   force =    -0.00752312   -0.00074925   -0.00005778
     atom   25 type  2   force =     0.00045507    0.00299062   -0.00838101
     atom   26 type  1   force =     0.00035844    0.00268982   -0.00053030
     atom   27 type  1   force =     0.00058101   -0.00319260    0.00074456
     atom   28 type  2   force =     0.00090336   -0.00285179    0.00833729
     atom   29 type  2   force =    -0.00747662   -0.00068388   -0.00010300
     atom   30 type  2   force =     0.00033982    0.00298251   -0.00816390
     atom   31 type  1   force =     0.00004175    0.00300094   -0.00081122
     atom   32 type  1   force =     0.00080350   -0.00253000    0.00068971
     atom   33 type  2   force =     0.00089179   -0.00280235    0.00821877
     atom   34 type  2   force =    -0.00758190   -0.00064840    0.00009894
     atom   35 type  2   force =     0.00041385    0.00304333   -0.00820998
     atom   36 type  1   force =     0.00023504    0.00212980   -0.00055848
     atom   37 type  1   force =     0.00041046   -0.00282049    0.00072659
     atom   38 type  2   force =     0.00091613   -0.00293456    0.00833270
     atom   39 type  2   force =    -0.00738753   -0.00074510    0.00003126
     atom   40 type  2   force =     0.00045652    0.00303951   -0.00822248
     atom   41 type  1   force =     0.00033824    0.00271410   -0.00057486
     atom   42 type  1   force =     0.00048367   -0.00256711    0.00079226
     atom   43 type  2   force =     0.00090084   -0.00278386    0.00825843
     atom   44 type  2   force =    -0.00743645   -0.00071313   -0.00006064
     atom   45 type  2   force =     0.00046222    0.00295397   -0.00842900
     atom   46 type  1   force =     0.00004872    0.00292705   -0.00070102
     atom   47 type  1   force =     0.00056967   -0.00245571    0.00048531
     atom   48 type  2   force =     0.00083467   -0.00284598    0.00829122
     atom   49 type  2   force =    -0.00746027   -0.00071213   -0.00007542
     atom   50 type  2   force =     0.00048706    0.00301775   -0.00826590
     atom   51 type  1   force =     0.00003485    0.00274462   -0.00062197
     atom   52 type  1   force =     0.00059510   -0.00283798    0.00095070
     atom   53 type  2   force =     0.00086507   -0.00280391    0.00829013
     atom   54 type  2   force =    -0.00745137   -0.00071432    0.00006905
     atom   55 type  2   force =     0.00039720    0.00309545   -0.00834606
     atom   56 type  1   force =     0.00011497    0.00302675   -0.00082066
     atom   57 type  1   force =     0.00066533   -0.00256583    0.00064312
     atom   58 type  2   force =     0.00091116   -0.00287779    0.00826819
     atom   59 type  2   force =    -0.00749933   -0.00071190   -0.00008896
     atom   60 type  2   force =     0.00046569    0.00300754   -0.00822480
     atom   61 type  1   force =     0.00008367    0.00291967   -0.00061074
     atom   62 type  1   force =     0.00069848   -0.00262345    0.00060188
     atom   63 type  2   force =     0.00091347   -0.00280526    0.00821658
     atom   64 type  2   force =    -0.00742510   -0.00070550   -0.00017586
     atom   65 type  2   force =     0.00048100    0.00294735   -0.00836372
     atom   66 type  1   force =     0.00021554    0.00247405   -0.00066661
     atom   67 type  1   force =     0.00031448   -0.00261500    0.00078397
     atom   68 type  2   force =     0.00086013   -0.00278822    0.00825106
     atom   69 type  2   force =    -0.00742712   -0.00078821   -0.00024344
     atom   70 type  2   force =     0.00044572    0.00298103   -0.00838426
     atom   71 type  1   force =    -0.00000061    0.00247163   -0.00067047
     atom   72 type  1   force =     0.00038338   -0.00281386    0.00074145
     atom   73 type  2   force =     0.00085069   -0.00287880    0.00833247
     atom   74 type  2   force =    -0.00736016   -0.00072200   -0.00006850
     atom   75 type  2   force =     0.00047734    0.00296190   -0.00824955
     atom   76 type  1   force =     0.00025183    0.00283606   -0.00067922
     atom   77 type  1   force =     0.00070075   -0.00274113    0.00082255
     atom   78 type  2   force =     0.00092136   -0.00286888    0.00820299
     atom   79 type  2   force =    -0.00740229   -0.00066184   -0.00003878
     atom   80 type  2   force =     0.00035300    0.00296492   -0.00816843
     The Hubbard contrib.    to forces
     atom    1 type  1   force =     0.00000000    0.00000000    0.00000000
     atom    2 type  1   force =     0.00000000    0.00000000    0.00000000
     atom    3 type  2   force =     0.00000000    0.00000000    0.00000000
     atom    4 type  2   force =     0.00000000    0.00000000    0.00000000
     atom    5 type  2   force =     0.00000000    0.00000000    0.00000000
     atom    6 type  1   force =     0.00000000    0.00000000    0.00000000
     atom    7 type  1   force =     0.00000000    0.00000000    0.00000000
     atom    8 type  2   force =     0.00000000    0.00000000    0.00000000
     atom    9 type  2   force =     0.00000000    0.00000000    0.00000000
     atom   10 type  2   force =     0.00000000    0.00000000    0.00000000
     atom   11 type  1   force =     0.00000000    0.00000000    0.00000000
     atom   12 type  1   force =     0.00000000    0.00000000    0.00000000
     atom   13 type  2   force =     0.00000000    0.00000000    0.00000000
     atom   14 type  2   force =     0.00000000    0.00000000    0.00000000
     atom   15 type  2   force =     0.00000000    0.00000000    0.00000000
     atom   16 type  1   force =     0.00000000    0.00000000    0.00000000
     atom   17 type  1   force =     0.00000000    0.00000000    0.00000000
     atom   18 type  2   force =     0.00000000    0.00000000    0.00000000
     atom   19 type  2   force =     0.00000000    0.00000000    0.00000000
     atom   20 type  2   force =     0.00000000    0.00000000    0.00000000
     atom   21 type  1   force =     0.00000000    0.00000000    0.00000000
     atom   22 type  1   force =     0.00000000    0.00000000    0.00000000
     atom   23 type  2   force =     0.00000000    0.00000000    0.00000000
     atom   24 type  2   force =     0.00000000    0.00000000    0.00000000
     atom   25 type  2   force =     0.00000000    0.00000000    0.00000000
     atom   26 type  1   force =     0.00000000    0.00000000    0.00000000
     atom   27 type  1   force =     0.00000000    0.00000000    0.00000000
     atom   28 type  2   force =     0.00000000    0.00000000    0.00000000
     atom   29 type  2   force =     0.00000000    0.00000000    0.00000000
     atom   30 type  2   force =     0.00000000    0.00000000    0.00000000
     atom   31 type  1   force =     0.00000000    0.00000000    0.00000000
     atom   32 type  1   force =     0.00000000    0.00000000    0.00000000
     atom   33 type  2   force =     0.00000000    0.00000000    0.00000000
     atom   34 type  2   force =     0.00000000    0.00000000    0.00000000
     atom   35 type  2   force =     0.00000000    0.00000000    0.00000000
     atom   36 type  1   force =     0.00000000    0.00000000    0.00000000
     atom   37 type  1   force =     0.00000000    0.00000000    0.00000000
     atom   38 type  2   force =     0.00000000    0.00000000    0.00000000
     atom   39 type  2   force =     0.00000000    0.00000000    0.00000000
     atom   40 type  2   force =     0.00000000    0.00000000    0.00000000
     atom   41 type  1   force =     0.00000000    0.00000000    0.00000000
     atom   42 type  1   force =     0.00000000    0.00000000    0.00000000
     atom   43 type  2   force =     0.00000000    0.00000000    0.00000000
     atom   44 type  2   force =     0.00000000    0.00000000    0.00000000
     atom   45 type  2   force =     0.00000000    0.00000000    0.00000000
     atom   46 type  1   force =     0.00000000    0.00000000    0.00000000
     atom   47 type  1   force =     0.00000000    0.00000000    0.00000000
     atom   48 type  2   force =     0.00000000    0.00000000    0.00000000
     atom   49 type  2   force =     0.00000000    0.00000000    0.00000000
     atom   50 type  2   force =     0.00000000    0.00000000    0.00000000
     atom   51 type  1   force =     0.00000000    0.00000000    0.00000000
     atom   52 type  1   force =     0.00000000    0.00000000    0.00000000
     atom   53 type  2   force =     0.00000000    0.00000000    0.00000000
     atom   54 type  2   force =     0.00000000    0.00000000    0.00000000
     atom   55 type  2   force =     0.00000000    0.00000000    0.00000000
     atom   56 type  1   force =     0.00000000    0.00000000    0.00000000
     atom   57 type  1   force =     0.00000000    0.00000000    0.00000000
     atom   58 type  2   force =     0.00000000    0.00000000    0.00000000
     atom   59 type  2   force =     0.00000000    0.00000000    0.00000000
     atom   60 type  2   force =     0.00000000    0.00000000    0.00000000
     atom   61 type  1   force =     0.00000000    0.00000000    0.00000000
     atom   62 type  1   force =     0.00000000    0.00000000    0.00000000
     atom   63 type  2   force =     0.00000000    0.00000000    0.00000000
     atom   64 type  2   force =     0.00000000    0.00000000    0.00000000
     atom   65 type  2   force =     0.00000000    0.00000000    0.00000000
     atom   66 type  1   force =     0.00000000    0.00000000    0.00000000
     atom   67 type  1   force =     0.00000000    0.00000000    0.00000000
     atom   68 type  2   force =     0.00000000    0.00000000    0.00000000
     atom   69 type  2   force =     0.00000000    0.00000000    0.00000000
     atom   70 type  2   force =     0.00000000    0.00000000    0.00000000
     atom   71 type  1   force =     0.00000000    0.00000000    0.00000000
     atom   72 type  1   force =     0.00000000    0.00000000    0.00000000
     atom   73 type  2   force =     0.00000000    0.00000000    0.00000000
     atom   74 type  2   force =     0.00000000    0.00000000    0.00000000
     atom   75 type  2   force =     0.00000000    0.00000000    0.00000000
     atom   76 type  1   force =     0.00000000    0.00000000    0.00000000
     atom   77 type  1   force =     0.00000000    0.00000000    0.00000000
     atom   78 type  2   force =     0.00000000    0.00000000    0.00000000
     atom   79 type  2   force =     0.00000000    0.00000000    0.00000000
     atom   80 type  2   force =     0.00000000    0.00000000    0.00000000
     The SCF correction term to forces
     atom    1 type  1   force =     0.00000748   -0.00000193    0.00001442
     atom    2 type  1   force =    -0.00000143    0.00000215    0.00000955
     atom    3 type  2   force =     0.00000356   -0.00000125    0.00000538
     atom    4 type  2   force =     0.00000849    0.00000368    0.00000309
     atom    5 type  2   force =     0.00000672    0.00000228    0.00000697
     atom    6 type  1   force =    -0.00000033   -0.00002482   -0.00000143
     atom    7 type  1   force =    -0.00000033    0.00000486   -0.00000390
     atom    8 type  2   force =     0.00000053   -0.00000621   -0.00000016
     atom    9 type  2   force =     0.00000439   -0.00000091   -0.00000431
     atom   10 type  2   force =     0.00000023   -0.00000265   -0.00000329
     atom   11 type  1   force =    -0.00000235   -0.00000524    0.00001050
     atom   12 type  1   force =     0.00000205   -0.00000409    0.00000902
     atom   13 type  2   force =    -0.00000419   -0.00000258    0.00000759
     atom   14 type  2   force =     0.00000279   -0.00000624    0.00000326
     atom   15 type  2   force =     0.00000475   -0.00000346   -0.00000127
     atom   16 type  1   force =     0.00000545   -0.00001050   -0.00001373
     atom   17 type  1   force =     0.00001963    0.00001780   -0.00001194
     atom   18 type  2   force =     0.00000657    0.00000249   -0.00000472
     atom   19 type  2   force =     0.00000381   -0.00000046   -0.00000298
     atom   20 type  2   force =     0.00000300    0.00000042   -0.00000491
     atom   21 type  1   force =     0.00000581   -0.00000658    0.00001630
     atom   22 type  1   force =     0.00000523    0.00000395    0.00000095
     atom   23 type  2   force =     0.00000300   -0.00000159    0.00000670
     atom   24 type  2   force =     0.00000132    0.00000936    0.00000677
     atom   25 type  2   force =    -0.00000045    0.00000527    0.00000947
     atom   26 type  1   force =     0.00001343   -0.00000062   -0.00000796
     atom   27 type  1   force =     0.00000338   -0.00000810   -0.00000786
     atom   28 type  2   force =     0.00000076   -0.00000303   -0.00000355
     atom   29 type  2   force =     0.00000241   -0.00000012   -0.00000705
     atom   30 type  2   force =     0.00000124   -0.00000093   -0.00000220
     atom   31 type  1   force =    -0.00000011    0.00000143    0.00001357
     atom   32 type  1   force =     0.00000333   -0.00000637    0.00000209
     atom   33 type  2   force =     0.00000377    0.00000163    0.00000432
     atom   34 type  2   force =     0.00000364   -0.00000415    0.00000144
     atom   35 type  2   force =     0.00000603   -0.00000524    0.00000428
     atom   36 type  1   force =    -0.00000013   -0.00000416   -0.00001716
     atom   37 type  1   force =    -0.00000790    0.00000757   -0.00001997
     atom   38 type  2   force =    -0.00000073   -0.00000218   -0.00000747
     atom   39 type  2   force =     0.00000269    0.00000348   -0.00000286
     atom   40 type  2   force =    -0.00000262   -0.00000092   -0.00000708
     atom   41 type  1   force =    -0.00000616    0.00000823    0.00002267
     atom   42 type  1   force =    -0.00000260    0.00000360    0.00000676
     atom   43 type  2   force =    -0.00000025    0.00000335    0.00000701
     atom   44 type  2   force =    -0.00000266    0.00000361    0.00000486
     atom   45 type  2   force =    -0.00000509    0.00000623    0.00000567
     atom   46 type  1   force =    -0.00001106    0.00000204   -0.00001081
     atom   47 type  1   force =    -0.00000186   -0.00000209   -0.00000892
     atom   48 type  2   force =     0.00000305   -0.00000232   -0.00000526
     atom   49 type  2   force =    -0.00000152    0.00000250   -0.00000561
     atom   50 type  2   force =    -0.00000316   -0.00000052   -0.00000146
     atom   51 type  1   force =    -0.00000594   -0.00001117    0.00001135
     atom   52 type  1   force =     0.00000508   -0.00000588    0.00000937
     atom   53 type  2   force =     0.00000063   -0.00000027    0.00000631
     atom   54 type  2   force =    -0.00000095    0.00000097    0.00000300
     atom   55 type  2   force =    -0.00000252   -0.00000383    0.00000681
     atom   56 type  1   force =    -0.00001388    0.00002430   -0.00002497
     atom   57 type  1   force =    -0.00001403    0.00000299   -0.00001989
     atom   58 type  2   force =    -0.00000375    0.00000296   -0.00000753
     atom   59 type  2   force =    -0.00000485    0.00000106   -0.00000624
     atom   60 type  2   force =    -0.00000562    0.00000275   -0.00000935
     atom   61 type  1   force =     0.00000784   -0.00000196    0.00002124
     atom   62 type  1   force =    -0.00000388    0.00000659    0.00000765
     atom   63 type  2   force =    -0.00000284    0.00000103    0.00000355
     atom   64 type  2   force =    -0.00000456   -0.00000204    0.00000906
     atom   65 type  2   force =     0.00000164    0.00000472    0.00000595
     atom   66 type  1   force =     0.00001220   -0.00002853   -0.00000212
     atom   67 type  1   force =    -0.00000294   -0.00000095   -0.00000279
     atom   68 type  2   force =    -0.00000116   -0.00000608   -0.00000166
     atom   69 type  2   force =    -0.00000061    0.00000678   -0.00000355
     atom   70 type  2   force =    -0.00000001   -0.00000235    0.00000133
     atom   71 type  1   force =    -0.00001513   -0.00000371    0.00000799
     atom   72 type  1   force =    -0.00000870   -0.00000278    0.00002072
     atom   73 type  2   force =    -0.00000355   -0.00000402    0.00000897
     atom   74 type  2   force =    -0.00000595    0.00000418    0.00000480
     atom   75 type  2   force =    -0.00000614   -0.00000177    0.00000204
     atom   76 type  1   force =     0.00000550    0.00000991   -0.00001224
     atom   77 type  1   force =     0.00000281    0.00001653   -0.00001790
     atom   78 type  2   force =    -0.00000117    0.00000468   -0.00000412
     atom   79 type  2   force =    -0.00000223   -0.00000285   -0.00000502
     atom   80 type  2   force =     0.00000259    0.00000191   -0.00000635

     Total force =     0.045345     Total SCF correction =     0.000117


     Computing stress (Cartesian axis) and pressure


     negative rho (up, down):  3.350E-03 0.000E+00
          total   stress  (Ry/bohr**3)                   (kbar)     P=       -5.11
  -0.00002940   0.00001012  -0.00000040           -4.32        1.49       -0.06
   0.00001012  -0.00007254   0.00000041            1.49      -10.67        0.06
  -0.00000040   0.00000041  -0.00000228           -0.06        0.06       -0.34

     kinetic stress (kbar)   4916.61      2.64     -0.55
                                2.64   4910.31     -5.00
                               -0.55     -5.00   4910.18

     local   stress (kbar)-444607.39     96.52     18.37
                               96.52-441829.18  -1510.51
                               18.37  -1510.51 442413.90

     nonloc. stress (kbar)   -239.77      6.39     -1.71
                                6.39   -286.55     13.47
                               -1.71     13.47   -109.71

     hartree stress (kbar) 224464.90    -18.46    -13.09
                              -18.46 223022.03    688.18
                              -13.09    688.18-215178.89

     exc-cor stress (kbar)    595.21     -0.38      0.09
                               -0.38    597.43     -0.47
                                0.09     -0.47    586.32

     corecor stress (kbar)  -2382.53      0.02     -0.01
                                0.02  -2382.72      0.16
                               -0.01      0.16  -2381.72

     ewald   stress (kbar) 217248.64    -85.24     -3.16
                              -85.24 215958.00    814.23
                               -3.16    814.23-230240.42

     hubbard stress (kbar)      0.00      0.00      0.00
                                0.00      0.00      0.00
                                0.00      0.00      0.00

     DFT-D   stress (kbar)      0.00      0.00      0.00
                                0.00      0.00      0.00
                                0.00      0.00      0.00

     XDM     stress (kbar)      0.00      0.00      0.00
                                0.00      0.00      0.00
                                0.00      0.00      0.00

     dft-nl  stress (kbar)      0.00      0.00      0.00
                                0.00      0.00      0.00
                                0.00      0.00      0.00

     TS-vdW  stress (kbar)      0.00      0.00      0.00
                                0.00      0.00      0.00
                                0.00      0.00      0.00


                                0.00      0.00      0.00
                                0.00      0.00      0.00


                                0.00      0.00      0.00


     Entering Dynamics:    iteration =     2
                           time      =   0.0019 pico-seconds


     Canonical sampling velocity rescaling

ATOMIC_POSITIONS (crystal)
Ga            0.2009724975        0.3549515866        0.4082615921
Ga            0.1228101401        0.1549987236        0.3855683928
O             0.0895066970        0.2886740259        0.4296534340
O             0.1305736648        0.0037835861        0.3969851271
O             0.2301851974        0.2203992644        0.3642480304
Ga            0.2009953603        0.3547426439        0.6145361428
Ga            0.1223897649        0.1545971333        0.5917623310
O             0.0903609409        0.2886492459        0.6361851596
O             0.1306750092        0.0040499615        0.6021236171
O             0.2306435619        0.2216315223        0.5701687838
Ga            0.2013957172        0.8549837172        0.4081316164
Ga            0.1229972182        0.6545599705        0.3852470874
O             0.0912990377        0.7878570986        0.4295755677
O             0.1298947525        0.5038601473        0.3966547583
O             0.2303841013        0.7207864412        0.3640095507
Ga            0.2012692018        0.8548223481        0.6145111378
Ga            0.1225194907        0.6553655032        0.5914819998
O             0.0895939323        0.7884101313        0.6362525483
O             0.1302230943        0.5045830537        0.6027794428
O             0.2308298133        0.7213467052        0.5707041058
Ga            0.4511844231        0.3546623574        0.4083258037
Ga            0.3724162277        0.1548669296        0.3857267752
O             0.3397841775        0.2880645773        0.4298526217
O             0.3809982232        0.0023577435        0.3969015138
O             0.4808178763        0.2202667337        0.3637908660
Ga            0.4511759372        0.3551633074        0.6146210586
Ga            0.3719425617        0.1552466265        0.5918175655
O             0.3399544262        0.2884613246        0.6362741454
O             0.3798636984        0.0053010674        0.6029559378
O             0.4808308556        0.2207515399        0.5708494525
Ga            0.4514023823        0.8551458533        0.4082555684
Ga            0.3722713915        0.6553207502        0.3854560582
O             0.3394735441        0.7880961836        0.4294075979
O             0.3799234192        0.5036810325        0.3972248760
O             0.4797597649        0.7217593497        0.3643602266
Ga            0.4509425460        0.8550998786        0.6146039215
Ga            0.3718743847        0.6548447925        0.5915740491
O             0.3404072069        0.7876937011        0.6362422921
O             0.3814242609        0.5033594752        0.6031743662
O             0.4807869956        0.7225597532        0.5704969367
Ga            0.7009511248        0.3548767475        0.4081807081
Ga            0.6220392437        0.1552530125        0.3856495702
O             0.5897703410        0.2875701157        0.4293673441
O             0.6309502340        0.0030620248        0.3969607837
O             0.7311548557        0.2212156221        0.3635251936
Ga            0.7004741402        0.3554332377        0.6146882815
Ga            0.6220117779        0.1554184139        0.5916696189
O             0.5887075623        0.2892564346        0.6361747796
O             0.6310360489        0.0026910250        0.6031422660
O             0.7309100211        0.2208919047        0.5706060449
Ga            0.7012563332        0.8548677278        0.4083772307
Ga            0.6224950388        0.6546301933        0.3855937551
O             0.5907119913        0.7871939436        0.4296051768
O             0.6307327181        0.5033599657        0.3970826193
O             0.7313065420        0.7220011370        0.3637334826
Ga            0.7009030951        0.8553924966        0.6145274510
Ga            0.6221828473        0.6550314729        0.5917590417
O             0.5895086093        0.7875016040        0.6361660789
O             0.6303782580        0.5030921202        0.6029645884
O             0.7302873775        0.7216789923        0.5706099813
Ga            0.9505282231        0.3555659418        0.4081674588
Ga            0.8722868768        0.1556463119        0.3855129806
O             0.8392835056        0.2889600783        0.4293207275
O             0.8806783779        0.0035774254        0.3964467231
O             0.9808949206        0.2205901492        0.3637636900
Ga            0.9512150960        0.3549386594        0.6147401546
Ga            0.8718220579        0.1553804417        0.5919871363
O             0.8397234781        0.2879107185        0.6359175101
O             0.8813826305        0.0026481203        0.6026486050
O             0.9817514988        0.2219002543        0.5702428476
Ga            0.9509319907        0.8541262457        0.4083786430
Ga            0.8720235653        0.6546478640        0.3853963195
O             0.8402383714        0.7871122335        0.4299303476
O             0.8810372058        0.5032627351        0.3965040707
O             0.9818522914        0.7207195024        0.3642066957
Ga            0.9514693744        0.8552836709        0.6145554562
Ga            0.8719869721        0.6554950737        0.5917974733
O             0.8403874211        0.7872388148        0.6357811238
O             0.8806535655        0.5044592576        0.6032684738
O             0.9802624116        0.7213431966        0.5706512076


     kinetic energy (Ekin) =           0.22528542 Ry
     temperature           =         300.16669938 K 
     Ekin + Etot (const)   =      -10895.83658832 Ry
     Ions kinetic stress =            0.74 (kbar)
                                      0.68          -0.07          -0.12
                                     -0.07           0.73          -0.03
                                     -0.12          -0.03           0.81



     Linear momentum :    0.0000000000    0.0000000000   -0.0000000000

     Writing config-only to output data dir ./tmp/md/Ga2O3-BL-001-4x2x1-300K.save/

     first order wave-functions extrapolation
     first order charge density extrapolation

     negative rho (up, down):  3.358E-03 0.000E+00

     total cpu time spent up to now is     9826.9 secs

     Self-consistent Calculation

     iteration #  1     ecut=    80.00 Ry     beta= 0.20
     Davidson diagonalization with overlap

---- Real-time Memory Report at c_bands before calling an iterative solver
          1621 MiB given to the printing process from OS
             0 MiB allocation reported by mallinfo(arena+hblkhd)
        348384 MiB available memory on the node where the printing process lives
------------------
     ethr =  1.00E-06,  avg # of iterations =  2.0

     Threshold (ethr) on eigenvalues was too large:
     Diagonalizing with lowered threshold

     Davidson diagonalization with overlap

---- Real-time Memory Report at c_bands before calling an iterative solver
          1621 MiB given to the printing process from OS
             0 MiB allocation reported by mallinfo(arena+hblkhd)
        348489 MiB available memory on the node where the printing process lives
------------------
     ethr =  1.78E-09,  avg # of iterations = 17.2

     negative rho (up, down):  3.355E-03 0.000E+00

     total cpu time spent up to now is    10131.4 secs

     total energy              =  -10896.05780788 Ry
     estimated scf accuracy    <       0.00003836 Ry

     iteration #  2     ecut=    80.00 Ry     beta= 0.20
     Davidson diagonalization with overlap

---- Real-time Memory Report at c_bands before calling an iterative solver
          1621 MiB given to the printing process from OS
             0 MiB allocation reported by mallinfo(arena+hblkhd)
        348153 MiB available memory on the node where the printing process lives
------------------
     ethr =  5.45E-09,  avg # of iterations =  1.0

     negative rho (up, down):  3.353E-03 0.000E+00

     total cpu time spent up to now is    10189.4 secs

     total energy              =  -10896.05778232 Ry
     estimated scf accuracy    <       0.00002197 Ry

     iteration #  3     ecut=    80.00 Ry     beta= 0.20
     Davidson diagonalization with overlap

---- Real-time Memory Report at c_bands before calling an iterative solver
          1621 MiB given to the printing process from OS
             0 MiB allocation reported by mallinfo(arena+hblkhd)
        348112 MiB available memory on the node where the printing process lives
------------------
     ethr =  3.12E-09,  avg # of iterations = 13.0

     negative rho (up, down):  3.351E-03 0.000E+00

     total cpu time spent up to now is    10329.4 secs

     total energy              =  -10896.05779641 Ry
     estimated scf accuracy    <       0.00001119 Ry

     iteration #  4     ecut=    80.00 Ry     beta= 0.20
     Davidson diagonalization with overlap

---- Real-time Memory Report at c_bands before calling an iterative solver
          1621 MiB given to the printing process from OS
             0 MiB allocation reported by mallinfo(arena+hblkhd)
        347994 MiB available memory on the node where the printing process lives
------------------
     ethr =  1.59E-09,  avg # of iterations = 11.0

     negative rho (up, down):  3.349E-03 0.000E+00

     total cpu time spent up to now is    10415.8 secs

     total energy              =  -10896.05779803 Ry
     estimated scf accuracy    <       0.00001122 Ry

     iteration #  5     ecut=    80.00 Ry     beta= 0.20
     Davidson diagonalization with overlap

---- Real-time Memory Report at c_bands before calling an iterative solver
          1621 MiB given to the printing process from OS
             0 MiB allocation reported by mallinfo(arena+hblkhd)
        347834 MiB available memory on the node where the printing process lives
------------------
     ethr =  1.59E-09,  avg # of iterations =  2.0

     negative rho (up, down):  3.348E-03 0.000E+00

     total cpu time spent up to now is    10481.0 secs

     total energy              =  -10896.05779746 Ry
     estimated scf accuracy    <       0.00000961 Ry

     iteration #  6     ecut=    80.00 Ry     beta= 0.20
     Davidson diagonalization with overlap

---- Real-time Memory Report at c_bands before calling an iterative solver
          1621 MiB given to the printing process from OS
             0 MiB allocation reported by mallinfo(arena+hblkhd)
        347823 MiB available memory on the node where the printing process lives
------------------
     ethr =  1.36E-09,  avg # of iterations =  2.0

     negative rho (up, down):  3.347E-03 0.000E+00

     total cpu time spent up to now is    10547.2 secs

     total energy              =  -10896.05779853 Ry
     estimated scf accuracy    <       0.00000330 Ry

     iteration #  7     ecut=    80.00 Ry     beta= 0.20
     Davidson diagonalization with overlap

---- Real-time Memory Report at c_bands before calling an iterative solver
          1621 MiB given to the printing process from OS
             0 MiB allocation reported by mallinfo(arena+hblkhd)
        347768 MiB available memory on the node where the printing process lives
------------------
     ethr =  4.68E-10,  avg # of iterations = 13.0

     negative rho (up, down):  3.346E-03 0.000E+00

     total cpu time spent up to now is    10689.6 secs

     total energy              =  -10896.05779993 Ry
     estimated scf accuracy    <       0.00000197 Ry

     iteration #  8     ecut=    80.00 Ry     beta= 0.20
     Davidson diagonalization with overlap

---- Real-time Memory Report at c_bands before calling an iterative solver
          1621 MiB given to the printing process from OS
             0 MiB allocation reported by mallinfo(arena+hblkhd)
        347599 MiB available memory on the node where the printing process lives
------------------
     ethr =  2.81E-10,  avg # of iterations = 10.8

     negative rho (up, down):  3.345E-03 0.000E+00

     total cpu time spent up to now is    10776.0 secs

     total energy              =  -10896.05780033 Ry
     estimated scf accuracy    <       0.00000129 Ry

     iteration #  9     ecut=    80.00 Ry     beta= 0.20
     Davidson diagonalization with overlap

---- Real-time Memory Report at c_bands before calling an iterative solver
          1621 MiB given to the printing process from OS
             0 MiB allocation reported by mallinfo(arena+hblkhd)
        347520 MiB available memory on the node where the printing process lives
------------------
     ethr =  1.83E-10,  avg # of iterations =  2.0

     negative rho (up, down):  3.345E-03 0.000E+00

     total cpu time spent up to now is    10841.9 secs

     total energy              =  -10896.05780168 Ry
     estimated scf accuracy    <       0.00000125 Ry

     iteration # 10     ecut=    80.00 Ry     beta= 0.20
     Davidson diagonalization with overlap

---- Real-time Memory Report at c_bands before calling an iterative solver
          1621 MiB given to the printing process from OS
             0 MiB allocation reported by mallinfo(arena+hblkhd)
        347406 MiB available memory on the node where the printing process lives
------------------
     ethr =  1.78E-10,  avg # of iterations =  9.5

     negative rho (up, down):  3.344E-03 0.000E+00

     total cpu time spent up to now is    10947.6 secs

     total energy              =  -10896.05780509 Ry
     estimated scf accuracy    <       0.00000249 Ry

     iteration # 11     ecut=    80.00 Ry     beta= 0.20
     Davidson diagonalization with overlap

---- Real-time Memory Report at c_bands before calling an iterative solver
          1621 MiB given to the printing process from OS
             0 MiB allocation reported by mallinfo(arena+hblkhd)
        347393 MiB available memory on the node where the printing process lives
------------------
     ethr =  1.78E-10,  avg # of iterations = 12.0

     negative rho (up, down):  3.344E-03 0.000E+00

     total cpu time spent up to now is    11099.3 secs

     total energy              =  -10896.05780436 Ry
     estimated scf accuracy    <       0.00001287 Ry

     iteration # 12     ecut=    80.00 Ry     beta= 0.20
     Davidson diagonalization with overlap

---- Real-time Memory Report at c_bands before calling an iterative solver
          1621 MiB given to the printing process from OS
             0 MiB allocation reported by mallinfo(arena+hblkhd)
        347470 MiB available memory on the node where the printing process lives
------------------
     ethr =  1.78E-10,  avg # of iterations =  2.0

     negative rho (up, down):  3.344E-03 0.000E+00

     total cpu time spent up to now is    11167.6 secs

     total energy              =  -10896.05780350 Ry
     estimated scf accuracy    <       0.00000949 Ry

     iteration # 13     ecut=    80.00 Ry     beta= 0.20
     Davidson diagonalization with overlap

---- Real-time Memory Report at c_bands before calling an iterative solver
          1621 MiB given to the printing process from OS
             0 MiB allocation reported by mallinfo(arena+hblkhd)
        347479 MiB available memory on the node where the printing process lives
------------------
     ethr =  1.78E-10,  avg # of iterations =  1.8

     negative rho (up, down):  3.343E-03 0.000E+00

     total cpu time spent up to now is    11230.2 secs

     total energy              =  -10896.05780270 Ry
     estimated scf accuracy    <       0.00000823 Ry

     iteration # 14     ecut=    80.00 Ry     beta= 0.20
     Davidson diagonalization with overlap

---- Real-time Memory Report at c_bands before calling an iterative solver
          1621 MiB given to the printing process from OS
             0 MiB allocation reported by mallinfo(arena+hblkhd)
        347461 MiB available memory on the node where the printing process lives
------------------
     ethr =  1.78E-10,  avg # of iterations =  2.8

     negative rho (up, down):  3.343E-03 0.000E+00

     total cpu time spent up to now is    11301.7 secs

     total energy              =  -10896.05780356 Ry
     estimated scf accuracy    <       0.00000571 Ry

     iteration # 15     ecut=    80.00 Ry     beta= 0.20
     Davidson diagonalization with overlap

---- Real-time Memory Report at c_bands before calling an iterative solver
          1621 MiB given to the printing process from OS
             0 MiB allocation reported by mallinfo(arena+hblkhd)
        347498 MiB available memory on the node where the printing process lives
------------------
     ethr =  1.78E-10,  avg # of iterations =  2.0

     negative rho (up, down):  3.343E-03 0.000E+00

     total cpu time spent up to now is    11367.8 secs

     total energy              =  -10896.05780213 Ry
     estimated scf accuracy    <       0.00000707 Ry

     iteration # 16     ecut=    80.00 Ry     beta= 0.20
     Davidson diagonalization with overlap

---- Real-time Memory Report at c_bands before calling an iterative solver
          1621 MiB given to the printing process from OS
             0 MiB allocation reported by mallinfo(arena+hblkhd)
        347471 MiB available memory on the node where the printing process lives
------------------
     ethr =  1.78E-10,  avg # of iterations =  5.0

     negative rho (up, down):  3.343E-03 0.000E+00

     total cpu time spent up to now is    11475.6 secs

     total energy              =  -10896.05780164 Ry
     estimated scf accuracy    <       0.00000261 Ry

     iteration # 17     ecut=    80.00 Ry     beta= 0.20
     Davidson diagonalization with overlap

---- Real-time Memory Report at c_bands before calling an iterative solver
          1621 MiB given to the printing process from OS
             0 MiB allocation reported by mallinfo(arena+hblkhd)
        347478 MiB available memory on the node where the printing process lives
------------------
     ethr =  1.78E-10,  avg # of iterations =  8.2

     negative rho (up, down):  3.343E-03 0.000E+00

     total cpu time spent up to now is    11582.2 secs

     total energy              =  -10896.05780253 Ry
     estimated scf accuracy    <       0.00000012 Ry

     iteration # 18     ecut=    80.00 Ry     beta= 0.20
     Davidson diagonalization with overlap

---- Real-time Memory Report at c_bands before calling an iterative solver
          1621 MiB given to the printing process from OS
             0 MiB allocation reported by mallinfo(arena+hblkhd)
        347494 MiB available memory on the node where the printing process lives
------------------
     ethr =  1.71E-11,  avg # of iterations = 16.5

     negative rho (up, down):  3.343E-03 0.000E+00

     total cpu time spent up to now is    11838.0 secs

     total energy              =  -10896.05780293 Ry
     estimated scf accuracy    <       0.00000019 Ry

     iteration # 19     ecut=    80.00 Ry     beta= 0.20
     Davidson diagonalization with overlap

---- Real-time Memory Report at c_bands before calling an iterative solver
          1621 MiB given to the printing process from OS
             0 MiB allocation reported by mallinfo(arena+hblkhd)
        347455 MiB available memory on the node where the printing process lives
------------------
     ethr =  1.71E-11,  avg # of iterations =  4.2

     negative rho (up, down):  3.343E-03 0.000E+00

     total cpu time spent up to now is    11910.1 secs

     total energy              =  -10896.05780341 Ry
     estimated scf accuracy    <       0.00000009 Ry

     iteration # 20     ecut=    80.00 Ry     beta= 0.20
     Davidson diagonalization with overlap

---- Real-time Memory Report at c_bands before calling an iterative solver
          1621 MiB given to the printing process from OS
             0 MiB allocation reported by mallinfo(arena+hblkhd)
        347460 MiB available memory on the node where the printing process lives
------------------
     c_bands:  1 eigenvalues not converged
     c_bands:  3 eigenvalues not converged
     c_bands:  3 eigenvalues not converged
     ethr =  1.30E-11,  avg # of iterations = 20.0

     negative rho (up, down):  3.343E-03 0.000E+00

     total cpu time spent up to now is    12184.2 secs

     total energy              =  -10896.05780381 Ry
     estimated scf accuracy    <       0.00000019 Ry

     iteration # 21     ecut=    80.00 Ry     beta= 0.20
     Davidson diagonalization with overlap

---- Real-time Memory Report at c_bands before calling an iterative solver
          1621 MiB given to the printing process from OS
             0 MiB allocation reported by mallinfo(arena+hblkhd)
        347406 MiB available memory on the node where the printing process lives
------------------
     ethr =  1.30E-11,  avg # of iterations =  4.5

     negative rho (up, down):  3.343E-03 0.000E+00

     total cpu time spent up to now is    12257.3 secs

     total energy              =  -10896.05780388 Ry
     estimated scf accuracy    <       0.00000011 Ry

     iteration # 22     ecut=    80.00 Ry     beta= 0.20
     Davidson diagonalization with overlap

---- Real-time Memory Report at c_bands before calling an iterative solver
          1621 MiB given to the printing process from OS
             0 MiB allocation reported by mallinfo(arena+hblkhd)
        347405 MiB available memory on the node where the printing process lives
------------------
     ethr =  1.30E-11,  avg # of iterations =  2.0

     negative rho (up, down):  3.343E-03 0.000E+00

     total cpu time spent up to now is    12325.9 secs

     total energy              =  -10896.05780385 Ry
     estimated scf accuracy    <       0.00000007 Ry

     iteration # 23     ecut=    80.00 Ry     beta= 0.20
     Davidson diagonalization with overlap

---- Real-time Memory Report at c_bands before calling an iterative solver
          1621 MiB given to the printing process from OS
             0 MiB allocation reported by mallinfo(arena+hblkhd)
        347433 MiB available memory on the node where the printing process lives
------------------
     ethr =  9.35E-12,  avg # of iterations =  2.0

     negative rho (up, down):  3.343E-03 0.000E+00

     total cpu time spent up to now is    12393.9 secs

     total energy              =  -10896.05780391 Ry
     estimated scf accuracy    <       0.00000008 Ry

     iteration # 24     ecut=    80.00 Ry     beta= 0.20
     Davidson diagonalization with overlap

---- Real-time Memory Report at c_bands before calling an iterative solver
          1621 MiB given to the printing process from OS
             0 MiB allocation reported by mallinfo(arena+hblkhd)
        347425 MiB available memory on the node where the printing process lives
------------------
     ethr =  9.35E-12,  avg # of iterations = 14.5

     negative rho (up, down):  3.343E-03 0.000E+00

     total cpu time spent up to now is    12567.3 secs

     total energy              =  -10896.05780410 Ry
     estimated scf accuracy    <       0.00000012 Ry

     iteration # 25     ecut=    80.00 Ry     beta= 0.20
     Davidson diagonalization with overlap

---- Real-time Memory Report at c_bands before calling an iterative solver
          1621 MiB given to the printing process from OS
             0 MiB allocation reported by mallinfo(arena+hblkhd)
        347439 MiB available memory on the node where the printing process lives
------------------
     ethr =  9.35E-12,  avg # of iterations = 13.0

     negative rho (up, down):  3.343E-03 0.000E+00

     total cpu time spent up to now is    12693.7 secs

     total energy              =  -10896.05780419 Ry
     estimated scf accuracy    <       0.00000009 Ry

     iteration # 26     ecut=    80.00 Ry     beta= 0.20
     Davidson diagonalization with overlap

---- Real-time Memory Report at c_bands before calling an iterative solver
          1621 MiB given to the printing process from OS
             0 MiB allocation reported by mallinfo(arena+hblkhd)
        347439 MiB available memory on the node where the printing process lives
------------------
     ethr =  9.35E-12,  avg # of iterations =  9.0

     negative rho (up, down):  3.343E-03 0.000E+00

     total cpu time spent up to now is    12785.9 secs

     total energy              =  -10896.05780420 Ry
     estimated scf accuracy    <       0.00000006 Ry

     iteration # 27     ecut=    80.00 Ry     beta= 0.20
     Davidson diagonalization with overlap

---- Real-time Memory Report at c_bands before calling an iterative solver
          1621 MiB given to the printing process from OS
             0 MiB allocation reported by mallinfo(arena+hblkhd)
        347429 MiB available memory on the node where the printing process lives
------------------
     ethr =  9.06E-12,  avg # of iterations =  2.0

     negative rho (up, down):  3.343E-03 0.000E+00

     total cpu time spent up to now is    12853.0 secs

     total energy              =  -10896.05780421 Ry
     estimated scf accuracy    <       0.00000002 Ry

     iteration # 28     ecut=    80.00 Ry     beta= 0.20
     Davidson diagonalization with overlap

---- Real-time Memory Report at c_bands before calling an iterative solver
          1621 MiB given to the printing process from OS
             0 MiB allocation reported by mallinfo(arena+hblkhd)
        347412 MiB available memory on the node where the printing process lives
------------------
     c_bands:  3 eigenvalues not converged
     c_bands:  1 eigenvalues not converged
     ethr =  2.81E-12,  avg # of iterations = 15.0

     negative rho (up, down):  3.343E-03 0.000E+00

     total cpu time spent up to now is    13027.1 secs

     total energy              =  -10896.05780423 Ry
     estimated scf accuracy    <       0.00000001 Ry

     iteration # 29     ecut=    80.00 Ry     beta= 0.20
     Davidson diagonalization with overlap

---- Real-time Memory Report at c_bands before calling an iterative solver
          1621 MiB given to the printing process from OS
             0 MiB allocation reported by mallinfo(arena+hblkhd)
        347407 MiB available memory on the node where the printing process lives
------------------
     ethr =  1.52E-12,  avg # of iterations =  4.8

     negative rho (up, down):  3.343E-03 0.000E+00

     total cpu time spent up to now is    13099.5 secs

     total energy              =  -10896.05780424 Ry
     estimated scf accuracy    <       0.00000001 Ry

     iteration # 30     ecut=    80.00 Ry     beta= 0.20
     Davidson diagonalization with overlap

---- Real-time Memory Report at c_bands before calling an iterative solver
          1621 MiB given to the printing process from OS
             0 MiB allocation reported by mallinfo(arena+hblkhd)
        347405 MiB available memory on the node where the printing process lives
------------------
     ethr =  1.52E-12,  avg # of iterations =  9.2

     negative rho (up, down):  3.343E-03 0.000E+00

     total cpu time spent up to now is    13182.0 secs

     total energy              =  -10896.05780424 Ry
     estimated scf accuracy    <       0.00000003 Ry

     iteration # 31     ecut=    80.00 Ry     beta= 0.20
     Davidson diagonalization with overlap

---- Real-time Memory Report at c_bands before calling an iterative solver
          1621 MiB given to the printing process from OS
             0 MiB allocation reported by mallinfo(arena+hblkhd)
        347401 MiB available memory on the node where the printing process lives
------------------
     ethr =  1.52E-12,  avg # of iterations =  2.0

     negative rho (up, down):  3.343E-03 0.000E+00

     total cpu time spent up to now is    13247.8 secs

     total energy              =  -10896.05780424 Ry
     estimated scf accuracy    <       0.00000002 Ry

     iteration # 32     ecut=    80.00 Ry     beta= 0.20
     Davidson diagonalization with overlap

---- Real-time Memory Report at c_bands before calling an iterative solver
          1621 MiB given to the printing process from OS
             0 MiB allocation reported by mallinfo(arena+hblkhd)
        347396 MiB available memory on the node where the printing process lives
------------------
     ethr =  1.52E-12,  avg # of iterations =  2.0

     negative rho (up, down):  3.343E-03 0.000E+00

     total cpu time spent up to now is    13315.5 secs

     total energy              =  -10896.05780424 Ry
     estimated scf accuracy    <       0.00000001 Ry

     iteration # 33     ecut=    80.00 Ry     beta= 0.20
     Davidson diagonalization with overlap

---- Real-time Memory Report at c_bands before calling an iterative solver
          1621 MiB given to the printing process from OS
             0 MiB allocation reported by mallinfo(arena+hblkhd)
        347370 MiB available memory on the node where the printing process lives
------------------
     ethr =  1.52E-12,  avg # of iterations =  2.0

     negative rho (up, down):  3.343E-03 0.000E+00

     total cpu time spent up to now is    13381.4 secs

     End of self-consistent calculation

          k = 0.0000 0.0000 0.0000 (360677 PWs)   bands (ev):

   -25.0912 -25.0838 -25.0007 -24.9869 -24.8086 -24.8043 -24.7943 -24.7907
   -24.7586 -24.7406 -24.7342 -24.7289 -24.3340 -24.3261 -24.3107 -24.2876
   -24.2807 -24.2700 -24.2556 -24.2441 -24.1875 -24.1802 -24.1271 -24.1085
   -24.0936 -24.0872 -24.0781 -24.0735 -24.0631 -24.0558 -24.0481 -24.0164
   -23.8765 -23.8640 -23.8589 -23.8464 -23.8378 -23.8331 -23.8210 -23.8103
   -23.7991 -23.7857 -23.7807 -23.7610 -23.7570 -23.7342 -23.7310 -23.6820
   -20.1172 -20.1134 -20.0761 -20.0737 -20.0651 -20.0553 -20.0473 -20.0465
   -20.0391 -20.0381 -20.0233 -20.0193 -20.0157 -20.0044 -19.9969 -19.9792
   -19.9745 -19.9730 -19.9481 -19.9469 -19.9384 -19.9329 -19.9321 -19.9312
   -19.9267 -19.9253 -19.9235 -19.9210 -19.9206 -19.9197 -19.9169 -19.9128
   -19.9125 -19.9094 -19.9055 -19.9027 -19.8989 -19.8971 -19.8966 -19.8955
   -19.8919 -19.8902 -19.8891 -19.8847 -19.8789 -19.8769 -19.8740 -19.8732
   -19.8700 -19.8699 -19.8667 -19.8647 -19.8586 -19.8574 -19.8563 -19.8528
   -19.8502 -19.8480 -19.8465 -19.8438 -19.8431 -19.8426 -19.8369 -19.8348
   -19.8319 -19.8284 -19.8268 -19.8253 -19.8192 -19.8178 -19.8166 -19.8121
   -19.8100 -19.8050 -19.7997 -19.7965 -19.7935 -19.7929 -19.7904 -19.7870
   -19.7859 -19.7820 -19.7771 -19.7733 -19.7729 -19.7712 -19.7688 -19.7665
   -19.7659 -19.7615 -19.7592 -19.7556 -19.7509 -19.7461 -19.7457 -19.7405
   -19.7360 -19.7341 -19.7327 -19.7300 -19.7189 -19.7186 -19.7151 -19.7115
   -19.7096 -19.7010 -19.6993 -19.6928 -19.6912 -19.6759 -19.6655 -19.6601
   -19.6413 -19.6398 -19.6269 -19.6136 -19.6000 -19.5888 -19.5815 -19.5806
   -19.5456 -19.5338 -19.5330 -19.5208 -19.4091 -19.4035 -19.3994 -19.3963
   -19.3930 -19.3825 -19.3321 -19.3283 -19.3265 -19.3093 -19.2761 -19.2640
   -19.2634 -19.2583 -19.1487 -19.1474 -19.1351 -19.1328 -19.1256 -19.1196
   -19.1049 -19.0908 -19.0364 -19.0225 -19.0163 -19.0134 -19.0075 -19.0057
   -18.9633 -18.9631 -18.9602 -18.9433 -18.9415 -18.9378 -18.9344 -18.9116
   -13.0828 -13.0742 -13.0551 -13.0457 -12.8873 -12.8823 -12.8142 -12.8067
   -12.7991 -12.7896 -12.4759 -12.4641 -12.4416 -12.4350 -12.2646 -12.2488
   -12.2481 -12.2376 -11.6982 -11.6857 -11.5670 -11.5473 -11.5442 -11.5385
   -11.2472 -11.2409 -11.2382 -11.2325 -10.8528 -10.8387 -10.8299 -10.8257
   -10.6844 -10.6716 -10.6496 -10.6320 -10.5860 -10.5807 -10.5712 -10.5666
   -10.5459 -10.5339 -10.4814 -10.4744 -10.4500 -10.4260  -9.9870  -9.9701
    -9.9648  -9.9607  -9.9059  -9.9005  -9.8575  -9.8397  -9.7441  -9.7389
    -9.7206  -9.6932  -9.3747  -9.3629  -9.3549  -9.3498  -9.2676  -9.2639
    -9.2313  -9.2201  -9.1926  -9.1837  -9.1801  -9.1679  -8.9668  -8.9620
    -8.9452  -8.9395  -8.7457  -8.7416  -8.6152  -8.6104  -8.5743  -8.5697
    -8.5648  -8.5586  -8.5422  -8.5226  -8.4892  -8.4869  -8.4761  -8.4724
    -8.4697  -8.4684  -8.4641  -8.4540  -8.3218  -8.3060  -8.2423  -8.2213
    -8.2045  -8.1637  -8.1550  -8.1469  -8.1397  -8.1308  -7.8606  -7.8019
    -7.7862  -7.7780  -7.7630  -7.7594  -7.7549  -7.7525  -7.7383  -7.7273
    -7.6616  -7.6532  -7.6501  -7.6461  -7.6073  -7.5774  -7.5523  -7.5449
    -7.5392  -7.5316  -7.5186  -7.5118  -7.5022  -7.4979  -7.4730  -7.4662
    -7.4533  -7.4408  -7.4228  -7.4195  -7.3960  -7.3862  -7.3834  -7.3798
    -7.3746  -7.3510  -7.3436  -7.3202  -7.0853  -7.0832  -7.0476  -7.0282

     occupation numbers 
     1.0000   1.0000   1.0000   1.0000   1.0000   1.0000   1.0000   1.0000
     1.0000   1.0000   1.0000   1.0000   1.0000   1.0000   1.0000   1.0000
     1.0000   1.0000   1.0000   1.0000   1.0000   1.0000   1.0000   1.0000
     1.0000   1.0000   1.0000   1.0000   1.0000   1.0000   1.0000   1.0000
     1.0000   1.0000   1.0000   1.0000   1.0000   1.0000   1.0000   1.0000
     1.0000   1.0000   1.0000   1.0000   1.0000   1.0000   1.0000   1.0000
     1.0000   1.0000   1.0000   1.0000   1.0000   1.0000   1.0000   1.0000
     1.0000   1.0000   1.0000   1.0000   1.0000   1.0000   1.0000   1.0000
     1.0000   1.0000   1.0000   1.0000   1.0000   1.0000   1.0000   1.0000
     1.0000   1.0000   1.0000   1.0000   1.0000   1.0000   1.0000   1.0000
     1.0000   1.0000   1.0000   1.0000   1.0000   1.0000   1.0000   1.0000
     1.0000   1.0000   1.0000   1.0000   1.0000   1.0000   1.0000   1.0000
     1.0000   1.0000   1.0000   1.0000   1.0000   1.0000   1.0000   1.0000
     1.0000   1.0000   1.0000   1.0000   1.0000   1.0000   1.0000   1.0000
     1.0000   1.0000   1.0000   1.0000   1.0000   1.0000   1.0000   1.0000
     1.0000   1.0000   1.0000   1.0000   1.0000   1.0000   1.0000   1.0000
     1.0000   1.0000   1.0000   1.0000   1.0000   1.0000   1.0000   1.0000
     1.0000   1.0000   1.0000   1.0000   1.0000   1.0000   1.0000   1.0000
     1.0000   1.0000   1.0000   1.0000   1.0000   1.0000   1.0000   1.0000
     1.0000   1.0000   1.0000   1.0000   1.0000   1.0000   1.0000   1.0000
     1.0000   1.0000   1.0000   1.0000   1.0000   1.0000   1.0000   1.0000
     1.0000   1.0000   1.0000   1.0000   1.0000   1.0000   1.0000   1.0000
     1.0000   1.0000   1.0000   1.0000   1.0000   1.0000   1.0000   1.0000
     1.0000   1.0000   1.0000   1.0000   1.0000   1.0000   1.0000   1.0000
     1.0000   1.0000   1.0000   1.0000   1.0000   1.0000   1.0000   1.0000
     1.0000   1.0000   1.0000   1.0000   1.0000   1.0000   1.0000   1.0000
     1.0000   1.0000   1.0000   1.0000   1.0000   1.0000   1.0000   1.0000
     1.0000   1.0000   1.0000   1.0000   1.0000   1.0000   1.0000   1.0000
     1.0000   1.0000   1.0000   1.0000   1.0000   1.0000   1.0000   1.0000
     1.0000   1.0000   1.0000   1.0000   1.0000   1.0000   1.0000   1.0000
     1.0000   1.0000   1.0000   1.0000   1.0000   1.0000   1.0000   1.0000
     1.0000   1.0000   1.0000   1.0000   1.0000   1.0000   1.0000   1.0000
     1.0000   1.0000   1.0000   1.0000   1.0000   1.0000   1.0000   1.0000
     1.0000   1.0000   1.0000   1.0000   1.0000   1.0000   1.0000   1.0000
     1.0000   1.0000   1.0000   1.0000   1.0000   1.0000   1.0000   1.0000
     1.0000   1.0000   1.0000   1.0000   1.0000   1.0000   1.0000   1.0000
     1.0000   1.0000   1.0000   1.0000   1.0000   1.0000   1.0000   1.0000
     1.0000   1.0000   1.0000   1.0000   1.0000   1.0000   1.0000   1.0000
     1.0000   1.0000   1.0000   1.0000   1.0000   1.0000   1.0000   1.0000
     1.0000   1.0000   1.0000   1.0000   1.0000   1.0000   1.0000   1.0000
     1.0000   1.0000   1.0000   1.0000   1.0000   1.0000   1.0000   1.0000
     1.0000   1.0000   1.0000   1.0000   1.0000   1.0000   1.0000   1.0000
     1.0000   1.0000   1.0000   1.0000   1.0000   1.0000   1.0000   1.0000
     1.0000   1.0000   1.0000   1.0000   1.0000   1.0000   1.0000   1.0000

          k = 0.0247-0.5725 0.0000 (360514 PWs)   bands (ev):

   -25.0544 -25.0525 -25.0422 -25.0236 -24.8101 -24.8035 -24.7923 -24.7897
   -24.7598 -24.7417 -24.7345 -24.7296 -24.3341 -24.3260 -24.3110 -24.2870
   -24.2796 -24.2714 -24.2552 -24.2443 -24.1606 -24.1490 -24.1299 -24.1177
   -24.0995 -24.0856 -24.0766 -24.0760 -24.0706 -24.0593 -24.0529 -24.0253
   -23.8772 -23.8607 -23.8601 -23.8505 -23.8424 -23.8294 -23.8221 -23.8088
   -23.7983 -23.7859 -23.7825 -23.7586 -23.7577 -23.7368 -23.7311 -23.6816
   -20.0980 -20.0883 -20.0829 -20.0805 -20.0682 -20.0610 -20.0547 -20.0536
   -20.0422 -20.0364 -20.0296 -20.0201 -20.0146 -20.0048 -20.0029 -19.9793
   -19.9644 -19.9624 -19.9562 -19.9534 -19.9402 -19.9343 -19.9316 -19.9307
   -19.9294 -19.9265 -19.9245 -19.9224 -19.9205 -19.9176 -19.9154 -19.9144
   -19.9086 -19.9051 -19.9046 -19.9036 -19.9031 -19.8990 -19.8986 -19.8942
   -19.8910 -19.8907 -19.8881 -19.8825 -19.8810 -19.8809 -19.8775 -19.8750
   -19.8714 -19.8681 -19.8649 -19.8636 -19.8610 -19.8575 -19.8565 -19.8554
   -19.8544 -19.8505 -19.8482 -19.8452 -19.8417 -19.8391 -19.8389 -19.8355
   -19.8335 -19.8294 -19.8281 -19.8279 -19.8227 -19.8223 -19.8179 -19.8116
   -19.8108 -19.8062 -19.8061 -19.7953 -19.7942 -19.7916 -19.7899 -19.7863
   -19.7840 -19.7833 -19.7789 -19.7752 -19.7733 -19.7708 -19.7674 -19.7663
   -19.7591 -19.7587 -19.7572 -19.7517 -19.7508 -19.7444 -19.7413 -19.7387
   -19.7348 -19.7308 -19.7285 -19.7279 -19.7243 -19.7218 -19.7145 -19.7103
   -19.7083 -19.7019 -19.6992 -19.6934 -19.6927 -19.6769 -19.6674 -19.6615
   -19.6391 -19.6356 -19.6251 -19.6158 -19.5921 -19.5875 -19.5838 -19.5750
   -19.5562 -19.5461 -19.5450 -19.5315 -19.4076 -19.3988 -19.3981 -19.3809
   -19.3089 -19.3071 -19.3021 -19.3017 -19.2869 -19.2795 -19.2753 -19.2731
   -19.2682 -19.2653 -19.2646 -19.2601 -19.1693 -19.1675 -19.1588 -19.1548
   -19.0589 -19.0510 -19.0475 -19.0385 -18.9898 -18.9888 -18.9856 -18.9818
   -18.9627 -18.9608 -18.9585 -18.9556 -18.9506 -18.9493 -18.9348 -18.9162
   -13.0772 -13.0736 -13.0616 -13.0464 -12.8261 -12.8148 -12.8071 -12.8014
   -12.4693 -12.4617 -12.4508 -12.4474 -12.4435 -12.4366 -12.4354 -12.4147
   -12.2380 -12.2267 -12.2241 -12.2217 -11.5897 -11.5811 -11.5764 -11.5724
   -11.2363 -11.2325 -11.2238 -11.2179 -10.8246 -10.8178 -10.8134 -10.8062
   -10.6512 -10.6444 -10.6265 -10.6202 -10.6134 -10.6033 -10.6006 -10.5822
   -10.4200 -10.4194 -10.4097 -10.3834 -10.0340 -10.0276 -10.0234 -10.0057
    -9.9602  -9.9538  -9.9484  -9.9390  -9.8622  -9.8584  -9.8509  -9.8195
    -9.4502  -9.4451  -9.4420  -9.4263  -9.3767  -9.3661  -9.3606  -9.3516
    -9.2354  -9.2312  -9.2151  -9.2025  -9.1659  -9.1608  -9.1536  -9.1497
    -8.9911  -8.9850  -8.9664  -8.9641  -8.6608  -8.6552  -8.6241  -8.6151
    -8.5791  -8.5666  -8.5639  -8.5572  -8.4880  -8.4824  -8.4624  -8.4604
    -8.2967  -8.2876  -8.2741  -8.2627  -8.2467  -8.2368  -8.2207  -8.2168
    -8.2112  -8.2080  -8.1996  -8.1956  -7.9255  -7.9083  -7.8754  -7.8566
    -7.8427  -7.8288  -7.8257  -7.8090  -7.7635  -7.7563  -7.7484  -7.7447
    -7.6491  -7.6466  -7.6383  -7.6353  -7.5862  -7.5835  -7.5705  -7.5608
    -7.5395  -7.5338  -7.5296  -7.5284  -7.5038  -7.4994  -7.4910  -7.4874
    -7.4717  -7.4626  -7.4529  -7.4460  -7.4271  -7.4207  -7.4114  -7.3987
    -7.3873  -7.3756  -7.3588  -7.3385  -7.0765  -7.0715  -7.0497  -7.0274

     occupation numbers 
     1.0000   1.0000   1.0000   1.0000   1.0000   1.0000   1.0000   1.0000
     1.0000   1.0000   1.0000   1.0000   1.0000   1.0000   1.0000   1.0000
     1.0000   1.0000   1.0000   1.0000   1.0000   1.0000   1.0000   1.0000
     1.0000   1.0000   1.0000   1.0000   1.0000   1.0000   1.0000   1.0000
     1.0000   1.0000   1.0000   1.0000   1.0000   1.0000   1.0000   1.0000
     1.0000   1.0000   1.0000   1.0000   1.0000   1.0000   1.0000   1.0000
     1.0000   1.0000   1.0000   1.0000   1.0000   1.0000   1.0000   1.0000
     1.0000   1.0000   1.0000   1.0000   1.0000   1.0000   1.0000   1.0000
     1.0000   1.0000   1.0000   1.0000   1.0000   1.0000   1.0000   1.0000
     1.0000   1.0000   1.0000   1.0000   1.0000   1.0000   1.0000   1.0000
     1.0000   1.0000   1.0000   1.0000   1.0000   1.0000   1.0000   1.0000
     1.0000   1.0000   1.0000   1.0000   1.0000   1.0000   1.0000   1.0000
     1.0000   1.0000   1.0000   1.0000   1.0000   1.0000   1.0000   1.0000
     1.0000   1.0000   1.0000   1.0000   1.0000   1.0000   1.0000   1.0000
     1.0000   1.0000   1.0000   1.0000   1.0000   1.0000   1.0000   1.0000
     1.0000   1.0000   1.0000   1.0000   1.0000   1.0000   1.0000   1.0000
     1.0000   1.0000   1.0000   1.0000   1.0000   1.0000   1.0000   1.0000
     1.0000   1.0000   1.0000   1.0000   1.0000   1.0000   1.0000   1.0000
     1.0000   1.0000   1.0000   1.0000   1.0000   1.0000   1.0000   1.0000
     1.0000   1.0000   1.0000   1.0000   1.0000   1.0000   1.0000   1.0000
     1.0000   1.0000   1.0000   1.0000   1.0000   1.0000   1.0000   1.0000
     1.0000   1.0000   1.0000   1.0000   1.0000   1.0000   1.0000   1.0000
     1.0000   1.0000   1.0000   1.0000   1.0000   1.0000   1.0000   1.0000
     1.0000   1.0000   1.0000   1.0000   1.0000   1.0000   1.0000   1.0000
     1.0000   1.0000   1.0000   1.0000   1.0000   1.0000   1.0000   1.0000
     1.0000   1.0000   1.0000   1.0000   1.0000   1.0000   1.0000   1.0000
     1.0000   1.0000   1.0000   1.0000   1.0000   1.0000   1.0000   1.0000
     1.0000   1.0000   1.0000   1.0000   1.0000   1.0000   1.0000   1.0000
     1.0000   1.0000   1.0000   1.0000   1.0000   1.0000   1.0000   1.0000
     1.0000   1.0000   1.0000   1.0000   1.0000   1.0000   1.0000   1.0000
     1.0000   1.0000   1.0000   1.0000   1.0000   1.0000   1.0000   1.0000
     1.0000   1.0000   1.0000   1.0000   1.0000   1.0000   1.0000   1.0000
     1.0000   1.0000   1.0000   1.0000   1.0000   1.0000   1.0000   1.0000
     1.0000   1.0000   1.0000   1.0000   1.0000   1.0000   1.0000   1.0000
     1.0000   1.0000   1.0000   1.0000   1.0000   1.0000   1.0000   1.0000
     1.0000   1.0000   1.0000   1.0000   1.0000   1.0000   1.0000   1.0000
     1.0000   1.0000   1.0000   1.0000   1.0000   1.0000   1.0000   1.0000
     1.0000   1.0000   1.0000   1.0000   1.0000   1.0000   1.0000   1.0000
     1.0000   1.0000   1.0000   1.0000   1.0000   1.0000   1.0000   1.0000
     1.0000   1.0000   1.0000   1.0000   1.0000   1.0000   1.0000   1.0000
     1.0000   1.0000   1.0000   1.0000   1.0000   1.0000   1.0000   1.0000
     1.0000   1.0000   1.0000   1.0000   1.0000   1.0000   1.0000   1.0000
     1.0000   1.0000   1.0000   1.0000   1.0000   1.0000   1.0000   1.0000
     1.0000   1.0000   1.0000   1.0000   1.0000   1.0000   1.0000   1.0000

          k =-0.5052 0.1105 0.0000 (360696 PWs)   bands (ev):

   -25.0282 -25.0273 -25.0087 -24.9801 -24.9417 -24.9272 -24.9160 -24.8925
   -24.5679 -24.5567 -24.5354 -24.5091 -24.5086 -24.5055 -24.4938 -24.4817
   -24.1849 -24.1825 -24.1728 -24.1645 -24.1611 -24.1380 -24.1287 -24.1195
   -24.1129 -24.1123 -24.1063 -24.0872 -24.0761 -24.0606 -24.0512 -24.0199
   -23.8745 -23.8547 -23.8542 -23.8436 -23.8384 -23.8322 -23.8236 -23.8115
   -23.7944 -23.7880 -23.7826 -23.7641 -23.7566 -23.7344 -23.7343 -23.6834
   -20.1147 -20.1070 -20.0935 -20.0854 -20.0549 -20.0513 -20.0475 -20.0433
   -20.0374 -20.0368 -20.0241 -20.0204 -20.0161 -20.0049 -19.9983 -19.9789
   -19.9723 -19.9719 -19.9592 -19.9536 -19.9495 -19.9463 -19.9432 -19.9309
   -19.9288 -19.9252 -19.9246 -19.9229 -19.9186 -19.9154 -19.9147 -19.9125
   -19.9102 -19.9083 -19.9053 -19.9026 -19.9004 -19.8980 -19.8931 -19.8910
   -19.8854 -19.8823 -19.8803 -19.8782 -19.8781 -19.8736 -19.8726 -19.8684
   -19.8683 -19.8657 -19.8627 -19.8623 -19.8599 -19.8564 -19.8559 -19.8526
   -19.8503 -19.8451 -19.8432 -19.8412 -19.8364 -19.8357 -19.8309 -19.8308
   -19.8233 -19.8225 -19.8176 -19.8170 -19.8168 -19.8149 -19.8147 -19.8127
   -19.8122 -19.8049 -19.7976 -19.7966 -19.7963 -19.7945 -19.7941 -19.7903
   -19.7884 -19.7871 -19.7789 -19.7776 -19.7775 -19.7734 -19.7689 -19.7685
   -19.7647 -19.7636 -19.7616 -19.7554 -19.7530 -19.7490 -19.7485 -19.7419
   -19.7377 -19.7338 -19.7336 -19.7314 -19.7306 -19.7219 -19.7158 -19.7151
   -19.7104 -19.7026 -19.7001 -19.6927 -19.6927 -19.6774 -19.6671 -19.6632
   -19.6454 -19.6430 -19.6336 -19.6149 -19.5967 -19.5932 -19.5801 -19.5608
   -19.5076 -19.5071 -19.5025 -19.4946 -19.4675 -19.4638 -19.4609 -19.4515
   -19.3899 -19.3822 -19.3730 -19.3576 -19.2816 -19.2734 -19.2731 -19.2586
   -19.1834 -19.1802 -19.1779 -19.1733 -19.1352 -19.1305 -19.1305 -19.1268
   -19.0863 -19.0803 -19.0777 -19.0636 -19.0060 -18.9999 -18.9889 -18.9790
   -18.9718 -18.9717 -18.9644 -18.9461 -18.9416 -18.9372 -18.9370 -18.9098
   -13.0068 -12.9960 -12.9886 -12.9696 -12.8587 -12.8495 -12.8457 -12.8384
   -12.8213 -12.8098 -12.8048 -12.7863 -12.1865 -12.1808 -12.1669 -12.1493
   -12.0711 -12.0656 -12.0512 -12.0327 -11.8252 -11.8235 -11.8072 -11.7829
   -10.8892 -10.8832 -10.8789 -10.8609 -10.7472 -10.7391 -10.7300 -10.7061
   -10.6613 -10.6524 -10.6459 -10.6342 -10.6010 -10.5995 -10.5780 -10.5749
   -10.5494 -10.5427 -10.5328 -10.5113 -10.3698 -10.3617 -10.3476 -10.3216
   -10.0595 -10.0536 -10.0489 -10.0249  -9.8067  -9.7942  -9.7701  -9.7516
    -9.5949  -9.5914  -9.5700  -9.5381  -9.1384  -9.1347  -9.1286  -9.0977
    -9.0769  -9.0757  -9.0644  -9.0543  -9.0066  -9.0019  -8.9842  -8.9587
    -8.9250  -8.9165  -8.9141  -8.8893  -8.7911  -8.7781  -8.7704  -8.7540
    -8.7157  -8.7138  -8.7061  -8.6999  -8.6811  -8.6748  -8.6742  -8.6621
    -8.3752  -8.3744  -8.3544  -8.3305  -8.3124  -8.2849  -8.2820  -8.2410
    -7.9825  -7.9646  -7.9579  -7.9352  -7.9239  -7.9137  -7.9118  -7.9088
    -7.9056  -7.8995  -7.8920  -7.8829  -7.6968  -7.6849  -7.6821  -7.6748
    -7.6690  -7.6656  -7.6605  -7.6553  -7.6393  -7.6279  -7.6242  -7.5965
    -7.5585  -7.5357  -7.5212  -7.4934  -7.4526  -7.4507  -7.4452  -7.4345
    -7.4233  -7.4092  -7.4042  -7.3985  -7.3780  -7.3660  -7.3535  -7.3314
    -7.2751  -7.2629  -7.2513  -7.2440  -7.2327  -7.2240  -7.2029  -7.1733

     occupation numbers 
     1.0000   1.0000   1.0000   1.0000   1.0000   1.0000   1.0000   1.0000
     1.0000   1.0000   1.0000   1.0000   1.0000   1.0000   1.0000   1.0000
     1.0000   1.0000   1.0000   1.0000   1.0000   1.0000   1.0000   1.0000
     1.0000   1.0000   1.0000   1.0000   1.0000   1.0000   1.0000   1.0000
     1.0000   1.0000   1.0000   1.0000   1.0000   1.0000   1.0000   1.0000
     1.0000   1.0000   1.0000   1.0000   1.0000   1.0000   1.0000   1.0000
     1.0000   1.0000   1.0000   1.0000   1.0000   1.0000   1.0000   1.0000
     1.0000   1.0000   1.0000   1.0000   1.0000   1.0000   1.0000   1.0000
     1.0000   1.0000   1.0000   1.0000   1.0000   1.0000   1.0000   1.0000
     1.0000   1.0000   1.0000   1.0000   1.0000   1.0000   1.0000   1.0000
     1.0000   1.0000   1.0000   1.0000   1.0000   1.0000   1.0000   1.0000
     1.0000   1.0000   1.0000   1.0000   1.0000   1.0000   1.0000   1.0000
     1.0000   1.0000   1.0000   1.0000   1.0000   1.0000   1.0000   1.0000
     1.0000   1.0000   1.0000   1.0000   1.0000   1.0000   1.0000   1.0000
     1.0000   1.0000   1.0000   1.0000   1.0000   1.0000   1.0000   1.0000
     1.0000   1.0000   1.0000   1.0000   1.0000   1.0000   1.0000   1.0000
     1.0000   1.0000   1.0000   1.0000   1.0000   1.0000   1.0000   1.0000
     1.0000   1.0000   1.0000   1.0000   1.0000   1.0000   1.0000   1.0000
     1.0000   1.0000   1.0000   1.0000   1.0000   1.0000   1.0000   1.0000
     1.0000   1.0000   1.0000   1.0000   1.0000   1.0000   1.0000   1.0000
     1.0000   1.0000   1.0000   1.0000   1.0000   1.0000   1.0000   1.0000
     1.0000   1.0000   1.0000   1.0000   1.0000   1.0000   1.0000   1.0000
     1.0000   1.0000   1.0000   1.0000   1.0000   1.0000   1.0000   1.0000
     1.0000   1.0000   1.0000   1.0000   1.0000   1.0000   1.0000   1.0000
     1.0000   1.0000   1.0000   1.0000   1.0000   1.0000   1.0000   1.0000
     1.0000   1.0000   1.0000   1.0000   1.0000   1.0000   1.0000   1.0000
     1.0000   1.0000   1.0000   1.0000   1.0000   1.0000   1.0000   1.0000
     1.0000   1.0000   1.0000   1.0000   1.0000   1.0000   1.0000   1.0000
     1.0000   1.0000   1.0000   1.0000   1.0000   1.0000   1.0000   1.0000
     1.0000   1.0000   1.0000   1.0000   1.0000   1.0000   1.0000   1.0000
     1.0000   1.0000   1.0000   1.0000   1.0000   1.0000   1.0000   1.0000
     1.0000   1.0000   1.0000   1.0000   1.0000   1.0000   1.0000   1.0000
     1.0000   1.0000   1.0000   1.0000   1.0000   1.0000   1.0000   1.0000
     1.0000   1.0000   1.0000   1.0000   1.0000   1.0000   1.0000   1.0000
     1.0000   1.0000   1.0000   1.0000   1.0000   1.0000   1.0000   1.0000
     1.0000   1.0000   1.0000   1.0000   1.0000   1.0000   1.0000   1.0000
     1.0000   1.0000   1.0000   1.0000   1.0000   1.0000   1.0000   1.0000
     1.0000   1.0000   1.0000   1.0000   1.0000   1.0000   1.0000   1.0000
     1.0000   1.0000   1.0000   1.0000   1.0000   1.0000   1.0000   1.0000
     1.0000   1.0000   1.0000   1.0000   1.0000   1.0000   1.0000   1.0000
     1.0000   1.0000   1.0000   1.0000   1.0000   1.0000   1.0000   1.0000
     1.0000   1.0000   1.0000   1.0000   1.0000   1.0000   1.0000   1.0000
     1.0000   1.0000   1.0000   1.0000   1.0000   1.0000   1.0000   1.0000
     1.0000   1.0000   1.0000   1.0000   1.0000   1.0000   1.0000   1.0000

          k =-0.4805-0.4620 0.0000 (360682 PWs)   bands (ev):

   -25.0167 -25.0028 -24.9844 -24.9814 -24.9596 -24.9439 -24.9290 -24.9183
   -24.5715 -24.5655 -24.5384 -24.5278 -24.5061 -24.4836 -24.4826 -24.4782
   -24.1797 -24.1795 -24.1627 -24.1601 -24.1512 -24.1383 -24.1190 -24.1173
   -24.1091 -24.1045 -24.1022 -24.0917 -24.0744 -24.0669 -24.0650 -24.0333
   -23.8740 -23.8631 -23.8548 -23.8495 -23.8404 -23.8320 -23.8274 -23.8063
   -23.8004 -23.7928 -23.7843 -23.7596 -23.7562 -23.7358 -23.7276 -23.6803
   -20.0991 -20.0930 -20.0842 -20.0758 -20.0648 -20.0624 -20.0615 -20.0449
   -20.0429 -20.0402 -20.0267 -20.0248 -20.0149 -20.0034 -20.0033 -19.9799
   -19.9682 -19.9662 -19.9601 -19.9579 -19.9473 -19.9447 -19.9447 -19.9282
   -19.9268 -19.9265 -19.9225 -19.9216 -19.9211 -19.9155 -19.9139 -19.9129
   -19.9083 -19.9069 -19.9060 -19.9042 -19.9006 -19.8984 -19.8968 -19.8896
   -19.8874 -19.8830 -19.8811 -19.8798 -19.8787 -19.8741 -19.8730 -19.8703
   -19.8699 -19.8685 -19.8685 -19.8649 -19.8639 -19.8600 -19.8575 -19.8561
   -19.8540 -19.8521 -19.8440 -19.8432 -19.8365 -19.8361 -19.8338 -19.8302
   -19.8247 -19.8224 -19.8191 -19.8176 -19.8155 -19.8116 -19.8112 -19.8075
   -19.8066 -19.8041 -19.7997 -19.7966 -19.7961 -19.7939 -19.7924 -19.7899
   -19.7871 -19.7814 -19.7799 -19.7799 -19.7758 -19.7717 -19.7700 -19.7686
   -19.7675 -19.7636 -19.7607 -19.7545 -19.7503 -19.7472 -19.7443 -19.7428
   -19.7376 -19.7354 -19.7323 -19.7294 -19.7255 -19.7248 -19.7183 -19.7126
   -19.7095 -19.7020 -19.7002 -19.6948 -19.6938 -19.6779 -19.6676 -19.6629
   -19.6432 -19.6393 -19.6292 -19.6202 -19.6045 -19.5993 -19.5881 -19.5713
   -19.5168 -19.5129 -19.5127 -19.5071 -19.4505 -19.4395 -19.4389 -19.4298
   -19.3184 -19.3181 -19.3142 -19.3071 -19.2977 -19.2958 -19.2891 -19.2830
   -19.2442 -19.2308 -19.2249 -19.2231 -19.1639 -19.1538 -19.1515 -19.1427
   -19.0456 -19.0343 -19.0278 -19.0247 -19.0172 -19.0088 -18.9982 -18.9869
   -18.9775 -18.9707 -18.9647 -18.9627 -18.9420 -18.9372 -18.9276 -18.9120
   -13.1101 -13.1004 -13.0942 -13.0800 -12.6509 -12.6430 -12.6328 -12.6165
   -12.6138 -12.6102 -12.5968 -12.5795 -12.3627 -12.3451 -12.3398 -12.3340
   -12.2380 -12.2292 -12.2163 -12.1991 -11.9827 -11.9712 -11.9645 -11.9595
   -10.8010 -10.7933 -10.7860 -10.7744 -10.7642 -10.7559 -10.7512 -10.7449
   -10.7027 -10.6786 -10.6651 -10.6583 -10.5017 -10.4747 -10.4611 -10.4546
   -10.4063 -10.3911 -10.3842 -10.3831 -10.3713 -10.3654 -10.3509 -10.3460
    -9.9890  -9.9800  -9.9743  -9.9595  -9.7845  -9.7753  -9.7614  -9.7554
    -9.5371  -9.5351  -9.5244  -9.5138  -9.3525  -9.3306  -9.3262  -9.3192
    -9.2428  -9.2406  -9.2299  -9.2242  -8.9373  -8.9289  -8.9175  -8.9151
    -8.9079  -8.8937  -8.8867  -8.8752  -8.8675  -8.8643  -8.8378  -8.8300
    -8.7626  -8.7597  -8.7436  -8.7367  -8.5750  -8.5741  -8.5521  -8.5493
    -8.3078  -8.2919  -8.2902  -8.2787  -8.2653  -8.2551  -8.2390  -8.2205
    -7.9487  -7.9432  -7.9291  -7.9272  -7.8615  -7.8603  -7.8537  -7.8496
    -7.8467  -7.8335  -7.8151  -7.8069  -7.7578  -7.7444  -7.7330  -7.7236
    -7.7103  -7.7017  -7.6738  -7.6697  -7.6598  -7.6567  -7.6421  -7.6397
    -7.5710  -7.5614  -7.5420  -7.5266  -7.5107  -7.5013  -7.4886  -7.4780
    -7.4563  -7.4495  -7.4395  -7.4299  -7.3851  -7.3699  -7.3523  -7.3327
    -7.2660  -7.2457  -7.2425  -7.2372  -7.2326  -7.2269  -7.2026  -7.1716

     occupation numbers 
     1.0000   1.0000   1.0000   1.0000   1.0000   1.0000   1.0000   1.0000
     1.0000   1.0000   1.0000   1.0000   1.0000   1.0000   1.0000   1.0000
     1.0000   1.0000   1.0000   1.0000   1.0000   1.0000   1.0000   1.0000
     1.0000   1.0000   1.0000   1.0000   1.0000   1.0000   1.0000   1.0000
     1.0000   1.0000   1.0000   1.0000   1.0000   1.0000   1.0000   1.0000
     1.0000   1.0000   1.0000   1.0000   1.0000   1.0000   1.0000   1.0000
     1.0000   1.0000   1.0000   1.0000   1.0000   1.0000   1.0000   1.0000
     1.0000   1.0000   1.0000   1.0000   1.0000   1.0000   1.0000   1.0000
     1.0000   1.0000   1.0000   1.0000   1.0000   1.0000   1.0000   1.0000
     1.0000   1.0000   1.0000   1.0000   1.0000   1.0000   1.0000   1.0000
     1.0000   1.0000   1.0000   1.0000   1.0000   1.0000   1.0000   1.0000
     1.0000   1.0000   1.0000   1.0000   1.0000   1.0000   1.0000   1.0000
     1.0000   1.0000   1.0000   1.0000   1.0000   1.0000   1.0000   1.0000
     1.0000   1.0000   1.0000   1.0000   1.0000   1.0000   1.0000   1.0000
     1.0000   1.0000   1.0000   1.0000   1.0000   1.0000   1.0000   1.0000
     1.0000   1.0000   1.0000   1.0000   1.0000   1.0000   1.0000   1.0000
     1.0000   1.0000   1.0000   1.0000   1.0000   1.0000   1.0000   1.0000
     1.0000   1.0000   1.0000   1.0000   1.0000   1.0000   1.0000   1.0000
     1.0000   1.0000   1.0000   1.0000   1.0000   1.0000   1.0000   1.0000
     1.0000   1.0000   1.0000   1.0000   1.0000   1.0000   1.0000   1.0000
     1.0000   1.0000   1.0000   1.0000   1.0000   1.0000   1.0000   1.0000
     1.0000   1.0000   1.0000   1.0000   1.0000   1.0000   1.0000   1.0000
     1.0000   1.0000   1.0000   1.0000   1.0000   1.0000   1.0000   1.0000
     1.0000   1.0000   1.0000   1.0000   1.0000   1.0000   1.0000   1.0000
     1.0000   1.0000   1.0000   1.0000   1.0000   1.0000   1.0000   1.0000
     1.0000   1.0000   1.0000   1.0000   1.0000   1.0000   1.0000   1.0000
     1.0000   1.0000   1.0000   1.0000   1.0000   1.0000   1.0000   1.0000
     1.0000   1.0000   1.0000   1.0000   1.0000   1.0000   1.0000   1.0000
     1.0000   1.0000   1.0000   1.0000   1.0000   1.0000   1.0000   1.0000
     1.0000   1.0000   1.0000   1.0000   1.0000   1.0000   1.0000   1.0000
     1.0000   1.0000   1.0000   1.0000   1.0000   1.0000   1.0000   1.0000
     1.0000   1.0000   1.0000   1.0000   1.0000   1.0000   1.0000   1.0000
     1.0000   1.0000   1.0000   1.0000   1.0000   1.0000   1.0000   1.0000
     1.0000   1.0000   1.0000   1.0000   1.0000   1.0000   1.0000   1.0000
     1.0000   1.0000   1.0000   1.0000   1.0000   1.0000   1.0000   1.0000
     1.0000   1.0000   1.0000   1.0000   1.0000   1.0000   1.0000   1.0000
     1.0000   1.0000   1.0000   1.0000   1.0000   1.0000   1.0000   1.0000
     1.0000   1.0000   1.0000   1.0000   1.0000   1.0000   1.0000   1.0000
     1.0000   1.0000   1.0000   1.0000   1.0000   1.0000   1.0000   1.0000
     1.0000   1.0000   1.0000   1.0000   1.0000   1.0000   1.0000   1.0000
     1.0000   1.0000   1.0000   1.0000   1.0000   1.0000   1.0000   1.0000
     1.0000   1.0000   1.0000   1.0000   1.0000   1.0000   1.0000   1.0000
     1.0000   1.0000   1.0000   1.0000   1.0000   1.0000   1.0000   1.0000
     1.0000   1.0000   1.0000   1.0000   1.0000   1.0000   1.0000   1.0000

     highest occupied level (ev):    -7.0274

!    total energy              =  -10896.05780425 Ry
     estimated scf accuracy    <          9.4E-10 Ry

     convergence has been achieved in  33 iterations

     negative rho (up, down):  3.343E-03 0.000E+00

     Forces acting on atoms (cartesian axes, Ry/au):

     atom    1 type  1   force =    -0.00357191    0.00487850   -0.00025036
     atom    2 type  1   force =    -0.01274419   -0.00441202    0.00154998
     atom    3 type  2   force =    -0.00148411   -0.00099711   -0.00090929
     atom    4 type  2   force =     0.00125840    0.00163458   -0.00022328
     atom    5 type  2   force =     0.01345586    0.00362786   -0.00029204
     atom    6 type  1   force =    -0.00015009    0.01057958   -0.00193237
     atom    7 type  1   force =     0.00488756    0.01285902   -0.00298959
     atom    8 type  2   force =    -0.00403476   -0.00328349   -0.00046685
     atom    9 type  2   force =     0.00112333   -0.01923919    0.00416093
     atom   10 type  2   force =     0.00040176    0.00051987    0.00327895
     atom   11 type  1   force =    -0.00452489    0.00286382   -0.00052152
     atom   12 type  1   force =    -0.00230487    0.00173908    0.00351990
     atom   13 type  2   force =    -0.01023023   -0.00008526    0.00011993
     atom   14 type  2   force =     0.00203831   -0.00798991    0.00136993
     atom   15 type  2   force =     0.00942800    0.00087425   -0.00328639
     atom   16 type  1   force =    -0.00301660    0.00729400    0.00359510
     atom   17 type  1   force =    -0.00884224   -0.00002489    0.00337037
     atom   18 type  2   force =     0.00611484    0.00009524   -0.00363038
     atom   19 type  2   force =     0.00353010   -0.01244730    0.00175596
     atom   20 type  2   force =     0.00199415    0.00209202   -0.00447271
     atom   21 type  1   force =    -0.00600769    0.00474676   -0.00298440
     atom   22 type  1   force =    -0.00457563   -0.00814219   -0.00051600
     atom   23 type  2   force =     0.00110430   -0.00220827   -0.00288617
     atom   24 type  2   force =    -0.00160444    0.02176622   -0.00374176
     atom   25 type  2   force =    -0.00061604    0.00267144    0.00438802
     atom   26 type  1   force =    -0.00619863   -0.00231859    0.00191482
     atom   27 type  1   force =    -0.00057413    0.01059586   -0.00010881
     atom   28 type  2   force =    -0.00201921   -0.00040729   -0.00376908
     atom   29 type  2   force =     0.00203216   -0.02576604    0.00494567
     atom   30 type  2   force =     0.00154757    0.00211728   -0.00429393
     atom   31 type  1   force =     0.00121463   -0.01216214    0.00414908
     atom   32 type  1   force =    -0.00787348   -0.00669137    0.00192604
     atom   33 type  2   force =     0.00550306   -0.00045167    0.00294550
     atom   34 type  2   force =     0.00267261    0.00112598   -0.00060081
     atom   35 type  2   force =     0.01308077   -0.00271184   -0.00246976
     atom   36 type  1   force =    -0.00295696    0.01079898   -0.00030997
     atom   37 type  1   force =     0.00875409    0.00142317    0.00268710
     atom   38 type  2   force =    -0.00473235    0.00190336   -0.00354323
     atom   39 type  2   force =    -0.00201251    0.00826535   -0.00340651
     atom   40 type  2   force =    -0.00501934   -0.00603191   -0.00160083
     atom   41 type  1   force =    -0.00064235   -0.00293874   -0.00404913
     atom   42 type  1   force =     0.00520743   -0.00857938   -0.00553966
     atom   43 type  2   force =     0.00230776    0.00044356    0.00313287
     atom   44 type  2   force =    -0.00103711    0.01063283   -0.00107227
     atom   45 type  2   force =    -0.00584475    0.00031611    0.00720489
     atom   46 type  1   force =     0.00203383   -0.00638719    0.00220726
     atom   47 type  1   force =    -0.00204422   -0.01147238    0.00530743
     atom   48 type  2   force =     0.00987664   -0.00568327   -0.00099812
     atom   49 type  2   force =    -0.00207415    0.02345385   -0.00495912
     atom   50 type  2   force =    -0.00280430    0.00197828   -0.00009033
     atom   51 type  1   force =     0.00420646   -0.00359538   -0.00002563
     atom   52 type  1   force =     0.00063153    0.00468458   -0.00368893
     atom   53 type  2   force =    -0.00364799    0.00004432   -0.00028142
     atom   54 type  2   force =    -0.00152255    0.00593970   -0.00130743
     atom   55 type  2   force =    -0.00631253   -0.00444672    0.00363915
     atom   56 type  1   force =     0.00374261   -0.01499548    0.00559705
     atom   57 type  1   force =    -0.00143862   -0.00202452    0.00233857
     atom   58 type  2   force =     0.00340273    0.00281498   -0.00068286
     atom   59 type  2   force =    -0.00097600    0.01199296   -0.00360562
     atom   60 type  2   force =     0.00069692   -0.00115971   -0.00227318
     atom   61 type  1   force =     0.00732393   -0.01091855   -0.00138059
     atom   62 type  1   force =    -0.00071483   -0.00950326   -0.00333242
     atom   63 type  2   force =     0.00214009   -0.00259901    0.00388012
     atom   64 type  2   force =     0.00141891   -0.00253982    0.00198579
     atom   65 type  2   force =     0.00345965    0.00398652    0.00577065
     atom   66 type  1   force =    -0.00001246    0.00688933   -0.00321882
     atom   67 type  1   force =     0.00899220   -0.00592302   -0.00239340
     atom   68 type  2   force =     0.00015248    0.00076476    0.00034110
     atom   69 type  2   force =    -0.00199401    0.01774229   -0.00327430
     atom   70 type  2   force =    -0.01103225   -0.00200014    0.00570223
     atom   71 type  1   force =     0.00669986    0.00561063   -0.00046034
     atom   72 type  1   force =     0.00722796    0.00395816   -0.00196303
     atom   73 type  2   force =    -0.00201178    0.00004291   -0.00187112
     atom   74 type  2   force =    -0.00386456    0.00817691   -0.00162269
     atom   75 type  2   force =    -0.00919010   -0.00007429    0.00133478
     atom   76 type  1   force =    -0.00213857   -0.00989233    0.00196992
     atom   77 type  1   force =     0.00001122   -0.00086435    0.00098507
     atom   78 type  2   force =    -0.00371583    0.00589372    0.00217801
     atom   79 type  2   force =     0.00022407   -0.01051374    0.00150294
     atom   80 type  2   force =     0.00821548    0.00164314   -0.00345866
     The non-local contrib.  to forces
     atom    1 type  1   force =     0.13242208   -0.07878862    0.05157514
     atom    2 type  1   force =     0.06152211    0.09674610   -0.04910625
     atom    3 type  2   force =    -0.08691685    0.30117937   -1.03412269
     atom    4 type  2   force =     0.83178226    0.07860162   -0.01063627
     atom    5 type  2   force =    -0.05227061   -0.31912422    1.04041644
     atom    6 type  1   force =     0.11406844   -0.05693410    0.05256202
     atom    7 type  1   force =     0.06967592    0.09282380   -0.02933934
     atom    8 type  2   force =    -0.09017759    0.30893166   -1.03091530
     atom    9 type  2   force =     0.81237754    0.09965883    0.04951988
     atom   10 type  2   force =    -0.03392456   -0.31241924    1.05430793
     atom   11 type  1   force =     0.12728411   -0.05971689    0.03160498
     atom   12 type  1   force =     0.06284123    0.07271706   -0.05913886
     atom   13 type  2   force =    -0.09060093    0.30497424   -1.02122883
     atom   14 type  2   force =     0.83941520    0.07091075   -0.00045589
     atom   15 type  2   force =    -0.04634015   -0.33114560    1.02451365
     atom   16 type  1   force =     0.11362360   -0.05551287    0.05120067
     atom   17 type  1   force =     0.08119483    0.11515219   -0.07359914
     atom   18 type  2   force =    -0.08773232    0.32310378   -1.04888318
     atom   19 type  2   force =     0.82494082    0.08993848   -0.00333964
     atom   20 type  2   force =    -0.04244278   -0.32186168    1.02929344
     atom   21 type  1   force =     0.11930380   -0.08486738    0.05272231
     atom   22 type  1   force =     0.05336865    0.08372447   -0.04753517
     atom   23 type  2   force =    -0.08564347    0.28696520   -1.05075955
     atom   24 type  2   force =     0.82664214    0.06315123    0.01553094
     atom   25 type  2   force =    -0.04899204   -0.31851502    1.05727186
     atom   26 type  1   force =     0.10224822   -0.06521171    0.03688109
     atom   27 type  1   force =     0.06633948    0.10635553   -0.06510344
     atom   28 type  2   force =    -0.09672309    0.30224184   -1.04759770
     atom   29 type  2   force =     0.81238144    0.09532016    0.00054031
     atom   30 type  2   force =    -0.02522638   -0.31745752    1.01554017
     atom   31 type  1   force =     0.12938947   -0.07176277    0.07261587
     atom   32 type  1   force =     0.06474063    0.06459343   -0.06622898
     atom   33 type  2   force =    -0.10133680    0.29319427   -1.02780815
     atom   34 type  2   force =     0.83385337    0.06057447   -0.02165209
     atom   35 type  2   force =    -0.05233803   -0.32649106    1.02589527
     atom   36 type  1   force =     0.10074694   -0.02942564    0.05158691
     atom   37 type  1   force =     0.05750717    0.08584827   -0.07750218
     atom   38 type  2   force =    -0.09717213    0.31996433   -1.04711052
     atom   39 type  2   force =     0.79698333    0.07467227   -0.01999779
     atom   40 type  2   force =    -0.04521546   -0.32430534    1.02562391
     atom   41 type  1   force =     0.08454848   -0.06990850    0.06728020
     atom   42 type  1   force =     0.05900771    0.08618771   -0.04559382
     atom   43 type  2   force =    -0.10065009    0.28864699   -1.03683656
     atom   44 type  2   force =     0.80561743    0.06608833    0.01371815
     atom   45 type  2   force =    -0.04576845   -0.30773088    1.06444501
     atom   46 type  1   force =     0.11853602   -0.08726839    0.06041689
     atom   47 type  1   force =     0.07344954    0.08345010   -0.05378038
     atom   48 type  2   force =    -0.09189411    0.30648424   -1.04121090
     atom   49 type  2   force =     0.81278133    0.05097182    0.00444354
     atom   50 type  2   force =    -0.05478450   -0.32558384    1.03418347
     atom   51 type  1   force =     0.11145226   -0.06937771    0.06274199
     atom   52 type  1   force =     0.06239845    0.07492017   -0.07670490
     atom   53 type  2   force =    -0.08618761    0.29418586   -1.03983320
     atom   54 type  2   force =     0.81117357    0.07183668   -0.01442090
     atom   55 type  2   force =    -0.03017638   -0.33696278    1.04986966
     atom   56 type  1   force =     0.10453072   -0.06709906    0.06466013
     atom   57 type  1   force =     0.05636889    0.05633226   -0.06320749
     atom   58 type  2   force =    -0.10312917    0.30660969   -1.03571254
     atom   59 type  2   force =     0.82106897    0.06169455    0.00733649
     atom   60 type  2   force =    -0.05279671   -0.32151224    1.02709598
     atom   61 type  1   force =     0.09676565   -0.07453869    0.06391663
     atom   62 type  1   force =     0.04983804    0.09634237   -0.02707907
     atom   63 type  2   force =    -0.10310523    0.29543736   -1.02814701
     atom   64 type  2   force =     0.79936410    0.07780355    0.03597568
     atom   65 type  2   force =    -0.06004729   -0.30974719    1.05028911
     atom   66 type  1   force =     0.09419220   -0.07256150    0.07492399
     atom   67 type  1   force =     0.06828050    0.08351265   -0.05608986
     atom   68 type  2   force =    -0.08846420    0.28709780   -1.03265377
     atom   69 type  2   force =     0.80537496    0.07431394    0.04064330
     atom   70 type  2   force =    -0.03692872   -0.31443727    1.05423873
     atom   71 type  1   force =     0.09664123   -0.06602547    0.07035231
     atom   72 type  1   force =     0.05920653    0.08058145   -0.05571774
     atom   73 type  2   force =    -0.08517065    0.31062199   -1.04752941
     atom   74 type  2   force =     0.79397251    0.07151909    0.01654779
     atom   75 type  2   force =    -0.04647497   -0.30958087    1.02999466
     atom   76 type  1   force =     0.10879573   -0.05529096    0.06232589
     atom   77 type  1   force =     0.04605445    0.07529345   -0.08403176
     atom   78 type  2   force =    -0.09923926    0.30115193   -1.02467070
     atom   79 type  2   force =     0.79723591    0.07338915   -0.00974784
     atom   80 type  2   force =    -0.03385439   -0.31297936    1.01548048
     The ionic contribution  to forces
     atom    1 type  1   force =     1.42005335   11.29058840  -89.12659178
     atom    2 type  1   force =     1.40075196  -10.95527699 -129.03158975
     atom    3 type  2   force =     0.10306523   -0.59026728  -15.24493335
     atom    4 type  2   force =    -3.57498965   -0.15106202  -50.24363027
     atom    5 type  2   force =     0.44112958    0.73009269  -85.56043388
     atom    6 type  1   force =     1.31118722   11.40067313  129.28641147
     atom    7 type  1   force =     1.73982877  -10.74831651   89.35602189
     atom    8 type  2   force =     0.10307381   -0.84961257   85.81342795
     atom    9 type  2   force =    -3.44123925   -0.59200562   49.34155407
     atom   10 type  2   force =     0.08915181    0.62038116   15.08627993
     atom   11 type  1   force =     1.15918154   11.47008895  -89.40530195
     atom   12 type  1   force =     1.65994188  -10.90968454 -129.62300955
     atom   13 type  2   force =    -0.04628585   -0.56347651  -15.30450334
     atom   14 type  2   force =    -3.50384170   -0.34708508  -50.53034100
     atom   15 type  2   force =     0.29293620    0.76776079  -85.74775501
     atom   16 type  1   force =     1.29000359   11.35977605  129.56224283
     atom   17 type  1   force =     1.62783722  -10.96903716   88.54619664
     atom   18 type  2   force =     0.32408153   -0.85029533   85.94431376
     atom   19 type  2   force =    -3.41454755   -0.45695673   50.04844984
     atom   20 type  2   force =     0.16386531    0.57906413   15.46420176
     atom   21 type  1   force =     1.22245779   11.30294875  -89.13051942
     atom   22 type  1   force =     1.67369794  -10.96748038 -128.88013974
     atom   23 type  2   force =     0.21377105   -0.57225378  -15.12032033
     atom   24 type  2   force =    -3.48954288    0.33948708  -50.53915896
     atom   25 type  2   force =     0.09629484    0.73912370  -85.88549962
     atom   26 type  1   force =     1.04099760   11.04786744  129.32834425
     atom   27 type  1   force =     1.80057437  -10.77970822   89.13936454
     atom   28 type  2   force =     0.17731021   -0.75722482   85.90193164
     atom   29 type  2   force =    -3.38394312   -0.75470742   50.26273735
     atom   30 type  2   force =     0.09987740    0.47254073   15.58871900
     atom   31 type  1   force =     1.55498436   11.03851973  -88.85343392
     atom   32 type  1   force =     1.79934587  -11.28417870 -129.47648268
     atom   33 type  2   force =     0.37823497   -0.56830596  -15.30410186
     atom   34 type  2   force =    -3.42754637   -0.12287360  -50.04256778
     atom   35 type  2   force =     0.44347619    0.65702237  -85.50470084
     atom   36 type  1   force =     1.20759319   11.51202608  129.47530187
     atom   37 type  1   force =     1.99575608  -10.98591911   88.59979710
     atom   38 type  2   force =     0.17093972   -0.84662566   85.91032820
     atom   39 type  2   force =    -3.43178411    0.06508005   50.29338013
     atom   40 type  2   force =     0.03962964    0.53973402   15.33041991
     atom   41 type  1   force =     1.10750368   11.09189868  -89.17978284
     atom   42 type  1   force =     1.95655459  -11.12649266 -129.07190108
     atom   43 type  2   force =     0.31431981   -0.54996424  -15.34009970
     atom   44 type  2   force =    -3.37878209    0.08329585  -50.40851682
     atom   45 type  2   force =    -0.00547100    0.64545042  -86.02677733
     atom   46 type  1   force =     1.58315076   10.86611139  129.61354604
     atom   47 type  1   force =     1.89255345  -11.26248253   88.95239746
     atom   48 type  2   force =     0.45759246   -0.92426825   85.84146171
     atom   49 type  2   force =    -3.44214076    0.45160438   50.18522726
     atom   50 type  2   force =     0.17740899    0.54603286   15.43695274
     atom   51 type  1   force =     1.44604228   11.23828610  -88.81952208
     atom   52 type  1   force =     1.75049140  -10.87977344 -129.41140988
     atom   53 type  2   force =     0.12675450   -0.64294815  -15.24252677
     atom   54 type  2   force =    -3.51269102   -0.02370001  -50.20656441
     atom   55 type  2   force =    -0.08716902    0.82624517  -85.93962839
     atom   56 type  1   force =     1.37684654   10.95945214  129.55297752
     atom   57 type  1   force =     1.75187112  -11.23869002   89.02259207
     atom   58 type  2   force =     0.35187672   -0.79635530   85.87919940
     atom   59 type  2   force =    -3.42492042    0.19497778   49.96130200
     atom   60 type  2   force =     0.15995416    0.51882018   15.40388588
     atom   61 type  1   force =     1.47342327   10.83855830  -89.14065096
     atom   62 type  1   force =     1.73029299  -11.20100384 -128.99488675
     atom   63 type  2   force =     0.29144773   -0.61252996  -15.35938669
     atom   64 type  2   force =    -3.33676121   -0.26230930  -50.82907050
     atom   65 type  2   force =     0.29028388    0.66983240  -85.76405948
     atom   66 type  1   force =     1.15106223   11.12095939  129.68477379
     atom   67 type  1   force =     2.00824792  -11.06174225   89.45686468
     atom   68 type  2   force =     0.23909931   -0.71059601   85.61548108
     atom   69 type  2   force =    -3.45174628    0.27351739   49.62764730
     atom   70 type  2   force =    -0.18256681    0.58159964   15.19906203
     atom   71 type  1   force =     1.37231741   11.42673733  -88.68418779
     atom   72 type  1   force =     1.85677183  -10.71742418 -129.52677745
     atom   73 type  2   force =     0.20109028   -0.67232436  -15.00468524
     atom   74 type  2   force =    -3.44745320   -0.01325174  -50.79301927
     atom   75 type  2   force =    -0.05800281    0.71214506  -85.47358492
     atom   76 type  1   force =     1.25620224   11.09511426  129.54986780
     atom   77 type  1   force =     1.67312535  -11.21526547   88.93657777
     atom   78 type  2   force =     0.18442893   -0.66942315   85.66243786
     atom   79 type  2   force =    -3.39586905   -0.36467707   50.44136181
     atom   80 type  2   force =     0.21555011    0.49416199   15.46901300
     The local contribution  to forces
     atom    1 type  1   force =    -1.55606131  -11.20953330   89.07530128
     atom    2 type  1   force =    -1.47632174   10.85691674  129.08174436
     atom    3 type  2   force =    -0.01848940    0.29091854   16.26987971
     atom    4 type  2   force =     2.75211791    0.07484523   50.25394072
     atom    5 type  2   force =    -0.37578543   -0.41030329   84.52804066
     atom    6 type  1   force =    -1.42546090  -11.33511435 -129.34046722
     atom    7 type  1   force =    -1.80489243   10.67185900  -89.33020188
     atom    8 type  2   force =    -0.01782885    0.54026834  -84.79122526
     atom    9 type  2   force =     2.63746484    0.47385595  -49.38643849
     atom   10 type  2   force =    -0.05515963   -0.31036481  -16.12884139
     atom   11 type  1   force =    -1.29115387  -11.41000415   89.37336498
     atom   12 type  1   force =    -1.72589477   10.84148933  129.68517977
     atom   13 type  2   force =     0.12569991    0.26128499   16.31770799
     atom   14 type  2   force =     2.67419529    0.26878138   50.53216717
     atom   15 type  2   force =    -0.23753742   -0.43882998   84.72810250
     atom   16 type  1   force =    -1.40683875  -11.29909991 -129.60921021
     atom   17 type  1   force =    -1.71873005   10.85706197  -88.46991328
     atom   18 type  2   force =    -0.23103055    0.53030853  -84.90748735
     atom   19 type  2   force =     2.60076219    0.35528742  -50.04337526
     atom   20 type  2   force =    -0.11982263   -0.25810339  -16.48980487
     atom   21 type  1   force =    -1.34808036  -11.21601570   89.07523498
     atom   22 type  1   force =    -1.73258452   10.87793929  128.92652178
     atom   23 type  2   force =    -0.12784430    0.28576715   16.15976168
     atom   24 type  2   force =     2.66887705   -0.38007173   50.51998893
     atom   25 type  2   force =    -0.04839253   -0.42090664   84.84112419
     atom   26 type  1   force =    -1.15002299  -10.98773415 -129.36289237
     atom   27 type  1   force =    -1.86805391   10.68753772  -89.07517939
     atom   28 type  2   force =    -0.08354251    0.45741421  -84.86652558
     atom   29 type  2   force =     2.58108330    0.63426452  -50.25828489
     atom   30 type  2   force =    -0.07335118   -0.15593369  -16.60049901
     atom   31 type  1   force =    -1.68308945  -10.98229581   88.78598986
     atom   32 type  1   force =    -1.87296138   11.21516334  129.54398196
     atom   33 type  2   force =    -0.27231105    0.27741017   16.32669003
     atom   34 type  2   force =     2.60406423    0.06402176   50.06340862
     atom   35 type  2   force =    -0.37844825   -0.33632045   84.48450137
     atom   36 type  1   force =    -1.31162225  -11.47346041 -129.52671591
     atom   37 type  1   force =    -2.04472734   10.90433315  -88.52037588
     atom   38 type  2   force =    -0.07946249    0.53156938  -84.87517248
     atom   39 type  2   force =     2.64010018   -0.13072028  -50.27700979
     atom   40 type  2   force =     0.00008797   -0.22454122  -16.34947348
     atom   41 type  1   force =    -1.19322906  -11.02773045   89.10900388
     atom   42 type  1   force =    -2.01072138   11.03406632  129.11108746
     atom   43 type  2   force =    -0.21229604    0.26447631   16.37182664
     atom   44 type  2   force =     2.57953558   -0.13802622   50.39383561
     atom   45 type  2   force =     0.04490427   -0.34030084   84.97813985
     atom   46 type  1   force =    -1.69960547  -10.78846677 -129.67099088
     atom   47 type  1   force =    -1.96857550   11.16968467  -88.89360206
     atom   48 type  2   force =    -0.35662030    0.61492698  -84.80957810
     atom   49 type  2   force =     2.63474183   -0.47841707  -50.19463840
     atom   50 type  2   force =    -0.12597038   -0.22150854  -16.46296983
     atom   51 type  1   force =    -1.55321672  -11.17536702   88.75740013
     atom   52 type  1   force =    -1.81284472   10.81241892  129.48325090
     atom   53 type  2   force =    -0.04507844    0.35156159   16.27377182
     atom   54 type  2   force =     2.70743281   -0.04147021   50.21952827
     atom   55 type  2   force =     0.11067216   -0.49690998   84.90183647
     atom   56 type  1   force =    -1.47771282  -10.91079246 -129.61104138
     atom   57 type  1   force =    -1.81040488   11.18266940  -88.95765562
     atom   58 type  2   force =    -0.24629575    0.49545063  -84.85245380
     atom   59 type  2   force =     2.61041308   -0.24397455  -49.97222519
     atom   60 type  2   force =    -0.10695715   -0.20148722  -16.42507820
     atom   61 type  1   force =    -1.56288640  -10.77815162   89.07598106
     atom   62 type  1   force =    -1.78163905   11.09761580  129.01815237
     atom   63 type  2   force =    -0.18716381    0.31725093   16.38325539
     atom   64 type  2   force =     2.54620002    0.18267708   50.79542072
     atom   65 type  2   force =    -0.22730256   -0.35898281   84.72801261
     atom   66 type  1   force =    -1.24555744  -11.04384196 -129.76222596
     atom   67 type  1   force =    -2.06756798   10.97473311  -89.40406515
     atom   68 type  2   force =    -0.15133315    0.42697674  -84.59073402
     atom   69 type  2   force =     2.65176907   -0.32923355  -49.67123784
     atom   70 type  2   force =     0.20800526   -0.27212885  -16.23910589
     atom   71 type  1   force =    -1.46211947  -11.35741501   88.61411229
     atom   72 type  1   force =    -1.90891685   10.64363780  129.57977501
     atom   73 type  2   force =    -0.11877013    0.36464895   16.04195176
     atom   74 type  2   force =     2.65687187   -0.04934287   50.77497237
     atom   75 type  2   force =     0.09476586   -0.40555413   84.45316672
     atom   76 type  1   force =    -1.36748793  -11.05277104 -129.60950639
     atom   77 type  1   force =    -1.71997118   11.14178138  -88.85252586
     atom   78 type  2   force =    -0.08987923    0.37703722  -84.64374174
     atom   79 type  2   force =     2.60620028    0.28137423  -50.43019287
     atom   80 type  2   force =    -0.17375318   -0.18247381  -16.47988975
     The core correction contribution to forces
     atom    1 type  1   force =     0.00001555    0.00261196   -0.00053332
     atom    2 type  1   force =     0.00130246   -0.00279879    0.00050653
     atom    3 type  2   force =     0.00085886   -0.00282768    0.00827015
     atom    4 type  2   force =    -0.00765321   -0.00074966    0.00010332
     atom    5 type  2   force =     0.00038312    0.00296494   -0.00831538
     atom    6 type  1   force =     0.00005647    0.00196145   -0.00043890
     atom    7 type  1   force =     0.00027411   -0.00350479    0.00052726
     atom    8 type  2   force =     0.00089789   -0.00287076    0.00824656
     atom    9 type  2   force =    -0.00748049   -0.00075049   -0.00047397
     atom   10 type  2   force =     0.00033470    0.00292390   -0.00846740
     atom   11 type  1   force =     0.00016771    0.00249791   -0.00019067
     atom   12 type  1   force =     0.00081112   -0.00278934    0.00048445
     atom   13 type  2   force =     0.00095697   -0.00286710    0.00814780
     atom   14 type  2   force =    -0.00773142   -0.00060371    0.00000122
     atom   15 type  2   force =     0.00037218    0.00308989   -0.00815018
     atom   16 type  1   force =     0.00018996    0.00213837   -0.00063191
     atom   17 type  1   force =     0.00085214   -0.00320328    0.00068777
     atom   18 type  2   force =     0.00079607   -0.00302160    0.00842752
     atom   19 type  2   force =    -0.00762615   -0.00071930    0.00002217
     atom   20 type  2   force =     0.00039378    0.00299370   -0.00816370
     atom   21 type  1   force =     0.00030935    0.00268226   -0.00042210
     atom   22 type  1   force =     0.00094096   -0.00232587    0.00063183
     atom   23 type  2   force =     0.00081997   -0.00268548    0.00843412
     atom   24 type  2   force =    -0.00758217   -0.00079817   -0.00010178
     atom   25 type  2   force =     0.00047403    0.00297198   -0.00850796
     atom   26 type  1   force =     0.00057606    0.00276306   -0.00041795
     atom   27 type  1   force =     0.00055879   -0.00358246    0.00081116
     atom   28 type  2   force =     0.00093598   -0.00283835    0.00842239
     atom   29 type  2   force =    -0.00749020   -0.00064777   -0.00004643
     atom   30 type  2   force =     0.00024739    0.00296883   -0.00805447
     atom   31 type  1   force =    -0.00006333    0.00337445   -0.00101860
     atom   32 type  1   force =     0.00100020   -0.00227045    0.00065689
     atom   33 type  2   force =     0.00091687   -0.00275088    0.00816720
     atom   34 type  2   force =    -0.00769895   -0.00059756    0.00021034
     atom   35 type  2   force =     0.00039196    0.00307744   -0.00816643
     atom   36 type  1   force =     0.00032225    0.00166244   -0.00048275
     atom   37 type  1   force =     0.00022208   -0.00283980    0.00077429
     atom   38 type  2   force =     0.00096198   -0.00300309    0.00841279
     atom   39 type  2   force =    -0.00731288   -0.00076772    0.00022166
     atom   40 type  2   force =     0.00047868    0.00308129   -0.00817181
     atom   41 type  1   force =     0.00053345    0.00280160   -0.00054768
     atom   42 type  1   force =     0.00036619   -0.00234520    0.00086426
     atom   43 type  2   force =     0.00093401   -0.00271469    0.00824483
     atom   44 type  2   force =    -0.00740964   -0.00072533   -0.00010776
     atom   45 type  2   force =     0.00048777    0.00289920   -0.00860181
     atom   46 type  1   force =    -0.00004576    0.00323419   -0.00076250
     atom   47 type  1   force =     0.00053320   -0.00212725    0.00029704
     atom   48 type  2   force =     0.00079843   -0.00282693    0.00833023
     atom   49 type  2   force =    -0.00745775   -0.00070171    0.00000839
     atom   50 type  2   force =     0.00054035    0.00303866   -0.00825814
     atom   51 type  1   force =    -0.00007157    0.00286213   -0.00064330
     atom   52 type  1   force =     0.00058532   -0.00287819    0.00117313
     atom   53 type  2   force =     0.00086316   -0.00275466    0.00830911
     atom   54 type  2   force =    -0.00743958   -0.00072788    0.00015112
     atom   55 type  2   force =     0.00035816    0.00318042   -0.00843810
     atom   56 type  1   force =     0.00008243    0.00343476   -0.00099517
     atom   57 type  1   force =     0.00072876   -0.00233827    0.00061111
     atom   58 type  2   force =     0.00095129   -0.00288992    0.00828545
     atom   59 type  2   force =    -0.00753785   -0.00070243   -0.00001891
     atom   60 type  2   force =     0.00049654    0.00301922   -0.00817686
     atom   61 type  1   force =     0.00002524    0.00321108   -0.00062349
     atom   62 type  1   force =     0.00079127   -0.00245811    0.00048334
     atom   63 type  2   force =     0.00095863   -0.00275581    0.00816222
     atom   64 type  2   force =    -0.00738664   -0.00071124   -0.00033849
     atom   65 type  2   force =     0.00052678    0.00288617   -0.00847265
     atom   66 type  1   force =     0.00028575    0.00234004   -0.00069564
     atom   67 type  1   force =     0.00003960   -0.00243177    0.00088826
     atom   68 type  2   force =     0.00085058   -0.00271260    0.00824963
     atom   69 type  2   force =    -0.00739292   -0.00085368   -0.00032727
     atom   70 type  2   force =     0.00045523    0.00296608   -0.00849255
     atom   71 type  1   force =    -0.00013950    0.00232287   -0.00073816
     atom   72 type  1   force =     0.00016809   -0.00283573    0.00075904
     atom   73 type  2   force =     0.00083513   -0.00290348    0.00839391
     atom   74 type  2   force =    -0.00725794   -0.00074552   -0.00012363
     atom   75 type  2   force =     0.00051838    0.00291574   -0.00824542
     atom   76 type  1   force =     0.00035779    0.00305487   -0.00071623
     atom   77 type  1   force =     0.00079782   -0.00267635    0.00096898
     atom   78 type  2   force =     0.00097292   -0.00287305    0.00815496
     atom   79 type  2   force =    -0.00734374   -0.00060173    0.00008255
     atom   80 type  2   force =     0.00027249    0.00293468   -0.00806313
     The Hubbard contrib.    to forces
     atom    1 type  1   force =     0.00000000    0.00000000    0.00000000
     atom    2 type  1   force =     0.00000000    0.00000000    0.00000000
     atom    3 type  2   force =     0.00000000    0.00000000    0.00000000
     atom    4 type  2   force =     0.00000000    0.00000000    0.00000000
     atom    5 type  2   force =     0.00000000    0.00000000    0.00000000
     atom    6 type  1   force =     0.00000000    0.00000000    0.00000000
     atom    7 type  1   force =     0.00000000    0.00000000    0.00000000
     atom    8 type  2   force =     0.00000000    0.00000000    0.00000000
     atom    9 type  2   force =     0.00000000    0.00000000    0.00000000
     atom   10 type  2   force =     0.00000000    0.00000000    0.00000000
     atom   11 type  1   force =     0.00000000    0.00000000    0.00000000
     atom   12 type  1   force =     0.00000000    0.00000000    0.00000000
     atom   13 type  2   force =     0.00000000    0.00000000    0.00000000
     atom   14 type  2   force =     0.00000000    0.00000000    0.00000000
     atom   15 type  2   force =     0.00000000    0.00000000    0.00000000
     atom   16 type  1   force =     0.00000000    0.00000000    0.00000000
     atom   17 type  1   force =     0.00000000    0.00000000    0.00000000
     atom   18 type  2   force =     0.00000000    0.00000000    0.00000000
     atom   19 type  2   force =     0.00000000    0.00000000    0.00000000
     atom   20 type  2   force =     0.00000000    0.00000000    0.00000000
     atom   21 type  1   force =     0.00000000    0.00000000    0.00000000
     atom   22 type  1   force =     0.00000000    0.00000000    0.00000000
     atom   23 type  2   force =     0.00000000    0.00000000    0.00000000
     atom   24 type  2   force =     0.00000000    0.00000000    0.00000000
     atom   25 type  2   force =     0.00000000    0.00000000    0.00000000
     atom   26 type  1   force =     0.00000000    0.00000000    0.00000000
     atom   27 type  1   force =     0.00000000    0.00000000    0.00000000
     atom   28 type  2   force =     0.00000000    0.00000000    0.00000000
     atom   29 type  2   force =     0.00000000    0.00000000    0.00000000
     atom   30 type  2   force =     0.00000000    0.00000000    0.00000000
     atom   31 type  1   force =     0.00000000    0.00000000    0.00000000
     atom   32 type  1   force =     0.00000000    0.00000000    0.00000000
     atom   33 type  2   force =     0.00000000    0.00000000    0.00000000
     atom   34 type  2   force =     0.00000000    0.00000000    0.00000000
     atom   35 type  2   force =     0.00000000    0.00000000    0.00000000
     atom   36 type  1   force =     0.00000000    0.00000000    0.00000000
     atom   37 type  1   force =     0.00000000    0.00000000    0.00000000
     atom   38 type  2   force =     0.00000000    0.00000000    0.00000000
     atom   39 type  2   force =     0.00000000    0.00000000    0.00000000
     atom   40 type  2   force =     0.00000000    0.00000000    0.00000000
     atom   41 type  1   force =     0.00000000    0.00000000    0.00000000
     atom   42 type  1   force =     0.00000000    0.00000000    0.00000000
     atom   43 type  2   force =     0.00000000    0.00000000    0.00000000
     atom   44 type  2   force =     0.00000000    0.00000000    0.00000000
     atom   45 type  2   force =     0.00000000    0.00000000    0.00000000
     atom   46 type  1   force =     0.00000000    0.00000000    0.00000000
     atom   47 type  1   force =     0.00000000    0.00000000    0.00000000
     atom   48 type  2   force =     0.00000000    0.00000000    0.00000000
     atom   49 type  2   force =     0.00000000    0.00000000    0.00000000
     atom   50 type  2   force =     0.00000000    0.00000000    0.00000000
     atom   51 type  1   force =     0.00000000    0.00000000    0.00000000
     atom   52 type  1   force =     0.00000000    0.00000000    0.00000000
     atom   53 type  2   force =     0.00000000    0.00000000    0.00000000
     atom   54 type  2   force =     0.00000000    0.00000000    0.00000000
     atom   55 type  2   force =     0.00000000    0.00000000    0.00000000
     atom   56 type  1   force =     0.00000000    0.00000000    0.00000000
     atom   57 type  1   force =     0.00000000    0.00000000    0.00000000
     atom   58 type  2   force =     0.00000000    0.00000000    0.00000000
     atom   59 type  2   force =     0.00000000    0.00000000    0.00000000
     atom   60 type  2   force =     0.00000000    0.00000000    0.00000000
     atom   61 type  1   force =     0.00000000    0.00000000    0.00000000
     atom   62 type  1   force =     0.00000000    0.00000000    0.00000000
     atom   63 type  2   force =     0.00000000    0.00000000    0.00000000
     atom   64 type  2   force =     0.00000000    0.00000000    0.00000000
     atom   65 type  2   force =     0.00000000    0.00000000    0.00000000
     atom   66 type  1   force =     0.00000000    0.00000000    0.00000000
     atom   67 type  1   force =     0.00000000    0.00000000    0.00000000
     atom   68 type  2   force =     0.00000000    0.00000000    0.00000000
     atom   69 type  2   force =     0.00000000    0.00000000    0.00000000
     atom   70 type  2   force =     0.00000000    0.00000000    0.00000000
     atom   71 type  1   force =     0.00000000    0.00000000    0.00000000
     atom   72 type  1   force =     0.00000000    0.00000000    0.00000000
     atom   73 type  2   force =     0.00000000    0.00000000    0.00000000
     atom   74 type  2   force =     0.00000000    0.00000000    0.00000000
     atom   75 type  2   force =     0.00000000    0.00000000    0.00000000
     atom   76 type  1   force =     0.00000000    0.00000000    0.00000000
     atom   77 type  1   force =     0.00000000    0.00000000    0.00000000
     atom   78 type  2   force =     0.00000000    0.00000000    0.00000000
     atom   79 type  2   force =     0.00000000    0.00000000    0.00000000
     atom   80 type  2   force =     0.00000000    0.00000000    0.00000000
     The SCF correction term to forces
     atom    1 type  1   force =    -0.00000198    0.00000026   -0.00000141
     atom    2 type  1   force =     0.00000061    0.00000112   -0.00000465
     atom    3 type  2   force =    -0.00000235    0.00000014   -0.00000285
     atom    4 type  2   force =     0.00000069   -0.00000041   -0.00000052
     atom    5 type  2   force =    -0.00000121   -0.00000208    0.00000038
     atom    6 type  1   force =    -0.00000173   -0.00000636    0.00000053
     atom    7 type  1   force =     0.00000078   -0.00000230    0.00000273
     atom    8 type  2   force =    -0.00000041    0.00000004   -0.00000054
     atom    9 type  2   force =     0.00000029    0.00000232   -0.00000029
     atom   10 type  2   force =    -0.00000095   -0.00000096    0.00000015
     atom   11 type  1   force =    -0.00000479   -0.00000180    0.00000140
     atom   12 type  1   force =    -0.00000474    0.00000676    0.00000436
     atom   13 type  2   force =    -0.00000073   -0.00000068   -0.00000344
     atom   14 type  2   force =     0.00000053    0.00000694   -0.00000131
     atom   15 type  2   force =    -0.00000320   -0.00000065    0.00000291
     atom   16 type  1   force =     0.00000460   -0.00000745   -0.00000602
     atom   17 type  1   force =     0.00000322    0.00000158   -0.00000135
     atom   18 type  2   force =    -0.00000029    0.00000005   -0.00000088
     atom   19 type  2   force =     0.00000038    0.00000302   -0.00000089
     atom   20 type  2   force =     0.00000005   -0.00000056    0.00000093
     atom   21 type  1   force =     0.00000132   -0.00000097    0.00000009
     atom   22 type  1   force =     0.00000093    0.00000050    0.00000556
     atom   23 type  2   force =     0.00000065   -0.00000117   -0.00000183
     atom   24 type  2   force =     0.00000101   -0.00000199   -0.00000063
     atom   25 type  2   force =    -0.00000075   -0.00000240   -0.00000019
     atom   26 type  1   force =     0.00000207   -0.00000303    0.00000007
     atom   27 type  1   force =     0.00000672   -0.00000653   -0.00000142
     atom   28 type  2   force =    -0.00000020    0.00000001    0.00000043
     atom   29 type  2   force =     0.00000033    0.00000466   -0.00000042
     atom   30 type  2   force =    -0.00000006   -0.00000088    0.00000064
     atom   31 type  1   force =    -0.00000684    0.00000244   -0.00000387
     atom   32 type  1   force =     0.00000079    0.00000119   -0.00000089
     atom   33 type  2   force =    -0.00000133    0.00000091   -0.00000146
     atom   34 type  2   force =    -0.00000008    0.00000110    0.00000035
     atom   35 type  2   force =    -0.00000151    0.00000005    0.00000113
     atom   36 type  1   force =     0.00000249   -0.00000329    0.00000017
     atom   37 type  1   force =    -0.00000431    0.00000084   -0.00000597
     atom   38 type  2   force =     0.00000016   -0.00000141   -0.00000095
     atom   39 type  2   force =     0.00000057    0.00000123   -0.00000047
     atom   40 type  2   force =    -0.00000059   -0.00000047    0.00000090
     atom   41 type  1   force =     0.00000070    0.00000013   -0.00000243
     atom   42 type  1   force =    -0.00000009    0.00000465    0.00000378
     atom   43 type  2   force =    -0.00000033   -0.00000062   -0.00000206
     atom   44 type  2   force =     0.00000121    0.00000039   -0.00000119
     atom   45 type  2   force =     0.00000225   -0.00000161   -0.00000056
     atom   46 type  1   force =    -0.00000213    0.00000257   -0.00000203
     atom   47 type  1   force =    -0.00000531    0.00000282   -0.00000437
     atom   48 type  2   force =    -0.00000024    0.00000087   -0.00000080
     atom   49 type  2   force =     0.00000079   -0.00000339    0.00000036
     atom   50 type  2   force =     0.00000084   -0.00000068    0.00000169
     atom   51 type  1   force =    -0.00000019    0.00000131   -0.00000212
     atom   52 type  1   force =     0.00000067   -0.00000269    0.00000209
     atom   53 type  2   force =    -0.00000001   -0.00000013   -0.00000211
     atom   54 type  2   force =     0.00000127    0.00000131   -0.00000126
     atom   55 type  2   force =     0.00000214    0.00000065   -0.00000023
     atom   56 type  1   force =    -0.00000467    0.00000934   -0.00000379
     atom   57 type  1   force =    -0.00000290    0.00000230   -0.00000124
     atom   58 type  2   force =    -0.00000078    0.00000007   -0.00000111
     atom   59 type  2   force =    -0.00000020   -0.00000219    0.00000023
     atom   60 type  2   force =    -0.00000032    0.00000055    0.00000029
     atom   61 type  1   force =    -0.00000424    0.00000257   -0.00000357
     atom   62 type  1   force =     0.00000151    0.00000071   -0.00000206
     atom   63 type  2   force =     0.00000237   -0.00000134   -0.00000352
     atom   64 type  2   force =     0.00000224    0.00000028   -0.00000136
     atom   65 type  2   force =    -0.00000156   -0.00000186    0.00000132
     atom   66 type  1   force =     0.00000439   -0.00000645    0.00000526
     atom   67 type  1   force =    -0.00000824    0.00000544    0.00000894
     atom   68 type  2   force =    -0.00000047   -0.00000097   -0.00000156
     atom   69 type  2   force =     0.00000076   -0.00000162    0.00000047
     atom   70 type  2   force =     0.00000238    0.00000044    0.00000017
     atom   71 type  1   force =    -0.00000022   -0.00000889    0.00000128
     atom   72 type  1   force =    -0.00000206   -0.00000099   -0.00000162
     atom   73 type  2   force =     0.00000319   -0.00000000   -0.00000187
     atom   74 type  2   force =     0.00000179   -0.00000187    0.00000031
     atom   75 type  2   force =     0.00000303    0.00000010    0.00000400
     atom   76 type  1   force =    -0.00000680    0.00000073   -0.00000089
     atom   77 type  1   force =     0.00000438    0.00000282   -0.00000379
     atom   78 type  2   force =     0.00000041    0.00000096   -0.00000212
     atom   79 type  2   force =     0.00000028    0.00000188   -0.00000046
     atom   80 type  2   force =     0.00000005   -0.00000016    0.00000100

     Total force =     0.089940     Total SCF correction =     0.000041


     Computing stress (Cartesian axis) and pressure


     negative rho (up, down):  3.343E-03 0.000E+00
          total   stress  (Ry/bohr**3)                   (kbar)     P=       -5.16
  -0.00002961   0.00000953  -0.00000076           -4.36        1.40       -0.11
   0.00000953  -0.00007292   0.00000034            1.40      -10.73        0.05
  -0.00000076   0.00000034  -0.00000270           -0.11        0.05       -0.40

     kinetic stress (kbar)   4916.09      2.55     -0.57
                                2.55   4909.83     -4.98
                               -0.57     -4.98   4909.86

     local   stress (kbar)-444580.09     99.30     17.34
                               99.30-441797.11  -1510.14
                               17.34  -1510.14 442382.45

     nonloc. stress (kbar)   -239.29      6.51     -1.77
                                6.51   -285.96     13.42
                               -1.77     13.42   -109.43

     hartree stress (kbar) 224449.93    -19.40    -12.69
                              -19.40 223005.33    687.96
                              -12.69    687.96-215162.64

     exc-cor stress (kbar)    595.23     -0.38      0.09
                               -0.38    597.45     -0.47
                                0.09     -0.47    586.35

     corecor stress (kbar)  -2382.53      0.02     -0.01
                                0.02  -2382.73      0.16
                               -0.01      0.16  -2381.72

     ewald   stress (kbar) 217236.31    -87.20     -2.51
                              -87.20 215942.45    814.09
                               -2.51    814.09-230225.27

     hubbard stress (kbar)      0.00      0.00      0.00
                                0.00      0.00      0.00
                                0.00      0.00      0.00

     DFT-D   stress (kbar)      0.00      0.00      0.00
                                0.00      0.00      0.00
                                0.00      0.00      0.00

     XDM     stress (kbar)      0.00      0.00      0.00
                                0.00      0.00      0.00
                                0.00      0.00      0.00

     dft-nl  stress (kbar)      0.00      0.00      0.00
                                0.00      0.00      0.00
                                0.00      0.00      0.00

     TS-vdW  stress (kbar)      0.00      0.00      0.00
                                0.00      0.00      0.00
                                0.00      0.00      0.00


                                0.00      0.00      0.00
                                0.00      0.00      0.00


                                0.00      0.00      0.00


     Entering Dynamics:    iteration =     3
                           time      =   0.0029 pico-seconds


     Canonical sampling velocity rescaling

ATOMIC_POSITIONS (crystal)
Ga            0.2009697754        0.3549816374        0.4082465466
Ga            0.1230289049        0.1550322694        0.3856300006
O             0.0893147437        0.2890375642        0.4296592057
O             0.1304771590        0.0038574987        0.3970853630
O             0.2298408747        0.2200187803        0.3643159872
Ga            0.2010241839        0.3545588991        0.6144980468
Ga            0.1224347472        0.1543261321        0.5917570998
O             0.0906199697        0.2888708877        0.6362599253
O             0.1306411454        0.0042012690        0.6017891114
O             0.2305394113        0.2217433534        0.5700009014
Ga            0.2016041012        0.8550290721        0.4080516514
Ga            0.1233123120        0.6543765877        0.3851485767
O             0.0919891637        0.7878149207        0.4295430863
O             0.1294634230        0.5039567787        0.3965910444
O             0.2301342473        0.7205951309        0.3639566422
Ga            0.2014340328        0.8546772273        0.6144613278
Ga            0.1226256971        0.6554735692        0.5913377128
O             0.0894833547        0.7885171128        0.6363590412
O             0.1299649494        0.5050111089        0.6027708673
O             0.2308204016        0.7213187526        0.5707987654
Ga            0.4512867187        0.3545480087        0.4083424315
Ga            0.3724412537        0.1548331619        0.3858671625
O             0.3397347751        0.2881217630        0.4299566282
O             0.3811034320        0.0017522986        0.3969578771
O             0.4807698389        0.2198195959        0.3636334302
Ga            0.4512938783        0.3551849006        0.6146258895
Ga            0.3717626934        0.1552990968        0.5918403087
O             0.3400124719        0.2885936160        0.6363913387
O             0.3794281699        0.0060663580        0.6030373973
O             0.4808213372        0.2204265555        0.5710167710
Ga            0.4516170042        0.8552665565        0.4082381264
Ga            0.3722229524        0.6555141291        0.3854616431
O             0.3392747370        0.7881716612        0.4292929774
O             0.3795044629        0.5037028461        0.3974445666
O             0.4792045431        0.7220477168        0.3644828716
Ga            0.4509440777        0.8550946030        0.6145998824
Ga            0.3716641553        0.6546931722        0.5914756152
O             0.3406867281        0.7874466935        0.6363437216
O             0.3817514825        0.5032103163        0.6033598013
O             0.4807487953        0.7231248391        0.5704899223
Ga            0.7009392437        0.3548665161        0.4081247600
Ga            0.6218792885        0.1554116747        0.3857507215
O             0.5897149116        0.2873846068        0.4292327397
O             0.6310356977        0.0027903208        0.3970483502
O             0.7312683645        0.2212387360        0.3632368391
Ga            0.7002446901        0.3555879612        0.6147267075
Ga            0.6218675452        0.1555485551        0.5916192600
O             0.5881615634        0.2897763897        0.6362440348
O             0.6311647277        0.0022325405        0.6033107331
O             0.7309339173        0.2206370715        0.5706544036
Ga            0.7013984202        0.8548526789        0.4084199425
Ga            0.6225601877        0.6544828971        0.3856672965
O             0.5911183373        0.7868204393        0.4295872366
O             0.6307103605        0.5032294914        0.3972308646
O             0.7314965629        0.7224087699        0.3635469479
Ga            0.7008889334        0.8555237057        0.6144860631
Ga            0.6221235439        0.6549719280        0.5917529080
O             0.5893507828        0.7871595976        0.6362311937
O             0.6301836348        0.5028154198        0.6030451833
O             0.7300063552        0.7218118083        0.5706589818
Ga            0.9503083701        0.3558967027        0.4081052637
Ga            0.8722486824        0.1560010596        0.3855462523
O             0.8389857332        0.2894636033        0.4291633121
O             0.8806356760        0.0035417051        0.3962795287
O             0.9808907102        0.2203062750        0.3635935311
Ga            0.9513539237        0.3548513987        0.6148037211
Ga            0.8715863152        0.1554935134        0.5920942085
O             0.8396689449        0.2877698624        0.6358591563
O             0.8816861871        0.0021590477        0.6025716604
O             0.9821849917        0.2221429486        0.5701134125
Ga            0.9509123257        0.8537443966        0.4084220003
Ga            0.8718555514        0.6545090111        0.3853715441
O             0.8404106062        0.7866978358        0.4300737722
O             0.8811628671        0.5030874190        0.3963633261
O             0.9823093683        0.7204945505        0.3642549944
Ga            0.9517356346        0.8553625122        0.6145275440
Ga            0.8718302741        0.6556673763        0.5918103386
O             0.8406572805        0.7867710001        0.6356557923
O             0.8806050233        0.5048288822        0.6035038629
O             0.9799786703        0.7213123463        0.5707200739


     kinetic energy (Ekin) =           0.22049438 Ry
     temperature           =         293.78320029 K 
     Ekin + Etot (const)   =      -10895.83730986 Ry
     Ions kinetic stress =            0.72 (kbar)
                                      0.66          -0.07          -0.12
                                     -0.07           0.71          -0.02
                                     -0.12          -0.02           0.80



     Linear momentum :    0.0000000000    0.0000000000   -0.0000000000

     Writing config-only to output data dir ./tmp/md/Ga2O3-BL-001-4x2x1-300K.save/

     second order wave-functions extrapolation
     second order charge density extrapolation

     negative rho (up, down):  3.349E-03 0.000E+00

     total cpu time spent up to now is    13665.2 secs

     Self-consistent Calculation

     iteration #  1     ecut=    80.00 Ry     beta= 0.20
     Davidson diagonalization with overlap

---- Real-time Memory Report at c_bands before calling an iterative solver
          1622 MiB given to the printing process from OS
             0 MiB allocation reported by mallinfo(arena+hblkhd)
        348345 MiB available memory on the node where the printing process lives
------------------
     ethr =  1.00E-06,  avg # of iterations =  2.0

     Threshold (ethr) on eigenvalues was too large:
     Diagonalizing with lowered threshold

     Davidson diagonalization with overlap

---- Real-time Memory Report at c_bands before calling an iterative solver
          1622 MiB given to the printing process from OS
             0 MiB allocation reported by mallinfo(arena+hblkhd)
        348412 MiB available memory on the node where the printing process lives
------------------
     ethr =  1.96E-09,  avg # of iterations = 18.0

     negative rho (up, down):  3.346E-03 0.000E+00

     total cpu time spent up to now is    13942.4 secs

     total energy              =  -10896.05129917 Ry
     estimated scf accuracy    <       0.00002436 Ry

     iteration #  2     ecut=    80.00 Ry     beta= 0.20
     Davidson diagonalization with overlap

---- Real-time Memory Report at c_bands before calling an iterative solver
          1622 MiB given to the printing process from OS
             0 MiB allocation reported by mallinfo(arena+hblkhd)
        348097 MiB available memory on the node where the printing process lives
------------------
     ethr =  3.46E-09,  avg # of iterations =  1.0

     negative rho (up, down):  3.344E-03 0.000E+00

     total cpu time spent up to now is    13999.4 secs

     total energy              =  -10896.05128111 Ry
     estimated scf accuracy    <       0.00001394 Ry

     iteration #  3     ecut=    80.00 Ry     beta= 0.20
     Davidson diagonalization with overlap

---- Real-time Memory Report at c_bands before calling an iterative solver
          1622 MiB given to the printing process from OS
             0 MiB allocation reported by mallinfo(arena+hblkhd)
        348041 MiB available memory on the node where the printing process lives
------------------
     ethr =  1.98E-09,  avg # of iterations = 14.8

     negative rho (up, down):  3.342E-03 0.000E+00

     total cpu time spent up to now is    14143.3 secs

     total energy              =  -10896.05129073 Ry
     estimated scf accuracy    <       0.00000896 Ry

     iteration #  4     ecut=    80.00 Ry     beta= 0.20
     Davidson diagonalization with overlap

---- Real-time Memory Report at c_bands before calling an iterative solver
          1622 MiB given to the printing process from OS
             0 MiB allocation reported by mallinfo(arena+hblkhd)
        347906 MiB available memory on the node where the printing process lives
------------------
     ethr =  1.27E-09,  avg # of iterations =  2.0

     negative rho (up, down):  3.340E-03 0.000E+00

     total cpu time spent up to now is    14209.7 secs

     total energy              =  -10896.05129123 Ry
     estimated scf accuracy    <       0.00000472 Ry

     iteration #  5     ecut=    80.00 Ry     beta= 0.20
     Davidson diagonalization with overlap

---- Real-time Memory Report at c_bands before calling an iterative solver
          1622 MiB given to the printing process from OS
             0 MiB allocation reported by mallinfo(arena+hblkhd)
        347775 MiB available memory on the node where the printing process lives
------------------
     ethr =  6.70E-10,  avg # of iterations =  3.0

     negative rho (up, down):  3.339E-03 0.000E+00

     total cpu time spent up to now is    14283.6 secs

     total energy              =  -10896.05129210 Ry
     estimated scf accuracy    <       0.00000119 Ry

     iteration #  6     ecut=    80.00 Ry     beta= 0.20
     Davidson diagonalization with overlap

---- Real-time Memory Report at c_bands before calling an iterative solver
          1622 MiB given to the printing process from OS
             0 MiB allocation reported by mallinfo(arena+hblkhd)
        347728 MiB available memory on the node where the printing process lives
------------------
     ethr =  1.69E-10,  avg # of iterations = 15.5

     negative rho (up, down):  3.338E-03 0.000E+00

     total cpu time spent up to now is    14507.9 secs

     total energy              =  -10896.05129342 Ry
     estimated scf accuracy    <       0.00000124 Ry

     iteration #  7     ecut=    80.00 Ry     beta= 0.20
     Davidson diagonalization with overlap

---- Real-time Memory Report at c_bands before calling an iterative solver
          1622 MiB given to the printing process from OS
             0 MiB allocation reported by mallinfo(arena+hblkhd)
        347663 MiB available memory on the node where the printing process lives
------------------
     ethr =  1.69E-10,  avg # of iterations =  8.8

     negative rho (up, down):  3.337E-03 0.000E+00

     total cpu time spent up to now is    14594.2 secs

     total energy              =  -10896.05129364 Ry
     estimated scf accuracy    <       0.00000218 Ry

     iteration #  8     ecut=    80.00 Ry     beta= 0.20
     Davidson diagonalization with overlap

---- Real-time Memory Report at c_bands before calling an iterative solver
          1622 MiB given to the printing process from OS
             0 MiB allocation reported by mallinfo(arena+hblkhd)
        347478 MiB available memory on the node where the printing process lives
------------------
     ethr =  1.69E-10,  avg # of iterations =  2.0

     negative rho (up, down):  3.337E-03 0.000E+00

     total cpu time spent up to now is    14659.6 secs

     total energy              =  -10896.05129396 Ry
     estimated scf accuracy    <       0.00000258 Ry

     iteration #  9     ecut=    80.00 Ry     beta= 0.20
     Davidson diagonalization with overlap

---- Real-time Memory Report at c_bands before calling an iterative solver
          1622 MiB given to the printing process from OS
             0 MiB allocation reported by mallinfo(arena+hblkhd)
        347391 MiB available memory on the node where the printing process lives
------------------
     ethr =  1.69E-10,  avg # of iterations =  2.0

     negative rho (up, down):  3.336E-03 0.000E+00

     total cpu time spent up to now is    14724.3 secs

     total energy              =  -10896.05129511 Ry
     estimated scf accuracy    <       0.00000207 Ry

     iteration # 10     ecut=    80.00 Ry     beta= 0.20
     Davidson diagonalization with overlap

---- Real-time Memory Report at c_bands before calling an iterative solver
          1622 MiB given to the printing process from OS
             0 MiB allocation reported by mallinfo(arena+hblkhd)
        347369 MiB available memory on the node where the printing process lives
------------------
     ethr =  1.69E-10,  avg # of iterations =  7.5

     negative rho (up, down):  3.336E-03 0.000E+00

     total cpu time spent up to now is    14832.4 secs

     total energy              =  -10896.05129580 Ry
     estimated scf accuracy    <       0.00000034 Ry

     iteration # 11     ecut=    80.00 Ry     beta= 0.20
     Davidson diagonalization with overlap

---- Real-time Memory Report at c_bands before calling an iterative solver
          1622 MiB given to the printing process from OS
             0 MiB allocation reported by mallinfo(arena+hblkhd)
        347294 MiB available memory on the node where the printing process lives
------------------
     ethr =  4.77E-11,  avg # of iterations = 15.2

     negative rho (up, down):  3.336E-03 0.000E+00

     total cpu time spent up to now is    15005.1 secs

     total energy              =  -10896.05129563 Ry
     estimated scf accuracy    <       0.00000071 Ry

     iteration # 12     ecut=    80.00 Ry     beta= 0.20
     Davidson diagonalization with overlap

---- Real-time Memory Report at c_bands before calling an iterative solver
          1622 MiB given to the printing process from OS
             0 MiB allocation reported by mallinfo(arena+hblkhd)
        347280 MiB available memory on the node where the printing process lives
------------------
     ethr =  4.77E-11,  avg # of iterations =  2.0

     negative rho (up, down):  3.335E-03 0.000E+00

     total cpu time spent up to now is    15072.9 secs

     total energy              =  -10896.05129590 Ry
     estimated scf accuracy    <       0.00000037 Ry

     iteration # 13     ecut=    80.00 Ry     beta= 0.20
     Davidson diagonalization with overlap

---- Real-time Memory Report at c_bands before calling an iterative solver
          1622 MiB given to the printing process from OS
             0 MiB allocation reported by mallinfo(arena+hblkhd)
        347289 MiB available memory on the node where the printing process lives
------------------
     ethr =  4.77E-11,  avg # of iterations =  8.2

     negative rho (up, down):  3.335E-03 0.000E+00

     total cpu time spent up to now is    15171.6 secs

     total energy              =  -10896.05129605 Ry
     estimated scf accuracy    <       0.00000017 Ry

     iteration # 14     ecut=    80.00 Ry     beta= 0.20
     Davidson diagonalization with overlap

---- Real-time Memory Report at c_bands before calling an iterative solver
          1622 MiB given to the printing process from OS
             0 MiB allocation reported by mallinfo(arena+hblkhd)
        347286 MiB available memory on the node where the printing process lives
------------------
     ethr =  2.37E-11,  avg # of iterations = 10.8

     negative rho (up, down):  3.335E-03 0.000E+00

     total cpu time spent up to now is    15288.7 secs

     total energy              =  -10896.05129600 Ry
     estimated scf accuracy    <       0.00000011 Ry

     iteration # 15     ecut=    80.00 Ry     beta= 0.20
     Davidson diagonalization with overlap

---- Real-time Memory Report at c_bands before calling an iterative solver
          1622 MiB given to the printing process from OS
             0 MiB allocation reported by mallinfo(arena+hblkhd)
        347302 MiB available memory on the node where the printing process lives
------------------
     ethr =  1.52E-11,  avg # of iterations =  5.0

     negative rho (up, down):  3.335E-03 0.000E+00

     total cpu time spent up to now is    15391.0 secs

     total energy              =  -10896.05129617 Ry
     estimated scf accuracy    <       0.00000007 Ry

     iteration # 16     ecut=    80.00 Ry     beta= 0.20
     Davidson diagonalization with overlap

---- Real-time Memory Report at c_bands before calling an iterative solver
          1622 MiB given to the printing process from OS
             0 MiB allocation reported by mallinfo(arena+hblkhd)
        347259 MiB available memory on the node where the printing process lives
------------------
     ethr =  1.05E-11,  avg # of iterations =  2.0

     negative rho (up, down):  3.335E-03 0.000E+00

     total cpu time spent up to now is    15462.3 secs

     total energy              =  -10896.05129637 Ry
     estimated scf accuracy    <       0.00000009 Ry

     iteration # 17     ecut=    80.00 Ry     beta= 0.20
     Davidson diagonalization with overlap

---- Real-time Memory Report at c_bands before calling an iterative solver
          1622 MiB given to the printing process from OS
             0 MiB allocation reported by mallinfo(arena+hblkhd)
        347283 MiB available memory on the node where the printing process lives
------------------
     ethr =  1.05E-11,  avg # of iterations = 12.5

     negative rho (up, down):  3.335E-03 0.000E+00

     total cpu time spent up to now is    15667.2 secs

     total energy              =  -10896.05129660 Ry
     estimated scf accuracy    <       0.00000004 Ry

     iteration # 18     ecut=    80.00 Ry     beta= 0.20
     Davidson diagonalization with overlap

---- Real-time Memory Report at c_bands before calling an iterative solver
          1622 MiB given to the printing process from OS
             0 MiB allocation reported by mallinfo(arena+hblkhd)
        347248 MiB available memory on the node where the printing process lives
------------------
     c_bands:  2 eigenvalues not converged
     ethr =  5.99E-12,  avg # of iterations = 15.8

     negative rho (up, down):  3.335E-03 0.000E+00

     total cpu time spent up to now is    15869.9 secs

     total energy              =  -10896.05129672 Ry
     estimated scf accuracy    <       0.00000002 Ry

     iteration # 19     ecut=    80.00 Ry     beta= 0.20
     Davidson diagonalization with overlap

---- Real-time Memory Report at c_bands before calling an iterative solver
          1622 MiB given to the printing process from OS
             0 MiB allocation reported by mallinfo(arena+hblkhd)
        347246 MiB available memory on the node where the printing process lives
------------------
     ethr =  2.93E-12,  avg # of iterations = 15.5

     negative rho (up, down):  3.334E-03 0.000E+00

     total cpu time spent up to now is    16119.2 secs

     total energy              =  -10896.05129678 Ry
     estimated scf accuracy    <       0.00000002 Ry

     iteration # 20     ecut=    80.00 Ry     beta= 0.20
     Davidson diagonalization with overlap

---- Real-time Memory Report at c_bands before calling an iterative solver
          1622 MiB given to the printing process from OS
             0 MiB allocation reported by mallinfo(arena+hblkhd)
        347251 MiB available memory on the node where the printing process lives
------------------
     ethr =  2.82E-12,  avg # of iterations =  6.8

     negative rho (up, down):  3.334E-03 0.000E+00

     total cpu time spent up to now is    16195.7 secs

     total energy              =  -10896.05129677 Ry
     estimated scf accuracy    <       0.00000002 Ry

     iteration # 21     ecut=    80.00 Ry     beta= 0.20
     Davidson diagonalization with overlap

---- Real-time Memory Report at c_bands before calling an iterative solver
          1622 MiB given to the printing process from OS
             0 MiB allocation reported by mallinfo(arena+hblkhd)
        347239 MiB available memory on the node where the printing process lives
------------------
     ethr =  2.82E-12,  avg # of iterations =  2.0

     negative rho (up, down):  3.334E-03 0.000E+00

     total cpu time spent up to now is    16259.7 secs

     total energy              =  -10896.05129680 Ry
     estimated scf accuracy    <       0.00000002 Ry

     iteration # 22     ecut=    80.00 Ry     beta= 0.20
     Davidson diagonalization with overlap

---- Real-time Memory Report at c_bands before calling an iterative solver
          1622 MiB given to the printing process from OS
             0 MiB allocation reported by mallinfo(arena+hblkhd)
        347213 MiB available memory on the node where the printing process lives
------------------
     ethr =  2.82E-12,  avg # of iterations =  7.2

     negative rho (up, down):  3.334E-03 0.000E+00

     total cpu time spent up to now is    16375.1 secs

     total energy              =  -10896.05129682 Ry
     estimated scf accuracy    <       0.00000006 Ry

     iteration # 23     ecut=    80.00 Ry     beta= 0.20
     Davidson diagonalization with overlap

---- Real-time Memory Report at c_bands before calling an iterative solver
          1622 MiB given to the printing process from OS
             0 MiB allocation reported by mallinfo(arena+hblkhd)
        347241 MiB available memory on the node where the printing process lives
------------------
     ethr =  2.82E-12,  avg # of iterations = 11.5

     negative rho (up, down):  3.334E-03 0.000E+00

     total cpu time spent up to now is    16466.7 secs

     total energy              =  -10896.05129683 Ry
     estimated scf accuracy    <       0.00000006 Ry

     iteration # 24     ecut=    80.00 Ry     beta= 0.20
     Davidson diagonalization with overlap

---- Real-time Memory Report at c_bands before calling an iterative solver
          1622 MiB given to the printing process from OS
             0 MiB allocation reported by mallinfo(arena+hblkhd)
        347210 MiB available memory on the node where the printing process lives
------------------
     ethr =  2.82E-12,  avg # of iterations =  1.8

     negative rho (up, down):  3.334E-03 0.000E+00

     total cpu time spent up to now is    16528.8 secs

     total energy              =  -10896.05129683 Ry
     estimated scf accuracy    <       0.00000007 Ry

     iteration # 25     ecut=    80.00 Ry     beta= 0.20
     Davidson diagonalization with overlap

---- Real-time Memory Report at c_bands before calling an iterative solver
          1622 MiB given to the printing process from OS
             0 MiB allocation reported by mallinfo(arena+hblkhd)
        347206 MiB available memory on the node where the printing process lives
------------------
     ethr =  2.82E-12,  avg # of iterations =  4.2

     negative rho (up, down):  3.334E-03 0.000E+00

     total cpu time spent up to now is    16603.2 secs

     total energy              =  -10896.05129685 Ry
     estimated scf accuracy    <       0.00000009 Ry

     iteration # 26     ecut=    80.00 Ry     beta= 0.20
     Davidson diagonalization with overlap

---- Real-time Memory Report at c_bands before calling an iterative solver
          1622 MiB given to the printing process from OS
             0 MiB allocation reported by mallinfo(arena+hblkhd)
        347213 MiB available memory on the node where the printing process lives
------------------
     ethr =  2.82E-12,  avg # of iterations =  2.0

     negative rho (up, down):  3.334E-03 0.000E+00

     total cpu time spent up to now is    16668.4 secs

     total energy              =  -10896.05129681 Ry
     estimated scf accuracy    <       0.00000010 Ry

     iteration # 27     ecut=    80.00 Ry     beta= 0.20
     Davidson diagonalization with overlap

---- Real-time Memory Report at c_bands before calling an iterative solver
          1622 MiB given to the printing process from OS
             0 MiB allocation reported by mallinfo(arena+hblkhd)
        347221 MiB available memory on the node where the printing process lives
------------------
     ethr =  2.82E-12,  avg # of iterations =  1.5

     negative rho (up, down):  3.334E-03 0.000E+00

     total cpu time spent up to now is    16729.6 secs

     total energy              =  -10896.05129683 Ry
     estimated scf accuracy    <       0.00000007 Ry

     iteration # 28     ecut=    80.00 Ry     beta= 0.20
     Davidson diagonalization with overlap

---- Real-time Memory Report at c_bands before calling an iterative solver
          1622 MiB given to the printing process from OS
             0 MiB allocation reported by mallinfo(arena+hblkhd)
        347230 MiB available memory on the node where the printing process lives
------------------
     ethr =  2.82E-12,  avg # of iterations =  2.0

     negative rho (up, down):  3.334E-03 0.000E+00

     total cpu time spent up to now is    16801.8 secs

     total energy              =  -10896.05129684 Ry
     estimated scf accuracy    <       0.00000002 Ry

     iteration # 29     ecut=    80.00 Ry     beta= 0.20
     Davidson diagonalization with overlap

---- Real-time Memory Report at c_bands before calling an iterative solver
          1622 MiB given to the printing process from OS
             0 MiB allocation reported by mallinfo(arena+hblkhd)
        347183 MiB available memory on the node where the printing process lives
------------------
     ethr =  2.82E-12,  avg # of iterations =  2.0

     negative rho (up, down):  3.334E-03 0.000E+00

     total cpu time spent up to now is    16873.1 secs

     End of self-consistent calculation

          k = 0.0000 0.0000 0.0000 (360677 PWs)   bands (ev):

   -25.1070 -25.1046 -25.0195 -25.0028 -24.8293 -24.8215 -24.8066 -24.8040
   -24.7704 -24.7518 -24.7339 -24.7326 -24.3733 -24.3473 -24.3262 -24.3024
   -24.2909 -24.2761 -24.2617 -24.2371 -24.2081 -24.2030 -24.1429 -24.1293
   -24.1064 -24.0871 -24.0790 -24.0760 -24.0613 -24.0488 -24.0399 -23.9966
   -23.9179 -23.8997 -23.8819 -23.8698 -23.8651 -23.8470 -23.8392 -23.8264
   -23.8085 -23.7931 -23.7827 -23.7592 -23.7400 -23.7175 -23.7107 -23.6400
   -20.1455 -20.1288 -20.1059 -20.0907 -20.0794 -20.0726 -20.0716 -20.0656
   -20.0591 -20.0531 -20.0322 -20.0300 -20.0269 -20.0057 -20.0038 -19.9988
   -19.9954 -19.9817 -19.9733 -19.9715 -19.9611 -19.9596 -19.9551 -19.9544
   -19.9512 -19.9484 -19.9461 -19.9453 -19.9434 -19.9413 -19.9387 -19.9378
   -19.9344 -19.9314 -19.9245 -19.9218 -19.9193 -19.9184 -19.9125 -19.9102
   -19.9065 -19.9036 -19.9013 -19.9010 -19.8927 -19.8888 -19.8871 -19.8868
   -19.8833 -19.8805 -19.8786 -19.8755 -19.8740 -19.8709 -19.8614 -19.8601
   -19.8582 -19.8577 -19.8528 -19.8513 -19.8472 -19.8456 -19.8448 -19.8405
   -19.8389 -19.8365 -19.8340 -19.8331 -19.8304 -19.8239 -19.8227 -19.8189
   -19.8186 -19.8145 -19.8141 -19.8098 -19.8067 -19.8032 -19.8001 -19.7999
   -19.7971 -19.7934 -19.7903 -19.7878 -19.7815 -19.7808 -19.7789 -19.7755
   -19.7754 -19.7721 -19.7668 -19.7591 -19.7565 -19.7556 -19.7503 -19.7443
   -19.7440 -19.7367 -19.7335 -19.7333 -19.7234 -19.7222 -19.7142 -19.7131
   -19.7087 -19.6996 -19.6986 -19.6901 -19.6841 -19.6626 -19.6603 -19.6557
   -19.6522 -19.6441 -19.6392 -19.6292 -19.6078 -19.5989 -19.5844 -19.5797
   -19.5528 -19.5419 -19.5320 -19.5171 -19.4280 -19.4174 -19.4115 -19.4089
   -19.4000 -19.3901 -19.3449 -19.3409 -19.3347 -19.3105 -19.2855 -19.2762
   -19.2680 -19.2660 -19.1693 -19.1577 -19.1560 -19.1445 -19.1333 -19.1301
   -19.1106 -19.0967 -19.0512 -19.0392 -19.0330 -19.0185 -19.0171 -19.0101
   -18.9738 -18.9724 -18.9661 -18.9493 -18.9451 -18.9397 -18.9391 -18.9034
   -13.0952 -13.0929 -13.0621 -13.0532 -12.9027 -12.8982 -12.8216 -12.8111
   -12.8057 -12.7889 -12.4908 -12.4798 -12.4465 -12.4425 -12.2730 -12.2574
   -12.2504 -12.2427 -11.7059 -11.6946 -11.5826 -11.5604 -11.5494 -11.5457
   -11.2582 -11.2535 -11.2495 -11.2371 -10.8677 -10.8481 -10.8427 -10.8371
   -10.7134 -10.6830 -10.6594 -10.6388 -10.5983 -10.5965 -10.5759 -10.5739
   -10.5501 -10.5345 -10.4895 -10.4849 -10.4555 -10.4253 -10.0024  -9.9827
    -9.9775  -9.9664  -9.9133  -9.9121  -9.8627  -9.8422  -9.7541  -9.7448
    -9.7290  -9.6988  -9.3915  -9.3743  -9.3650  -9.3600  -9.2823  -9.2705
    -9.2377  -9.2302  -9.2055  -9.1949  -9.1884  -9.1711  -8.9782  -8.9715
    -8.9565  -8.9499  -8.7561  -8.7521  -8.6251  -8.6221  -8.5854  -8.5798
    -8.5791  -8.5732  -8.5552  -8.5344  -8.4970  -8.4914  -8.4885  -8.4811
    -8.4806  -8.4760  -8.4686  -8.4588  -8.3266  -8.3076  -8.2511  -8.2276
    -8.2134  -8.1754  -8.1671  -8.1563  -8.1488  -8.1406  -7.8745  -7.8206
    -7.8060  -7.7890  -7.7766  -7.7728  -7.7686  -7.7613  -7.7464  -7.7382
    -7.6708  -7.6640  -7.6629  -7.6540  -7.6208  -7.5959  -7.5636  -7.5565
    -7.5509  -7.5395  -7.5253  -7.5187  -7.5134  -7.5073  -7.4801  -7.4717
    -7.4574  -7.4455  -7.4305  -7.4274  -7.4073  -7.4020  -7.3912  -7.3854
    -7.3775  -7.3455  -7.3381  -7.3098  -7.1058  -7.0940  -7.0504  -7.0252

     occupation numbers 
     1.0000   1.0000   1.0000   1.0000   1.0000   1.0000   1.0000   1.0000
     1.0000   1.0000   1.0000   1.0000   1.0000   1.0000   1.0000   1.0000
     1.0000   1.0000   1.0000   1.0000   1.0000   1.0000   1.0000   1.0000
     1.0000   1.0000   1.0000   1.0000   1.0000   1.0000   1.0000   1.0000
     1.0000   1.0000   1.0000   1.0000   1.0000   1.0000   1.0000   1.0000
     1.0000   1.0000   1.0000   1.0000   1.0000   1.0000   1.0000   1.0000
     1.0000   1.0000   1.0000   1.0000   1.0000   1.0000   1.0000   1.0000
     1.0000   1.0000   1.0000   1.0000   1.0000   1.0000   1.0000   1.0000
     1.0000   1.0000   1.0000   1.0000   1.0000   1.0000   1.0000   1.0000
     1.0000   1.0000   1.0000   1.0000   1.0000   1.0000   1.0000   1.0000
     1.0000   1.0000   1.0000   1.0000   1.0000   1.0000   1.0000   1.0000
     1.0000   1.0000   1.0000   1.0000   1.0000   1.0000   1.0000   1.0000
     1.0000   1.0000   1.0000   1.0000   1.0000   1.0000   1.0000   1.0000
     1.0000   1.0000   1.0000   1.0000   1.0000   1.0000   1.0000   1.0000
     1.0000   1.0000   1.0000   1.0000   1.0000   1.0000   1.0000   1.0000
     1.0000   1.0000   1.0000   1.0000   1.0000   1.0000   1.0000   1.0000
     1.0000   1.0000   1.0000   1.0000   1.0000   1.0000   1.0000   1.0000
     1.0000   1.0000   1.0000   1.0000   1.0000   1.0000   1.0000   1.0000
     1.0000   1.0000   1.0000   1.0000   1.0000   1.0000   1.0000   1.0000
     1.0000   1.0000   1.0000   1.0000   1.0000   1.0000   1.0000   1.0000
     1.0000   1.0000   1.0000   1.0000   1.0000   1.0000   1.0000   1.0000
     1.0000   1.0000   1.0000   1.0000   1.0000   1.0000   1.0000   1.0000
     1.0000   1.0000   1.0000   1.0000   1.0000   1.0000   1.0000   1.0000
     1.0000   1.0000   1.0000   1.0000   1.0000   1.0000   1.0000   1.0000
     1.0000   1.0000   1.0000   1.0000   1.0000   1.0000   1.0000   1.0000
     1.0000   1.0000   1.0000   1.0000   1.0000   1.0000   1.0000   1.0000
     1.0000   1.0000   1.0000   1.0000   1.0000   1.0000   1.0000   1.0000
     1.0000   1.0000   1.0000   1.0000   1.0000   1.0000   1.0000   1.0000
     1.0000   1.0000   1.0000   1.0000   1.0000   1.0000   1.0000   1.0000
     1.0000   1.0000   1.0000   1.0000   1.0000   1.0000   1.0000   1.0000
     1.0000   1.0000   1.0000   1.0000   1.0000   1.0000   1.0000   1.0000
     1.0000   1.0000   1.0000   1.0000   1.0000   1.0000   1.0000   1.0000
     1.0000   1.0000   1.0000   1.0000   1.0000   1.0000   1.0000   1.0000
     1.0000   1.0000   1.0000   1.0000   1.0000   1.0000   1.0000   1.0000
     1.0000   1.0000   1.0000   1.0000   1.0000   1.0000   1.0000   1.0000
     1.0000   1.0000   1.0000   1.0000   1.0000   1.0000   1.0000   1.0000
     1.0000   1.0000   1.0000   1.0000   1.0000   1.0000   1.0000   1.0000
     1.0000   1.0000   1.0000   1.0000   1.0000   1.0000   1.0000   1.0000
     1.0000   1.0000   1.0000   1.0000   1.0000   1.0000   1.0000   1.0000
     1.0000   1.0000   1.0000   1.0000   1.0000   1.0000   1.0000   1.0000
     1.0000   1.0000   1.0000   1.0000   1.0000   1.0000   1.0000   1.0000
     1.0000   1.0000   1.0000   1.0000   1.0000   1.0000   1.0000   1.0000
     1.0000   1.0000   1.0000   1.0000   1.0000   1.0000   1.0000   1.0000
     1.0000   1.0000   1.0000   1.0000   1.0000   1.0000   1.0000   1.0000

          k = 0.0247-0.5725 0.0000 (360514 PWs)   bands (ev):

   -25.0789 -25.0737 -25.0562 -25.0344 -24.8283 -24.8260 -24.8055 -24.7981
   -24.7744 -24.7527 -24.7337 -24.7331 -24.3735 -24.3470 -24.3267 -24.3014
   -24.2909 -24.2757 -24.2619 -24.2371 -24.1906 -24.1796 -24.1408 -24.1346
   -24.1107 -24.0851 -24.0807 -24.0718 -24.0658 -24.0556 -24.0439 -24.0041
   -23.9178 -23.8957 -23.8840 -23.8747 -23.8709 -23.8433 -23.8380 -23.8249
   -23.8093 -23.7935 -23.7823 -23.7579 -23.7410 -23.7196 -23.7107 -23.6398
   -20.1312 -20.1093 -20.1074 -20.0958 -20.0846 -20.0837 -20.0726 -20.0684
   -20.0559 -20.0555 -20.0385 -20.0308 -20.0281 -20.0066 -20.0059 -19.9939
   -19.9863 -19.9818 -19.9763 -19.9755 -19.9625 -19.9609 -19.9589 -19.9560
   -19.9493 -19.9486 -19.9476 -19.9467 -19.9439 -19.9413 -19.9393 -19.9341
   -19.9321 -19.9314 -19.9281 -19.9218 -19.9216 -19.9176 -19.9130 -19.9114
   -19.9063 -19.9051 -19.9010 -19.8997 -19.8939 -19.8910 -19.8891 -19.8870
   -19.8864 -19.8818 -19.8767 -19.8751 -19.8719 -19.8689 -19.8644 -19.8615
   -19.8607 -19.8591 -19.8553 -19.8506 -19.8485 -19.8466 -19.8451 -19.8413
   -19.8394 -19.8377 -19.8369 -19.8353 -19.8284 -19.8263 -19.8256 -19.8208
   -19.8201 -19.8134 -19.8111 -19.8096 -19.8071 -19.8039 -19.8027 -19.8012
   -19.7999 -19.7927 -19.7894 -19.7892 -19.7817 -19.7813 -19.7778 -19.7747
   -19.7734 -19.7653 -19.7645 -19.7570 -19.7563 -19.7552 -19.7454 -19.7443
   -19.7408 -19.7344 -19.7314 -19.7313 -19.7275 -19.7242 -19.7163 -19.7104
   -19.7094 -19.7002 -19.6977 -19.6909 -19.6847 -19.6606 -19.6601 -19.6575
   -19.6514 -19.6442 -19.6369 -19.6301 -19.6004 -19.5987 -19.5866 -19.5795
   -19.5617 -19.5517 -19.5433 -19.5257 -19.4280 -19.4071 -19.4053 -19.3889
   -19.3335 -19.3211 -19.3192 -19.3115 -19.2964 -19.2885 -19.2883 -19.2767
   -19.2766 -19.2730 -19.2681 -19.2667 -19.1775 -19.1745 -19.1690 -19.1611
   -19.0840 -19.0606 -19.0574 -19.0542 -19.0085 -19.0014 -18.9926 -18.9920
   -18.9712 -18.9679 -18.9647 -18.9642 -18.9519 -18.9493 -18.9370 -18.9063
   -13.0940 -13.0898 -13.0670 -13.0533 -12.8383 -12.8209 -12.8188 -12.8071
   -12.4841 -12.4795 -12.4647 -12.4612 -12.4466 -12.4416 -12.4390 -12.4171
   -12.2460 -12.2331 -12.2297 -12.2264 -11.6004 -11.5938 -11.5830 -11.5780
   -11.2476 -11.2426 -11.2372 -11.2281 -10.8373 -10.8296 -10.8248 -10.8113
   -10.6755 -10.6668 -10.6382 -10.6349 -10.6202 -10.6106 -10.6016 -10.5791
   -10.4344 -10.4279 -10.4138 -10.3805 -10.0523 -10.0352 -10.0292 -10.0109
    -9.9799  -9.9688  -9.9582  -9.9504  -9.8758  -9.8679  -9.8557  -9.8157
    -9.4622  -9.4620  -9.4543  -9.4369  -9.3877  -9.3699  -9.3680  -9.3530
    -9.2576  -9.2402  -9.2177  -9.2100  -9.1746  -9.1686  -9.1622  -9.1552
    -9.0023  -8.9932  -8.9763  -8.9732  -8.6835  -8.6677  -8.6219  -8.6192
    -8.5912  -8.5760  -8.5715  -8.5639  -8.4988  -8.4919  -8.4736  -8.4699
    -8.3206  -8.3012  -8.2810  -8.2727  -8.2575  -8.2441  -8.2321  -8.2261
    -8.2204  -8.2137  -8.2043  -8.2009  -7.9405  -7.9146  -7.8914  -7.8693
    -7.8614  -7.8373  -7.8343  -7.8197  -7.7746  -7.7639  -7.7625  -7.7560
    -7.6632  -7.6581  -7.6481  -7.6463  -7.6053  -7.5955  -7.5851  -7.5745
    -7.5556  -7.5426  -7.5400  -7.5352  -7.5130  -7.5061  -7.5018  -7.4946
    -7.4776  -7.4647  -7.4548  -7.4466  -7.4393  -7.4354  -7.4140  -7.4003
    -7.3957  -7.3808  -7.3499  -7.3263  -7.0981  -7.0841  -7.0505  -7.0233

     occupation numbers 
     1.0000   1.0000   1.0000   1.0000   1.0000   1.0000   1.0000   1.0000
     1.0000   1.0000   1.0000   1.0000   1.0000   1.0000   1.0000   1.0000
     1.0000   1.0000   1.0000   1.0000   1.0000   1.0000   1.0000   1.0000
     1.0000   1.0000   1.0000   1.0000   1.0000   1.0000   1.0000   1.0000
     1.0000   1.0000   1.0000   1.0000   1.0000   1.0000   1.0000   1.0000
     1.0000   1.0000   1.0000   1.0000   1.0000   1.0000   1.0000   1.0000
     1.0000   1.0000   1.0000   1.0000   1.0000   1.0000   1.0000   1.0000
     1.0000   1.0000   1.0000   1.0000   1.0000   1.0000   1.0000   1.0000
     1.0000   1.0000   1.0000   1.0000   1.0000   1.0000   1.0000   1.0000
     1.0000   1.0000   1.0000   1.0000   1.0000   1.0000   1.0000   1.0000
     1.0000   1.0000   1.0000   1.0000   1.0000   1.0000   1.0000   1.0000
     1.0000   1.0000   1.0000   1.0000   1.0000   1.0000   1.0000   1.0000
     1.0000   1.0000   1.0000   1.0000   1.0000   1.0000   1.0000   1.0000
     1.0000   1.0000   1.0000   1.0000   1.0000   1.0000   1.0000   1.0000
     1.0000   1.0000   1.0000   1.0000   1.0000   1.0000   1.0000   1.0000
     1.0000   1.0000   1.0000   1.0000   1.0000   1.0000   1.0000   1.0000
     1.0000   1.0000   1.0000   1.0000   1.0000   1.0000   1.0000   1.0000
     1.0000   1.0000   1.0000   1.0000   1.0000   1.0000   1.0000   1.0000
     1.0000   1.0000   1.0000   1.0000   1.0000   1.0000   1.0000   1.0000
     1.0000   1.0000   1.0000   1.0000   1.0000   1.0000   1.0000   1.0000
     1.0000   1.0000   1.0000   1.0000   1.0000   1.0000   1.0000   1.0000
     1.0000   1.0000   1.0000   1.0000   1.0000   1.0000   1.0000   1.0000
     1.0000   1.0000   1.0000   1.0000   1.0000   1.0000   1.0000   1.0000
     1.0000   1.0000   1.0000   1.0000   1.0000   1.0000   1.0000   1.0000
     1.0000   1.0000   1.0000   1.0000   1.0000   1.0000   1.0000   1.0000
     1.0000   1.0000   1.0000   1.0000   1.0000   1.0000   1.0000   1.0000
     1.0000   1.0000   1.0000   1.0000   1.0000   1.0000   1.0000   1.0000
     1.0000   1.0000   1.0000   1.0000   1.0000   1.0000   1.0000   1.0000
     1.0000   1.0000   1.0000   1.0000   1.0000   1.0000   1.0000   1.0000
     1.0000   1.0000   1.0000   1.0000   1.0000   1.0000   1.0000   1.0000
     1.0000   1.0000   1.0000   1.0000   1.0000   1.0000   1.0000   1.0000
     1.0000   1.0000   1.0000   1.0000   1.0000   1.0000   1.0000   1.0000
     1.0000   1.0000   1.0000   1.0000   1.0000   1.0000   1.0000   1.0000
     1.0000   1.0000   1.0000   1.0000   1.0000   1.0000   1.0000   1.0000
     1.0000   1.0000   1.0000   1.0000   1.0000   1.0000   1.0000   1.0000
     1.0000   1.0000   1.0000   1.0000   1.0000   1.0000   1.0000   1.0000
     1.0000   1.0000   1.0000   1.0000   1.0000   1.0000   1.0000   1.0000
     1.0000   1.0000   1.0000   1.0000   1.0000   1.0000   1.0000   1.0000
     1.0000   1.0000   1.0000   1.0000   1.0000   1.0000   1.0000   1.0000
     1.0000   1.0000   1.0000   1.0000   1.0000   1.0000   1.0000   1.0000
     1.0000   1.0000   1.0000   1.0000   1.0000   1.0000   1.0000   1.0000
     1.0000   1.0000   1.0000   1.0000   1.0000   1.0000   1.0000   1.0000
     1.0000   1.0000   1.0000   1.0000   1.0000   1.0000   1.0000   1.0000
     1.0000   1.0000   1.0000   1.0000   1.0000   1.0000   1.0000   1.0000

          k =-0.5052 0.1105 0.0000 (360696 PWs)   bands (ev):

   -25.0573 -25.0517 -25.0267 -24.9883 -24.9656 -24.9321 -24.9184 -24.8923
   -24.6090 -24.5788 -24.5530 -24.5189 -24.5134 -24.5101 -24.4928 -24.4837
   -24.2184 -24.2141 -24.1921 -24.1918 -24.1800 -24.1550 -24.1382 -24.1182
   -24.1170 -24.1077 -24.0995 -24.0906 -24.0718 -24.0558 -24.0438 -24.0007
   -23.9150 -23.8912 -23.8764 -23.8751 -23.8590 -23.8493 -23.8396 -23.8280
   -23.8061 -23.7943 -23.7823 -23.7618 -23.7395 -23.7177 -23.7131 -23.6408
   -20.1443 -20.1243 -20.1100 -20.1055 -20.0768 -20.0704 -20.0681 -20.0659
   -20.0571 -20.0517 -20.0318 -20.0305 -20.0279 -20.0061 -20.0060 -19.9989
   -19.9954 -19.9842 -19.9762 -19.9736 -19.9669 -19.9642 -19.9625 -19.9609
   -19.9526 -19.9522 -19.9462 -19.9431 -19.9423 -19.9402 -19.9390 -19.9386
   -19.9278 -19.9275 -19.9266 -19.9244 -19.9165 -19.9155 -19.9146 -19.9098
   -19.9023 -19.9016 -19.8977 -19.8961 -19.8917 -19.8906 -19.8857 -19.8827
   -19.8791 -19.8767 -19.8732 -19.8723 -19.8683 -19.8665 -19.8630 -19.8597
   -19.8536 -19.8521 -19.8493 -19.8491 -19.8453 -19.8448 -19.8437 -19.8378
   -19.8373 -19.8338 -19.8293 -19.8268 -19.8231 -19.8221 -19.8204 -19.8179
   -19.8169 -19.8134 -19.8121 -19.8104 -19.8092 -19.8050 -19.8006 -19.7971
   -19.7957 -19.7948 -19.7920 -19.7912 -19.7906 -19.7844 -19.7830 -19.7789
   -19.7740 -19.7732 -19.7666 -19.7614 -19.7592 -19.7558 -19.7523 -19.7458
   -19.7423 -19.7372 -19.7354 -19.7333 -19.7315 -19.7261 -19.7151 -19.7130
   -19.7125 -19.7041 -19.6997 -19.6899 -19.6854 -19.6694 -19.6647 -19.6599
   -19.6516 -19.6442 -19.6435 -19.6299 -19.6047 -19.5989 -19.5785 -19.5591
   -19.5219 -19.5151 -19.5089 -19.5072 -19.4726 -19.4678 -19.4671 -19.4556
   -19.4114 -19.3922 -19.3790 -19.3669 -19.2929 -19.2831 -19.2805 -19.2660
   -19.2019 -19.1899 -19.1891 -19.1856 -19.1495 -19.1448 -19.1384 -19.1364
   -19.0965 -19.0921 -19.0843 -19.0701 -19.0281 -19.0112 -18.9970 -18.9950
   -18.9776 -18.9770 -18.9668 -18.9525 -18.9453 -18.9407 -18.9407 -18.9022
   -13.0307 -13.0067 -12.9964 -12.9769 -12.8753 -12.8663 -12.8645 -12.8550
   -12.8232 -12.8074 -12.8020 -12.7806 -12.2084 -12.1951 -12.1730 -12.1585
   -12.0850 -12.0746 -12.0534 -12.0328 -11.8413 -11.8359 -11.8091 -11.7810
   -10.9058 -10.9021 -10.8888 -10.8727 -10.7681 -10.7508 -10.7363 -10.7106
   -10.6850 -10.6712 -10.6575 -10.6517 -10.6138 -10.6093 -10.5809 -10.5726
   -10.5576 -10.5476 -10.5326 -10.5098 -10.3889 -10.3720 -10.3495 -10.3186
   -10.0750 -10.0635 -10.0553 -10.0272  -9.8309  -9.8057  -9.7696  -9.7487
    -9.6128  -9.6106  -9.5742  -9.5335  -9.1641  -9.1557  -9.1450  -9.1071
    -9.0913  -9.0854  -9.0668  -9.0627  -9.0254  -9.0126  -8.9857  -8.9613
    -8.9362  -8.9229  -8.9164  -8.8871  -8.8118  -8.7931  -8.7798  -8.7639
    -8.7316  -8.7286  -8.7232  -8.7140  -8.6870  -8.6751  -8.6727  -8.6614
    -8.3931  -8.3874  -8.3575  -8.3347  -8.3279  -8.2953  -8.2859  -8.2352
    -7.9981  -7.9766  -7.9693  -7.9452  -7.9340  -7.9288  -7.9240  -7.9239
    -7.9181  -7.9132  -7.8981  -7.8935  -7.7240  -7.7028  -7.6998  -7.6910
    -7.6848  -7.6799  -7.6700  -7.6657  -7.6469  -7.6360  -7.6189  -7.5924
    -7.5696  -7.5378  -7.5243  -7.4934  -7.4734  -7.4689  -7.4603  -7.4477
    -7.4309  -7.4203  -7.4061  -7.4016  -7.3857  -7.3614  -7.3470  -7.3231
    -7.3013  -7.2752  -7.2603  -7.2559  -7.2453  -7.2358  -7.1978  -7.1585

     occupation numbers 
     1.0000   1.0000   1.0000   1.0000   1.0000   1.0000   1.0000   1.0000
     1.0000   1.0000   1.0000   1.0000   1.0000   1.0000   1.0000   1.0000
     1.0000   1.0000   1.0000   1.0000   1.0000   1.0000   1.0000   1.0000
     1.0000   1.0000   1.0000   1.0000   1.0000   1.0000   1.0000   1.0000
     1.0000   1.0000   1.0000   1.0000   1.0000   1.0000   1.0000   1.0000
     1.0000   1.0000   1.0000   1.0000   1.0000   1.0000   1.0000   1.0000
     1.0000   1.0000   1.0000   1.0000   1.0000   1.0000   1.0000   1.0000
     1.0000   1.0000   1.0000   1.0000   1.0000   1.0000   1.0000   1.0000
     1.0000   1.0000   1.0000   1.0000   1.0000   1.0000   1.0000   1.0000
     1.0000   1.0000   1.0000   1.0000   1.0000   1.0000   1.0000   1.0000
     1.0000   1.0000   1.0000   1.0000   1.0000   1.0000   1.0000   1.0000
     1.0000   1.0000   1.0000   1.0000   1.0000   1.0000   1.0000   1.0000
     1.0000   1.0000   1.0000   1.0000   1.0000   1.0000   1.0000   1.0000
     1.0000   1.0000   1.0000   1.0000   1.0000   1.0000   1.0000   1.0000
     1.0000   1.0000   1.0000   1.0000   1.0000   1.0000   1.0000   1.0000
     1.0000   1.0000   1.0000   1.0000   1.0000   1.0000   1.0000   1.0000
     1.0000   1.0000   1.0000   1.0000   1.0000   1.0000   1.0000   1.0000
     1.0000   1.0000   1.0000   1.0000   1.0000   1.0000   1.0000   1.0000
     1.0000   1.0000   1.0000   1.0000   1.0000   1.0000   1.0000   1.0000
     1.0000   1.0000   1.0000   1.0000   1.0000   1.0000   1.0000   1.0000
     1.0000   1.0000   1.0000   1.0000   1.0000   1.0000   1.0000   1.0000
     1.0000   1.0000   1.0000   1.0000   1.0000   1.0000   1.0000   1.0000
     1.0000   1.0000   1.0000   1.0000   1.0000   1.0000   1.0000   1.0000
     1.0000   1.0000   1.0000   1.0000   1.0000   1.0000   1.0000   1.0000
     1.0000   1.0000   1.0000   1.0000   1.0000   1.0000   1.0000   1.0000
     1.0000   1.0000   1.0000   1.0000   1.0000   1.0000   1.0000   1.0000
     1.0000   1.0000   1.0000   1.0000   1.0000   1.0000   1.0000   1.0000
     1.0000   1.0000   1.0000   1.0000   1.0000   1.0000   1.0000   1.0000
     1.0000   1.0000   1.0000   1.0000   1.0000   1.0000   1.0000   1.0000
     1.0000   1.0000   1.0000   1.0000   1.0000   1.0000   1.0000   1.0000
     1.0000   1.0000   1.0000   1.0000   1.0000   1.0000   1.0000   1.0000
     1.0000   1.0000   1.0000   1.0000   1.0000   1.0000   1.0000   1.0000
     1.0000   1.0000   1.0000   1.0000   1.0000   1.0000   1.0000   1.0000
     1.0000   1.0000   1.0000   1.0000   1.0000   1.0000   1.0000   1.0000
     1.0000   1.0000   1.0000   1.0000   1.0000   1.0000   1.0000   1.0000
     1.0000   1.0000   1.0000   1.0000   1.0000   1.0000   1.0000   1.0000
     1.0000   1.0000   1.0000   1.0000   1.0000   1.0000   1.0000   1.0000
     1.0000   1.0000   1.0000   1.0000   1.0000   1.0000   1.0000   1.0000
     1.0000   1.0000   1.0000   1.0000   1.0000   1.0000   1.0000   1.0000
     1.0000   1.0000   1.0000   1.0000   1.0000   1.0000   1.0000   1.0000
     1.0000   1.0000   1.0000   1.0000   1.0000   1.0000   1.0000   1.0000
     1.0000   1.0000   1.0000   1.0000   1.0000   1.0000   1.0000   1.0000
     1.0000   1.0000   1.0000   1.0000   1.0000   1.0000   1.0000   1.0000
     1.0000   1.0000   1.0000   1.0000   1.0000   1.0000   1.0000   1.0000

          k =-0.4805-0.4620 0.0000 (360682 PWs)   bands (ev):

   -25.0442 -25.0360 -25.0063 -25.0026 -24.9584 -24.9580 -24.9271 -24.9137
   -24.6111 -24.5858 -24.5530 -24.5375 -24.5109 -24.4908 -24.4832 -24.4829
   -24.2135 -24.2108 -24.1830 -24.1812 -24.1801 -24.1579 -24.1234 -24.1179
   -24.1158 -24.1077 -24.0992 -24.0855 -24.0646 -24.0596 -24.0591 -24.0116
   -23.9153 -23.8990 -23.8790 -23.8722 -23.8717 -23.8473 -23.8401 -23.8208
   -23.8104 -23.7983 -23.7835 -23.7584 -23.7404 -23.7191 -23.7088 -23.6392
   -20.1320 -20.1112 -20.1100 -20.0909 -20.0857 -20.0810 -20.0778 -20.0663
   -20.0606 -20.0521 -20.0375 -20.0308 -20.0308 -20.0062 -20.0058 -19.9967
   -19.9891 -19.9838 -19.9812 -19.9800 -19.9653 -19.9642 -19.9611 -19.9585
   -19.9528 -19.9524 -19.9453 -19.9451 -19.9441 -19.9395 -19.9388 -19.9320
   -19.9307 -19.9306 -19.9275 -19.9237 -19.9195 -19.9185 -19.9129 -19.9089
   -19.9045 -19.9028 -19.8980 -19.8959 -19.8924 -19.8875 -19.8849 -19.8825
   -19.8813 -19.8802 -19.8771 -19.8764 -19.8736 -19.8673 -19.8671 -19.8630
   -19.8555 -19.8547 -19.8527 -19.8473 -19.8462 -19.8454 -19.8409 -19.8385
   -19.8383 -19.8351 -19.8328 -19.8285 -19.8224 -19.8217 -19.8190 -19.8174
   -19.8148 -19.8136 -19.8093 -19.8085 -19.8071 -19.8012 -19.7989 -19.7968
   -19.7955 -19.7928 -19.7915 -19.7900 -19.7885 -19.7880 -19.7819 -19.7813
   -19.7725 -19.7716 -19.7650 -19.7597 -19.7588 -19.7566 -19.7482 -19.7458
   -19.7436 -19.7378 -19.7363 -19.7309 -19.7289 -19.7274 -19.7168 -19.7130
   -19.7127 -19.7010 -19.6986 -19.6926 -19.6861 -19.6630 -19.6630 -19.6617
   -19.6530 -19.6496 -19.6426 -19.6332 -19.6078 -19.6068 -19.5842 -19.5674
   -19.5245 -19.5239 -19.5175 -19.5173 -19.4605 -19.4501 -19.4424 -19.4343
   -19.3411 -19.3337 -19.3308 -19.3173 -19.3029 -19.3012 -19.2995 -19.2902
   -19.2552 -19.2436 -19.2323 -19.2272 -19.1743 -19.1633 -19.1613 -19.1491
   -19.0726 -19.0466 -19.0441 -19.0405 -19.0240 -19.0236 -19.0005 -18.9915
   -18.9863 -18.9807 -18.9687 -18.9674 -18.9455 -18.9410 -18.9319 -18.9039
   -13.1228 -13.1164 -13.0990 -13.0870 -12.6705 -12.6656 -12.6490 -12.6267
   -12.6228 -12.6149 -12.5973 -12.5789 -12.3743 -12.3580 -12.3492 -12.3325
   -12.2504 -12.2430 -12.2180 -12.1976 -11.9943 -11.9826 -11.9684 -11.9662
   -10.8161 -10.8094 -10.7982 -10.7860 -10.7841 -10.7728 -10.7613 -10.7502
   -10.7218 -10.6909 -10.6720 -10.6557 -10.5200 -10.4888 -10.4723 -10.4547
   -10.4198 -10.4027 -10.3941 -10.3863 -10.3783 -10.3708 -10.3487 -10.3409
   -10.0023  -9.9982  -9.9806  -9.9691  -9.7963  -9.7822  -9.7690  -9.7613
    -9.5569  -9.5449  -9.5309  -9.5227  -9.3680  -9.3377  -9.3317  -9.3252
    -9.2568  -9.2498  -9.2330  -9.2325  -8.9515  -8.9506  -8.9401  -8.9221
    -8.9197  -8.9065  -8.9001  -8.8861  -8.8752  -8.8672  -8.8277  -8.8250
    -8.7731  -8.7706  -8.7507  -8.7450  -8.5849  -8.5841  -8.5617  -8.5596
    -8.3357  -8.3100  -8.3080  -8.2914  -8.2711  -8.2536  -8.2382  -8.2098
    -7.9641  -7.9615  -7.9435  -7.9327  -7.8834  -7.8734  -7.8681  -7.8654
    -7.8589  -7.8431  -7.8210  -7.8149  -7.7763  -7.7613  -7.7509  -7.7293
    -7.7191  -7.7109  -7.6866  -7.6826  -7.6692  -7.6655  -7.6455  -7.6453
    -7.5809  -7.5766  -7.5576  -7.5319  -7.5164  -7.5035  -7.4957  -7.4758
    -7.4645  -7.4600  -7.4438  -7.4341  -7.3955  -7.3772  -7.3461  -7.3222
    -7.2958  -7.2592  -7.2544  -7.2475  -7.2451  -7.2397  -7.1953  -7.1559

     occupation numbers 
     1.0000   1.0000   1.0000   1.0000   1.0000   1.0000   1.0000   1.0000
     1.0000   1.0000   1.0000   1.0000   1.0000   1.0000   1.0000   1.0000
     1.0000   1.0000   1.0000   1.0000   1.0000   1.0000   1.0000   1.0000
     1.0000   1.0000   1.0000   1.0000   1.0000   1.0000   1.0000   1.0000
     1.0000   1.0000   1.0000   1.0000   1.0000   1.0000   1.0000   1.0000
     1.0000   1.0000   1.0000   1.0000   1.0000   1.0000   1.0000   1.0000
     1.0000   1.0000   1.0000   1.0000   1.0000   1.0000   1.0000   1.0000
     1.0000   1.0000   1.0000   1.0000   1.0000   1.0000   1.0000   1.0000
     1.0000   1.0000   1.0000   1.0000   1.0000   1.0000   1.0000   1.0000
     1.0000   1.0000   1.0000   1.0000   1.0000   1.0000   1.0000   1.0000
     1.0000   1.0000   1.0000   1.0000   1.0000   1.0000   1.0000   1.0000
     1.0000   1.0000   1.0000   1.0000   1.0000   1.0000   1.0000   1.0000
     1.0000   1.0000   1.0000   1.0000   1.0000   1.0000   1.0000   1.0000
     1.0000   1.0000   1.0000   1.0000   1.0000   1.0000   1.0000   1.0000
     1.0000   1.0000   1.0000   1.0000   1.0000   1.0000   1.0000   1.0000
     1.0000   1.0000   1.0000   1.0000   1.0000   1.0000   1.0000   1.0000
     1.0000   1.0000   1.0000   1.0000   1.0000   1.0000   1.0000   1.0000
     1.0000   1.0000   1.0000   1.0000   1.0000   1.0000   1.0000   1.0000
     1.0000   1.0000   1.0000   1.0000   1.0000   1.0000   1.0000   1.0000
     1.0000   1.0000   1.0000   1.0000   1.0000   1.0000   1.0000   1.0000
     1.0000   1.0000   1.0000   1.0000   1.0000   1.0000   1.0000   1.0000
     1.0000   1.0000   1.0000   1.0000   1.0000   1.0000   1.0000   1.0000
     1.0000   1.0000   1.0000   1.0000   1.0000   1.0000   1.0000   1.0000
     1.0000   1.0000   1.0000   1.0000   1.0000   1.0000   1.0000   1.0000
     1.0000   1.0000   1.0000   1.0000   1.0000   1.0000   1.0000   1.0000
     1.0000   1.0000   1.0000   1.0000   1.0000   1.0000   1.0000   1.0000
     1.0000   1.0000   1.0000   1.0000   1.0000   1.0000   1.0000   1.0000
     1.0000   1.0000   1.0000   1.0000   1.0000   1.0000   1.0000   1.0000
     1.0000   1.0000   1.0000   1.0000   1.0000   1.0000   1.0000   1.0000
     1.0000   1.0000   1.0000   1.0000   1.0000   1.0000   1.0000   1.0000
     1.0000   1.0000   1.0000   1.0000   1.0000   1.0000   1.0000   1.0000
     1.0000   1.0000   1.0000   1.0000   1.0000   1.0000   1.0000   1.0000
     1.0000   1.0000   1.0000   1.0000   1.0000   1.0000   1.0000   1.0000
     1.0000   1.0000   1.0000   1.0000   1.0000   1.0000   1.0000   1.0000
     1.0000   1.0000   1.0000   1.0000   1.0000   1.0000   1.0000   1.0000
     1.0000   1.0000   1.0000   1.0000   1.0000   1.0000   1.0000   1.0000
     1.0000   1.0000   1.0000   1.0000   1.0000   1.0000   1.0000   1.0000
     1.0000   1.0000   1.0000   1.0000   1.0000   1.0000   1.0000   1.0000
     1.0000   1.0000   1.0000   1.0000   1.0000   1.0000   1.0000   1.0000
     1.0000   1.0000   1.0000   1.0000   1.0000   1.0000   1.0000   1.0000
     1.0000   1.0000   1.0000   1.0000   1.0000   1.0000   1.0000   1.0000
     1.0000   1.0000   1.0000   1.0000   1.0000   1.0000   1.0000   1.0000
     1.0000   1.0000   1.0000   1.0000   1.0000   1.0000   1.0000   1.0000
     1.0000   1.0000   1.0000   1.0000   1.0000   1.0000   1.0000   1.0000

     highest occupied level (ev):    -7.0233

!    total energy              =  -10896.05129684 Ry
     estimated scf accuracy    <          9.5E-09 Ry

     convergence has been achieved in  29 iterations

     negative rho (up, down):  3.334E-03 0.000E+00

     Forces acting on atoms (cartesian axes, Ry/au):

     atom    1 type  1   force =    -0.00524442    0.00711766   -0.00037027
     atom    2 type  1   force =    -0.01918834   -0.00667450    0.00239159
     atom    3 type  2   force =    -0.00216892   -0.00147292   -0.00134881
     atom    4 type  2   force =     0.00187203    0.00236507   -0.00035012
     atom    5 type  2   force =     0.02017301    0.00563148   -0.00063314
     atom    6 type  1   force =    -0.00003840    0.01541772   -0.00276254
     atom    7 type  1   force =     0.00720579    0.01917417   -0.00441113
     atom    8 type  2   force =    -0.00605621   -0.00490116   -0.00062918
     atom    9 type  2   force =     0.00155117   -0.02833131    0.00614117
     atom   10 type  2   force =     0.00060736    0.00071545    0.00487246
     atom   11 type  1   force =    -0.00677918    0.00436461   -0.00079557
     atom   12 type  1   force =    -0.00362681    0.00240303    0.00533173
     atom   13 type  2   force =    -0.01512093   -0.00021415    0.00026459
     atom   14 type  2   force =     0.00302787   -0.01160067    0.00196049
     atom   15 type  2   force =     0.01411678    0.00142345   -0.00499296
     atom   16 type  1   force =    -0.00433667    0.01056177    0.00544417
     atom   17 type  1   force =    -0.01320257   -0.00024850    0.00505475
     atom   18 type  2   force =     0.00902340    0.00010925   -0.00533234
     atom   19 type  2   force =     0.00514268   -0.01805190    0.00254545
     atom   20 type  2   force =     0.00294432    0.00309924   -0.00672764
     atom   21 type  1   force =    -0.00900078    0.00713067   -0.00440517
     atom   22 type  1   force =    -0.00664122   -0.01169719   -0.00091354
     atom   23 type  2   force =     0.00162156   -0.00322489   -0.00426514
     atom   24 type  2   force =    -0.00254890    0.03207174   -0.00549847
     atom   25 type  2   force =    -0.00088474    0.00392954    0.00649227
     atom   26 type  1   force =    -0.00941777   -0.00341083    0.00275931
     atom   27 type  1   force =    -0.00079163    0.01586882   -0.00022854
     atom   28 type  2   force =    -0.00300170   -0.00061184   -0.00558747
     atom   29 type  2   force =     0.00278051   -0.03777550    0.00726912
     atom   30 type  2   force =     0.00221075    0.00317313   -0.00640225
     atom   31 type  1   force =     0.00195250   -0.01820026    0.00616060
     atom   32 type  1   force =    -0.01175864   -0.00999641    0.00288208
     atom   33 type  2   force =     0.00818715   -0.00066565    0.00446101
     atom   34 type  2   force =     0.00401003    0.00161345   -0.00095877
     atom   35 type  2   force =     0.01937432   -0.00391781   -0.00386431
     atom   36 type  1   force =    -0.00420227    0.01536945   -0.00019861
     atom   37 type  1   force =     0.01301891    0.00210212    0.00411701
     atom   38 type  2   force =    -0.00700925    0.00279440   -0.00524252
     atom   39 type  2   force =    -0.00302221    0.01225363   -0.00501653
     atom   40 type  2   force =    -0.00731692   -0.00898691   -0.00248483
     atom   41 type  1   force =    -0.00108542   -0.00425626   -0.00608608
     atom   42 type  1   force =     0.00763936   -0.01274382   -0.00845438
     atom   43 type  2   force =     0.00345034    0.00081824    0.00477352
     atom   44 type  2   force =    -0.00158516    0.01554334   -0.00155745
     atom   45 type  2   force =    -0.00852225    0.00049701    0.01070440
     atom   46 type  1   force =     0.00311059   -0.00959781    0.00332505
     atom   47 type  1   force =    -0.00281949   -0.01661763    0.00782663
     atom   48 type  2   force =     0.01485494   -0.00849234   -0.00129192
     atom   49 type  2   force =    -0.00326755    0.03444901   -0.00724830
     atom   50 type  2   force =    -0.00419136    0.00294544   -0.00017734
     atom   51 type  1   force =     0.00623189   -0.00530452   -0.00009600
     atom   52 type  1   force =     0.00091054    0.00685043   -0.00545355
     atom   53 type  2   force =    -0.00539056    0.00017061   -0.00037289
     atom   54 type  2   force =    -0.00227654    0.00873924   -0.00193984
     atom   55 type  2   force =    -0.00913789   -0.00649177    0.00538265
     atom   56 type  1   force =     0.00565625   -0.02246825    0.00830857
     atom   57 type  1   force =    -0.00219169   -0.00283567    0.00348851
     atom   58 type  2   force =     0.00498913    0.00416163   -0.00098410
     atom   59 type  2   force =    -0.00147566    0.01768879   -0.00530719
     atom   60 type  2   force =     0.00108810   -0.00174042   -0.00340299
     atom   61 type  1   force =     0.01097590   -0.01630750   -0.00193050
     atom   62 type  1   force =    -0.00110169   -0.01414480   -0.00503462
     atom   63 type  2   force =     0.00329089   -0.00387829    0.00580743
     atom   64 type  2   force =     0.00206294   -0.00365746    0.00294735
     atom   65 type  2   force =     0.00505258    0.00587754    0.00846374
     atom   66 type  1   force =     0.00003362    0.01004902   -0.00470045
     atom   67 type  1   force =     0.01310915   -0.00883746   -0.00358647
     atom   68 type  2   force =     0.00022610    0.00123107    0.00060592
     atom   69 type  2   force =    -0.00308991    0.02611439   -0.00475637
     atom   70 type  2   force =    -0.01598904   -0.00281142    0.00837161
     atom   71 type  1   force =     0.00988610    0.00837573   -0.00078740
     atom   72 type  1   force =     0.01062634    0.00592574   -0.00292042
     atom   73 type  2   force =    -0.00299633    0.00011359   -0.00279791
     atom   74 type  2   force =    -0.00580432    0.01223897   -0.00248851
     atom   75 type  2   force =    -0.01358335   -0.00000559    0.00188958
     atom   76 type  1   force =    -0.00314998   -0.01472903    0.00297647
     atom   77 type  1   force =    -0.00001744   -0.00159459    0.00136965
     atom   78 type  2   force =    -0.00550328    0.00893212    0.00342616
     atom   79 type  2   force =     0.00029939   -0.01534892    0.00218940
     atom   80 type  2   force =     0.01222310    0.00243423   -0.00520997
     The non-local contrib.  to forces
     atom    1 type  1   force =     0.14379877   -0.08591588    0.04858135
     atom    2 type  1   force =     0.06092456    0.10244445   -0.04337750
     atom    3 type  2   force =    -0.08531889    0.29952874   -1.03335805
     atom    4 type  2   force =     0.84167583    0.08067108   -0.01699484
     atom    5 type  2   force =    -0.05575507   -0.31825762    1.04413646
     atom    6 type  1   force =     0.11650291   -0.05387733    0.04768870
     atom    7 type  1   force =     0.07301588    0.09565311   -0.01611906
     atom    8 type  2   force =    -0.08996976    0.31045081   -1.03029835
     atom    9 type  2   force =     0.81290158    0.11049182    0.06497664
     atom   10 type  2   force =    -0.02835660   -0.30911694    1.06324963
     atom   11 type  1   force =     0.13618760   -0.05758100    0.01852016
     atom   12 type  1   force =     0.06309148    0.06659051   -0.05832758
     atom   13 type  2   force =    -0.09061674    0.30528213   -1.01424557
     atom   14 type  2   force =     0.85316922    0.06907388   -0.00169850
     atom   15 type  2   force =    -0.04676013   -0.33647165    1.02055588
     atom   16 type  1   force =     0.11568129   -0.05179319    0.04568333
     atom   17 type  1   force =     0.09002554    0.12922783   -0.08207284
     atom   18 type  2   force =    -0.08660019    0.33160980   -1.05669851
     atom   19 type  2   force =     0.83158619    0.09605643   -0.01421691
     atom   20 type  2   force =    -0.04121144   -0.32315089    1.02576479
     atom   21 type  1   force =     0.12455799   -0.09473295    0.05022394
     atom   22 type  1   force =     0.04872695    0.08285401   -0.04089042
     atom   23 type  2   force =    -0.08333802    0.27845897   -1.05795151
     atom   24 type  2   force =     0.83416901    0.05798514    0.02195298
     atom   25 type  2   force =    -0.05062969   -0.31711080    1.06924670
     atom   26 type  1   force =     0.09898457   -0.06623438    0.02434319
     atom   27 type  1   force =     0.06784914    0.11571723   -0.06938245
     atom   28 type  2   force =    -0.09965378    0.30050708   -1.05490062
     atom   29 type  2   force =     0.81294636    0.10399018   -0.00840504
     atom   30 type  2   force =    -0.01555890   -0.31630395    1.00538444
     atom   31 type  1   force =     0.13925504   -0.07490193    0.07965489
     atom   32 type  1   force =     0.06575945    0.05450934   -0.06890882
     atom   33 type  2   force =    -0.10685370    0.28769225   -1.02408286
     atom   34 type  2   force =     0.84460209    0.05389459   -0.03342353
     atom   35 type  2   force =    -0.05554669   -0.32923733    1.02245575
     atom   36 type  1   force =     0.09683853   -0.01265614    0.04636691
     atom   37 type  1   force =     0.05480810    0.08575084   -0.08804492
     atom   38 type  2   force =    -0.10049540    0.32697319   -1.05397449
     atom   39 type  2   force =     0.78969214    0.07348117   -0.03928309
     atom   40 type  2   force =    -0.04526127   -0.32642730    1.02063207
     atom   41 type  1   force =     0.07278562   -0.07275651    0.07181784
     atom   42 type  1   force =     0.05730428    0.08663546   -0.03808573
     atom   43 type  2   force =    -0.10569279    0.28089376   -1.03732400
     atom   44 type  2   force =     0.80280586    0.06207826    0.01930806
     atom   45 type  2   force =    -0.04581342   -0.30120116    1.07960812
     atom   46 type  1   force =     0.12320020   -0.09854107    0.05951343
     atom   47 type  1   force =     0.07837880    0.08228778   -0.05263097
     atom   48 type  2   force =    -0.09251437    0.30700841   -1.04539896
     atom   49 type  2   force =     0.81346095    0.03856769   -0.00279819
     atom   50 type  2   force =    -0.05957873   -0.32837938    1.03328423
     atom   51 type  1   force =     0.11259199   -0.07168798    0.06516924
     atom   52 type  1   force =     0.06220215    0.06996410   -0.08440591
     atom   53 type  2   force =    -0.08430317    0.28926223   -1.04187369
     atom   54 type  2   force =     0.81106458    0.07054669   -0.02275983
     atom   55 type  2   force =    -0.02273044   -0.34471467    1.05818249
     atom   56 type  1   force =     0.10245851   -0.06838701    0.06556555
     atom   57 type  1   force =     0.05328214    0.04193480   -0.06685025
     atom   58 type  2   force =    -0.10897572    0.30711368   -1.03726988
     atom   59 type  2   force =     0.82607998    0.05450678    0.00169574
     atom   60 type  2   force =    -0.05631322   -0.32245155    1.02283771
     atom   61 type  1   force =     0.09058365   -0.07928858    0.06675904
     atom   62 type  1   force =     0.04340243    0.10170388   -0.01045612
     atom   63 type  2   force =    -0.10933129    0.29081946   -1.02445294
     atom   64 type  2   force =     0.79334317    0.07936344    0.05270174
     atom   65 type  2   force =    -0.06724371   -0.30419522    1.05875686
     atom   66 type  1   force =     0.08701580   -0.07708837    0.08107380
     atom   67 type  1   force =     0.07105683    0.08226103   -0.05619298
     atom   68 type  2   force =    -0.08749183    0.27807155   -1.03249013
     atom   69 type  2   force =     0.80251576    0.07319547    0.05144287
     atom   70 type  2   force =    -0.03280471   -0.31210586    1.06296266
     atom   71 type  1   force =     0.09065614   -0.06674974    0.07646315
     atom   72 type  1   force =     0.05742568    0.07841629   -0.05310396
     atom   73 type  2   force =    -0.08280419    0.31374391   -1.05335575
     atom   74 type  2   force =     0.78542222    0.07033469    0.02371296
     atom   75 type  2   force =    -0.04695624   -0.30411948    1.02852835
     atom   76 type  1   force =     0.10846259   -0.05123687    0.06221097
     atom   77 type  1   force =     0.03787342    0.06996073   -0.09775701
     atom   78 type  2   force =    -0.10365299    0.29889349   -1.02087414
     atom   79 type  2   force =     0.79039621    0.07134741   -0.02399576
     atom   80 type  2   force =    -0.02823742   -0.30981905    1.00531684
     The ionic contribution  to forces
     atom    1 type  1   force =     1.47845363   11.29817252  -89.20605987
     atom    2 type  1   force =     1.21478234  -10.97041690 -128.83520156
     atom    3 type  2   force =     0.05366772   -0.57908280  -15.25857548
     atom    4 type  2   force =    -3.64924157   -0.13411303  -50.12657794
     atom    5 type  2   force =     0.59334240    0.73468353  -85.52618609
     atom    6 type  1   force =     1.31498502   11.51875261  129.14930597
     atom    7 type  1   force =     1.71643314  -10.60491376   89.47565842
     atom    8 type  2   force =     0.04733746   -0.87958285   85.83790186
     atom    9 type  2   force =    -3.44984815   -0.80856036   49.04984800
     atom   10 type  2   force =     0.06646805    0.65635332   14.95568616
     atom   11 type  1   force =     1.08739324   11.56874144  -89.62556927
     atom   12 type  1   force =     1.60289847  -10.90496515 -129.72052686
     atom   13 type  2   force =    -0.16933259   -0.54086273  -15.34648748
     atom   14 type  2   force =    -3.54339501   -0.41800664  -50.55728470
     atom   15 type  2   force =     0.37229845    0.79113482  -85.80641902
     atom   16 type  1   force =     1.28366230   11.45899373  129.56151627
     atom   17 type  1   force =     1.54958101  -10.93529582   88.26421188
     atom   18 type  2   force =     0.37584890   -0.88073201   86.03130226
     atom   19 type  2   force =    -3.40972397   -0.60979819   50.10974186
     atom   20 type  2   force =     0.17730656    0.59574006   15.51932402
     atom   21 type  1   force =     1.18323647   11.32209373  -89.21178703
     atom   22 type  1   force =     1.62696965  -10.98362709 -128.60900528
     atom   23 type  2   force =     0.21718987   -0.55138780  -15.07227126
     atom   24 type  2   force =    -3.52289617    0.58711666  -50.56688442
     atom   25 type  2   force =     0.08062979    0.74404841  -86.00906849
     atom   26 type  1   force =     0.90946963   10.99671753  129.21026355
     atom   27 type  1   force =     1.80952101  -10.65295849   89.15077259
     atom   28 type  2   force =     0.15834176   -0.74120789   85.96788116
     atom   29 type  2   force =    -3.36503934   -1.04756647   50.43046136
     atom   30 type  2   force =     0.08118108    0.43647032   15.70643044
     atom   31 type  1   force =     1.68018647   10.92877143  -88.80046333
     atom   32 type  1   force =     1.81162164  -11.46176020 -129.49979653
     atom   33 type  2   force =     0.46239182   -0.54584599  -15.34586185
     atom   34 type  2   force =    -3.42739089   -0.09113668  -49.82627965
     atom   35 type  2   force =     0.59407198    0.62457121  -85.44258477
     atom   36 type  1   force =     1.16412893   11.68094019  129.43457831
     atom   37 type  1   force =     2.10066624  -10.95682706   88.34651466
     atom   38 type  2   force =     0.14988800   -0.87576693   85.97976980
     atom   39 type  2   force =    -3.43367112    0.15817450   50.47809314
     atom   40 type  2   force =    -0.00480400    0.53680861   15.31776364
     atom   41 type  1   force =     1.01150999   11.00593162  -89.28942430
     atom   42 type  1   force =     2.04520584  -11.22541565 -128.89984912
     atom   43 type  2   force =     0.36764875   -0.51682010  -15.39993925
     atom   44 type  2   force =    -3.35658248    0.21107703  -50.37194609
     atom   45 type  2   force =    -0.06962527    0.60553366  -86.21712976
     atom   46 type  1   force =     1.72069596   10.72828929  129.63828083
     atom   47 type  1   force =     1.94852478  -11.36176988   88.87077700
     atom   48 type  2   force =     0.57648982   -0.99034701   85.88073845
     atom   49 type  2   force =    -3.45066637    0.72329582   50.31759372
     atom   50 type  2   force =     0.19852002    0.54658244   15.47806423
     atom   51 type  1   force =     1.51625693   11.22548384  -88.74752825
     atom   52 type  1   force =     1.73700474  -10.85797222 -129.40210055
     atom   53 type  2   force =     0.08927878   -0.65589719  -15.25467880
     atom   54 type  2   force =    -3.55633324    0.05409362  -50.06986575
     atom   55 type  2   force =    -0.18964271    0.87719547  -86.08886957
     atom   56 type  1   force =     1.41213831   10.86801334  129.54406068
     atom   57 type  1   force =     1.73760757  -11.32860683   88.97680775
     atom   58 type  2   force =     0.41716152   -0.79966523   85.93426884
     atom   59 type  2   force =    -3.42317246    0.34784185   49.98061835
     atom   60 type  2   force =     0.17225458    0.50612283   15.42862223
     atom   61 type  1   force =     1.55683738   10.62827870  -89.22647948
     atom   62 type  1   force =     1.70701520  -11.33663118 -128.78340361
     atom   63 type  2   force =     0.33438155   -0.61166188  -15.42951876
     atom   64 type  2   force =    -3.29367630   -0.29605189  -51.00172754
     atom   65 type  2   force =     0.36739645    0.64106167  -85.82855995
     atom   66 type  1   force =     1.07605398   11.10327139  129.74459340
     atom   67 type  1   force =     2.11835844  -11.06985012   89.62563712
     atom   68 type  2   force =     0.25110247   -0.66996651   85.54098972
     atom   69 type  2   force =    -3.46496489    0.46220686   49.48232618
     atom   70 type  2   force =    -0.33330531    0.60192532   15.12532384
     atom   71 type  1   force =     1.40827860   11.50478266  -88.54703957
     atom   72 type  1   force =     1.89445195  -10.61386090 -129.57639309
     atom   73 type  2   force =     0.19923872   -0.70128553  -14.89972362
     atom   74 type  2   force =    -3.45850940    0.06958103  -50.95084013
     atom   75 type  2   force =    -0.14857092    0.70700461  -85.39441212
     atom   76 type  1   force =     1.22986631   11.06877483  129.54252618
     atom   77 type  1   force =     1.61928366  -11.30185522   88.84735248
     atom   78 type  2   force =     0.17088930   -0.60739189   85.61229561
     atom   79 type  2   force =    -3.38062948   -0.47411388   50.69870337
     atom   80 type  2   force =     0.25361698    0.46894546   15.52571485
     The local contribution  to forces
     atom    1 type  1   force =    -1.62745029  -11.20774642   89.15762318
     atom    2 type  1   force =    -1.29655551   10.86408020  128.88060635
     atom    3 type  2   force =     0.02862646    0.28089713   16.28232239
     atom    4 type  2   force =     2.81717944    0.05658074   50.14306629
     atom    5 type  2   force =    -0.51777065   -0.41373356   84.48976162
     atom    6 type  1   force =    -1.43153544  -11.45112105 -129.19942981
     atom    7 type  1   force =    -1.78235653   10.53229318  -89.46443059
     atom    8 type  2   force =     0.03566348    0.56710061  -84.81647890
     atom    9 type  2   force =     2.64598205    0.67050066  -49.10805758
     atom   10 type  2   force =    -0.03779185   -0.34940897  -16.00550741
     atom   11 type  1   force =    -1.23054132  -11.50921496   89.60621217
     atom   12 type  1   force =    -1.67048539   10.84351723  129.78379032
     atom   13 type  2   force =     0.24382715    0.23823651   16.35291672
     atom   14 type  2   force =     2.70111446    0.33788633   50.56094212
     atom   15 type  2   force =    -0.31176068   -0.45636962   84.78896992
     atom   16 type  1   force =    -1.40388772  -11.39853892 -129.60114971
     atom   17 type  1   force =    -1.65378760   10.80922403  -88.17781442
     atom   18 type  2   force =    -0.28098724    0.55232534  -84.98845032
     atom   19 type  2   force =     2.59098011    0.49640931  -50.09309424
     atom   20 type  2   force =    -0.13352777   -0.27247759  -16.54371530
     atom   21 type  1   force =    -1.31719870  -11.22291802   89.15749397
     atom   22 type  1   force =    -1.68343481   10.89118405  128.64839650
     atom   23 type  2   force =    -0.13302804    0.27230756   16.11744832
     atom   24 type  2   force =     2.69381447   -0.61218073   50.53958121
     atom   25 type  2   force =    -0.03137868   -0.42595821   84.95494608
     atom   26 type  1   force =    -1.01865940  -10.93671926 -129.23154880
     atom   27 type  1   force =    -1.87871488   10.55708686  -89.08250243
     atom   28 type  2   force =    -0.06265814    0.44291391  -84.92707225
     atom   29 type  2   force =     2.56237190    0.90640540  -50.41479873
     atom   30 type  2   force =    -0.06357069   -0.11994325  -16.71027653
     atom   31 type  1   force =    -1.81731226  -10.87580636   88.72819786
     atom   32 type  1   force =    -1.89034618   11.39926664  129.57097052
     atom   33 type  2   force =    -0.34829179    0.26018883   16.36629605
     atom   34 type  2   force =     2.59460870    0.03940053   49.85842840
     atom   35 type  2   force =    -0.51952213   -0.30235958   84.42438748
     atom   36 type  1   force =    -1.26557771  -11.65410034 -129.48075441
     atom   37 type  1   force =    -2.14250612   10.87601955  -88.25518817
     atom   38 type  2   force =    -0.05741099    0.55465910  -84.93952861
     atom   39 type  2   force =     2.64819088   -0.21861857  -50.44423799
     atom   40 type  2   force =     0.04225006   -0.22248482  -16.33276602
     atom   41 type  1   force =    -1.08609955  -10.94032187   89.21204126
     atom   42 type  1   force =    -2.09511635   11.12816310  128.92853889
     atom   43 type  2   force =    -0.25947274    0.23939227   16.43381045
     atom   44 type  2   force =     2.55957202   -0.25687768   50.35123716
     atom   45 type  2   force =     0.10640290   -0.30667683   85.15699725
     atom   46 type  1   force =    -1.84065771  -10.64287179 -129.69365805
     atom   47 type  1   force =    -2.03022758   11.26467711  -88.81043033
     atom   48 type  2   force =    -0.46988516    0.67765650  -84.84499663
     atom   49 type  2   force =     2.64138788   -0.72672877  -50.32213795
     atom   50 type  2   force =    -0.14372871   -0.21831267  -16.50327923
     atom   51 type  1   force =    -1.62243180  -11.16208475   88.68294436
     atom   52 type  1   force =    -1.79886744   10.79777453  129.47967336
     atom   53 type  2   force =    -0.01122896    0.36951221   16.28786043
     atom   54 type  2   force =     2.75041899   -0.11516052   50.09045709
     atom   55 type  2   force =     0.20291891   -0.54223183   85.04459950
     atom   56 type  1   force =    -1.50897577  -10.82594274 -129.60016957
     atom   57 type  1   force =    -1.79387464   11.28595944  -88.90707110
     atom   58 type  2   force =    -0.30418931    0.49961510  -84.90628850
     atom   59 type  2   force =     2.60319321   -0.38396922  -49.98767256
     atom   60 type  2   force =    -0.11538021   -0.18844249  -16.44673987
     atom   61 type  1   force =    -1.63641800  -10.56880187   89.15843582
     atom   62 type  1   force =    -1.75240491   11.22310667  128.78845249
     atom   63 type  2   force =    -0.22276649    0.31967369   16.45167540
     atom   64 type  2   force =     2.50974189    0.21374709   50.95247591
     atom   65 type  2   force =    -0.29567357   -0.33381159   84.78684566
     atom   66 type  1   force =    -1.16339039  -11.01834314 -129.82966457
     atom   67 type  1   force =    -2.17606672   10.98097937  -89.57402284
     atom   68 type  2   force =    -0.16422846    0.39576740  -84.51614131
     atom   69 type  2   force =     2.66671380   -0.50837691  -49.53811771
     atom   70 type  2   force =     0.34966363   -0.29557843  -16.17132649
     atom   71 type  1   force =    -1.48874441  -11.43186830   88.47060892
     atom   72 type  1   force =    -1.94121338   10.54423614  129.62581119
     atom   73 type  2   force =    -0.12025147    0.39058122   15.94183359
     atom   74 type  2   force =     2.67443676   -0.12690419   50.92481842
     atom   75 type  2   force =     0.18138255   -0.40575847   84.37601650
     atom   76 type  1   force =    -1.34191057  -11.03555531 -129.60102877
     atom   77 type  1   force =    -1.65808525   11.23292992  -88.74935391
     atom   78 type  2   force =    -0.07376567    0.32030490  -84.59610144
     atom   79 type  2   force =     2.59781213    0.38796313  -50.67272740
     atom   80 type  2   force =    -0.21335271   -0.15959457  -16.52829266
     The core correction contribution to forces
     atom    1 type  1   force =    -0.00004862    0.00261362   -0.00050252
     atom    2 type  1   force =     0.00165177   -0.00279890    0.00039625
     atom    3 type  2   force =     0.00085496   -0.00281412    0.00826948
     atom    4 type  2   force =    -0.00774522   -0.00077373    0.00016113
     atom    5 type  2   force =     0.00035792    0.00294117   -0.00834405
     atom    6 type  1   force =     0.00000880    0.00165741   -0.00034261
     atom    7 type  1   force =     0.00011408   -0.00384378    0.00045189
     atom    8 type  2   force =     0.00091191   -0.00287194    0.00824588
     atom    9 type  2   force =    -0.00748817   -0.00076546   -0.00063023
     atom   10 type  2   force =     0.00028541    0.00289027   -0.00856152
     atom   11 type  1   force =     0.00018354    0.00243293    0.00001322
     atom   12 type  1   force =     0.00091591   -0.00277949    0.00036442
     atom   13 type  2   force =     0.00099910   -0.00287288    0.00808740
     atom   14 type  2   force =    -0.00786267   -0.00055824    0.00000845
     atom   15 type  2   force =     0.00034048    0.00313068   -0.00809999
     atom   16 type  1   force =     0.00021079    0.00192016   -0.00062803
     atom   17 type  1   force =     0.00097632   -0.00339029    0.00069091
     atom   18 type  2   force =     0.00076278   -0.00309698    0.00851223
     atom   19 type  2   force =    -0.00770495   -0.00071977    0.00011251
     atom   20 type  2   force =     0.00037544    0.00299362   -0.00810686
     atom   21 type  1   force =     0.00038998    0.00270575   -0.00033751
     atom   22 type  1   force =     0.00109888   -0.00211544    0.00059082
     atom   23 type  2   force =     0.00079685   -0.00260356    0.00851179
     atom   24 type  2   force =    -0.00763967   -0.00084567   -0.00014520
     atom   25 type  2   force =     0.00049169    0.00295154   -0.00863261
     atom   26 type  1   force =     0.00079527    0.00283359   -0.00030458
     atom   27 type  1   force =     0.00053559   -0.00395901    0.00087664
     atom   28 type  2   force =     0.00096769   -0.00282389    0.00850596
     atom   29 type  2   force =    -0.00750190   -0.00061440    0.00001030
     atom   30 type  2   force =     0.00015800    0.00295388   -0.00794567
     atom   31 type  1   force =    -0.00016815    0.00373698   -0.00121942
     atom   32 type  1   force =     0.00119121   -0.00201440    0.00062476
     atom   33 type  2   force =     0.00094230   -0.00270011    0.00811684
     atom   34 type  2   force =    -0.00781247   -0.00054778    0.00032086
     atom   35 type  2   force =     0.00037026    0.00310939   -0.00812213
     atom   36 type  1   force =     0.00040286    0.00122255   -0.00041588
     atom   37 type  1   force =     0.00003731   -0.00286018    0.00081903
     atom   38 type  2   force =     0.00100764   -0.00306971    0.00848988
     atom   39 type  2   force =    -0.00723697   -0.00078894    0.00041053
     atom   40 type  2   force =     0.00049959    0.00312069   -0.00812166
     atom   41 type  1   force =     0.00072665    0.00288502   -0.00051932
     atom   42 type  1   force =     0.00025257   -0.00212844    0.00094118
     atom   43 type  2   force =     0.00096632   -0.00264725    0.00823021
     atom   44 type  2   force =    -0.00738306   -0.00073607   -0.00015422
     atom   45 type  2   force =     0.00051096    0.00284379   -0.00876972
     atom   46 type  1   force =    -0.00014007    0.00353239   -0.00082322
     atom   47 type  1   force =     0.00049376   -0.00182125    0.00011438
     atom   48 type  2   force =     0.00076217   -0.00280840    0.00836740
     atom   49 type  2   force =    -0.00745347   -0.00069005    0.00009157
     atom   50 type  2   force =     0.00059337    0.00305756   -0.00824963
     atom   51 type  1   force =    -0.00017394    0.00297398   -0.00066307
     atom   52 type  1   force =     0.00057615   -0.00291478    0.00138981
     atom   53 type  2   force =     0.00086179   -0.00270735    0.00832722
     atom   54 type  2   force =    -0.00742779   -0.00074024    0.00023300
     atom   55 type  2   force =     0.00031834    0.00326187   -0.00852818
     atom   56 type  1   force =     0.00004751    0.00383090   -0.00116213
     atom   57 type  1   force =     0.00079184   -0.00212308    0.00058292
     atom   58 type  2   force =     0.00098922   -0.00290145    0.00830269
     atom   59 type  2   force =    -0.00757649   -0.00069378    0.00004998
     atom   60 type  2   force =     0.00052500    0.00303000   -0.00812983
     atom   61 type  1   force =    -0.00003167    0.00349667   -0.00063837
     atom   62 type  1   force =     0.00088345   -0.00229411    0.00036844
     atom   63 type  2   force =     0.00100211   -0.00270566    0.00810860
     atom   64 type  2   force =    -0.00734746   -0.00071694   -0.00050019
     atom   65 type  2   force =     0.00057266    0.00282480   -0.00857836
     atom   66 type  1   force =     0.00035471    0.00221544   -0.00072598
     atom   67 type  1   force =    -0.00022227   -0.00225386    0.00099357
     atom   68 type  2   force =     0.00084165   -0.00263860    0.00824661
     atom   69 type  2   force =    -0.00735834   -0.00091697   -0.00041092
     atom   70 type  2   force =     0.00046146    0.00295103   -0.00859650
     atom   71 type  1   force =    -0.00027314    0.00217653   -0.00080247
     atom   72 type  1   force =    -0.00003978   -0.00286101    0.00077470
     atom   73 type  2   force =     0.00082075   -0.00292850    0.00845414
     atom   74 type  2   force =    -0.00715712   -0.00076978   -0.00017842
     atom   75 type  2   force =     0.00055788    0.00286952   -0.00823996
     atom   76 type  1   force =     0.00046497    0.00326705   -0.00075097
     atom   77 type  1   force =     0.00089144   -0.00260325    0.00111632
     atom   78 type  2   force =     0.00102441   -0.00287695    0.00810743
     atom   79 type  2   force =    -0.00728571   -0.00054269    0.00020441
     atom   80 type  2   force =     0.00019298    0.00290485   -0.00795819
     The Hubbard contrib.    to forces
     atom    1 type  1   force =     0.00000000    0.00000000    0.00000000
     atom    2 type  1   force =     0.00000000    0.00000000    0.00000000
     atom    3 type  2   force =     0.00000000    0.00000000    0.00000000
     atom    4 type  2   force =     0.00000000    0.00000000    0.00000000
     atom    5 type  2   force =     0.00000000    0.00000000    0.00000000
     atom    6 type  1   force =     0.00000000    0.00000000    0.00000000
     atom    7 type  1   force =     0.00000000    0.00000000    0.00000000
     atom    8 type  2   force =     0.00000000    0.00000000    0.00000000
     atom    9 type  2   force =     0.00000000    0.00000000    0.00000000
     atom   10 type  2   force =     0.00000000    0.00000000    0.00000000
     atom   11 type  1   force =     0.00000000    0.00000000    0.00000000
     atom   12 type  1   force =     0.00000000    0.00000000    0.00000000
     atom   13 type  2   force =     0.00000000    0.00000000    0.00000000
     atom   14 type  2   force =     0.00000000    0.00000000    0.00000000
     atom   15 type  2   force =     0.00000000    0.00000000    0.00000000
     atom   16 type  1   force =     0.00000000    0.00000000    0.00000000
     atom   17 type  1   force =     0.00000000    0.00000000    0.00000000
     atom   18 type  2   force =     0.00000000    0.00000000    0.00000000
     atom   19 type  2   force =     0.00000000    0.00000000    0.00000000
     atom   20 type  2   force =     0.00000000    0.00000000    0.00000000
     atom   21 type  1   force =     0.00000000    0.00000000    0.00000000
     atom   22 type  1   force =     0.00000000    0.00000000    0.00000000
     atom   23 type  2   force =     0.00000000    0.00000000    0.00000000
     atom   24 type  2   force =     0.00000000    0.00000000    0.00000000
     atom   25 type  2   force =     0.00000000    0.00000000    0.00000000
     atom   26 type  1   force =     0.00000000    0.00000000    0.00000000
     atom   27 type  1   force =     0.00000000    0.00000000    0.00000000
     atom   28 type  2   force =     0.00000000    0.00000000    0.00000000
     atom   29 type  2   force =     0.00000000    0.00000000    0.00000000
     atom   30 type  2   force =     0.00000000    0.00000000    0.00000000
     atom   31 type  1   force =     0.00000000    0.00000000    0.00000000
     atom   32 type  1   force =     0.00000000    0.00000000    0.00000000
     atom   33 type  2   force =     0.00000000    0.00000000    0.00000000
     atom   34 type  2   force =     0.00000000    0.00000000    0.00000000
     atom   35 type  2   force =     0.00000000    0.00000000    0.00000000
     atom   36 type  1   force =     0.00000000    0.00000000    0.00000000
     atom   37 type  1   force =     0.00000000    0.00000000    0.00000000
     atom   38 type  2   force =     0.00000000    0.00000000    0.00000000
     atom   39 type  2   force =     0.00000000    0.00000000    0.00000000
     atom   40 type  2   force =     0.00000000    0.00000000    0.00000000
     atom   41 type  1   force =     0.00000000    0.00000000    0.00000000
     atom   42 type  1   force =     0.00000000    0.00000000    0.00000000
     atom   43 type  2   force =     0.00000000    0.00000000    0.00000000
     atom   44 type  2   force =     0.00000000    0.00000000    0.00000000
     atom   45 type  2   force =     0.00000000    0.00000000    0.00000000
     atom   46 type  1   force =     0.00000000    0.00000000    0.00000000
     atom   47 type  1   force =     0.00000000    0.00000000    0.00000000
     atom   48 type  2   force =     0.00000000    0.00000000    0.00000000
     atom   49 type  2   force =     0.00000000    0.00000000    0.00000000
     atom   50 type  2   force =     0.00000000    0.00000000    0.00000000
     atom   51 type  1   force =     0.00000000    0.00000000    0.00000000
     atom   52 type  1   force =     0.00000000    0.00000000    0.00000000
     atom   53 type  2   force =     0.00000000    0.00000000    0.00000000
     atom   54 type  2   force =     0.00000000    0.00000000    0.00000000
     atom   55 type  2   force =     0.00000000    0.00000000    0.00000000
     atom   56 type  1   force =     0.00000000    0.00000000    0.00000000
     atom   57 type  1   force =     0.00000000    0.00000000    0.00000000
     atom   58 type  2   force =     0.00000000    0.00000000    0.00000000
     atom   59 type  2   force =     0.00000000    0.00000000    0.00000000
     atom   60 type  2   force =     0.00000000    0.00000000    0.00000000
     atom   61 type  1   force =     0.00000000    0.00000000    0.00000000
     atom   62 type  1   force =     0.00000000    0.00000000    0.00000000
     atom   63 type  2   force =     0.00000000    0.00000000    0.00000000
     atom   64 type  2   force =     0.00000000    0.00000000    0.00000000
     atom   65 type  2   force =     0.00000000    0.00000000    0.00000000
     atom   66 type  1   force =     0.00000000    0.00000000    0.00000000
     atom   67 type  1   force =     0.00000000    0.00000000    0.00000000
     atom   68 type  2   force =     0.00000000    0.00000000    0.00000000
     atom   69 type  2   force =     0.00000000    0.00000000    0.00000000
     atom   70 type  2   force =     0.00000000    0.00000000    0.00000000
     atom   71 type  1   force =     0.00000000    0.00000000    0.00000000
     atom   72 type  1   force =     0.00000000    0.00000000    0.00000000
     atom   73 type  2   force =     0.00000000    0.00000000    0.00000000
     atom   74 type  2   force =     0.00000000    0.00000000    0.00000000
     atom   75 type  2   force =     0.00000000    0.00000000    0.00000000
     atom   76 type  1   force =     0.00000000    0.00000000    0.00000000
     atom   77 type  1   force =     0.00000000    0.00000000    0.00000000
     atom   78 type  2   force =     0.00000000    0.00000000    0.00000000
     atom   79 type  2   force =     0.00000000    0.00000000    0.00000000
     atom   80 type  2   force =     0.00000000    0.00000000    0.00000000
     The SCF correction term to forces
     atom    1 type  1   force =     0.00000045   -0.00000576   -0.00001066
     atom    2 type  1   force =     0.00000687    0.00001708   -0.00003020
     atom    3 type  2   force =    -0.00000079   -0.00000144   -0.00000540
     atom    4 type  2   force =     0.00000193    0.00000043   -0.00000300
     atom    5 type  2   force =    -0.00000321   -0.00000161    0.00000068
     atom    6 type  1   force =    -0.00000133    0.00000651    0.00001697
     atom    7 type  1   force =    -0.00000241   -0.00001417    0.00002996
     atom    8 type  2   force =    -0.00000093    0.00000264    0.00000207
     atom    9 type  2   force =     0.00000223    0.00000245    0.00000610
     atom   10 type  2   force =     0.00000072   -0.00000181    0.00000736
     atom   11 type  1   force =    -0.00000387   -0.00001338    0.00002991
     atom   12 type  1   force =    -0.00004890    0.00004035    0.00003318
     atom   13 type  2   force =     0.00000052    0.00000323   -0.00000473
     atom   14 type  2   force =     0.00000024    0.00000441   -0.00000513
     atom   15 type  2   force =    -0.00000297   -0.00000036    0.00000201
     atom   16 type  1   force =    -0.00000496   -0.00001958    0.00002406
     atom   17 type  1   force =     0.00000053   -0.00001383    0.00004096
     atom   18 type  2   force =    -0.00000249    0.00000352    0.00000375
     atom   19 type  2   force =     0.00000366    0.00000075    0.00000399
     atom   20 type  2   force =    -0.00000011   -0.00000555    0.00000746
     atom   21 type  1   force =     0.00001185   -0.00001742    0.00000321
     atom   22 type  1   force =    -0.00000352    0.00000770   -0.00000341
     atom   23 type  2   force =    -0.00000073    0.00000037   -0.00000073
     atom   24 type  2   force =     0.00000184   -0.00000325   -0.00000129
     atom   25 type  2   force =     0.00000052   -0.00000098    0.00000234
     atom   26 type  1   force =    -0.00000947   -0.00000790    0.00000771
     atom   27 type  1   force =     0.00001589   -0.00001734    0.00000887
     atom   28 type  2   force =    -0.00000087   -0.00000062    0.00000004
     atom   29 type  2   force =     0.00000186    0.00001021    0.00000299
     atom   30 type  2   force =    -0.00000038   -0.00000346    0.00000682
     atom   31 type  1   force =    -0.00001023    0.00000004   -0.00000765
     atom   32 type  1   force =     0.00001360    0.00000263   -0.00000610
     atom   33 type  2   force =    -0.00000312   -0.00000022   -0.00000542
     atom   34 type  2   force =     0.00000096    0.00000322   -0.00000311
     atom   35 type  2   force =    -0.00000073   -0.00000108    0.00000112
     atom   36 type  1   force =     0.00000349   -0.00003638    0.00002821
     atom   37 type  1   force =     0.00001175    0.00001939    0.00001817
     atom   38 type  2   force =    -0.00000013   -0.00000083    0.00000265
     atom   39 type  2   force =     0.00000124    0.00000588    0.00000264
     atom   40 type  2   force =    -0.00000293   -0.00000366    0.00000889
     atom   41 type  1   force =    -0.00000977    0.00000590    0.00000019
     atom   42 type  1   force =    -0.00000860    0.00000213    0.00000215
     atom   43 type  2   force =    -0.00000084   -0.00000002   -0.00000213
     atom   44 type  2   force =     0.00000087    0.00000222   -0.00000062
     atom   45 type  2   force =     0.00000095   -0.00000203    0.00000026
     atom   46 type  1   force =     0.00001057   -0.00000620    0.00001381
     atom   47 type  1   force =     0.00000912    0.00000902   -0.00000170
     atom   48 type  2   force =     0.00000085   -0.00000143   -0.00000043
     atom   49 type  2   force =     0.00000184    0.00000474    0.00000431
     atom   50 type  2   force =     0.00000105   -0.00000209    0.00000482
     atom   51 type  1   force =    -0.00001291    0.00001082   -0.00001652
     atom   52 type  1   force =    -0.00000669   -0.00000078   -0.00000851
     atom   53 type  2   force =    -0.00000065    0.00000113   -0.00000629
     atom   54 type  2   force =    -0.00000070    0.00000012   -0.00000260
     atom   55 type  2   force =    -0.00000362   -0.00000219    0.00000017
     atom   56 type  1   force =    -0.00001395    0.00001767    0.00001580
     atom   57 type  1   force =    -0.00000024    0.00000042    0.00002094
     atom   58 type  2   force =     0.00000179   -0.00000005    0.00000450
     atom   59 type  2   force =    -0.00000153    0.00000358    0.00000305
     atom   60 type  2   force =     0.00000031    0.00000120    0.00000852
     atom   61 type  1   force =     0.00000290    0.00000800   -0.00000576
     atom   62 type  1   force =     0.00000051   -0.00002963    0.00000594
     atom   63 type  2   force =     0.00000338   -0.00000348   -0.00000312
     atom   64 type  2   force =    -0.00000000    0.00000125   -0.00000082
     atom   65 type  2   force =    -0.00000087   -0.00000171    0.00000128
     atom   66 type  1   force =    -0.00000211   -0.00000587    0.00002465
     atom   67 type  1   force =    -0.00001876    0.00002654    0.00000042
     atom   68 type  2   force =     0.00000064   -0.00000235    0.00000278
     atom   69 type  2   force =     0.00000212    0.00000635    0.00000496
     atom   70 type  2   force =    -0.00000574   -0.00000305    0.00000985
     atom   71 type  1   force =    -0.00003273    0.00003501   -0.00001567
     atom   72 type  1   force =     0.00000023   -0.00000437   -0.00000751
     atom   73 type  2   force =    -0.00000177    0.00000291   -0.00000452
     atom   74 type  2   force =     0.00000158   -0.00000236    0.00000041
     atom   75 type  2   force =     0.00000177   -0.00000134   -0.00000144
     atom   76 type  1   force =    -0.00003490    0.00002169    0.00002081
     atom   77 type  1   force =     0.00001767   -0.00002636    0.00001352
     atom   78 type  2   force =     0.00000004    0.00000298    0.00000045
     atom   79 type  2   force =     0.00000461   -0.00000248    0.00000654
     atom   80 type  2   force =     0.00000164   -0.00000204    0.00001092

     Total force =     0.132895     Total SCF correction =     0.000172


     Computing stress (Cartesian axis) and pressure


     negative rho (up, down):  3.334E-03 0.000E+00
          total   stress  (Ry/bohr**3)                   (kbar)     P=       -5.17
  -0.00002958   0.00000895  -0.00000112           -4.35        1.32       -0.16
   0.00000895  -0.00007294   0.00000024            1.32      -10.73        0.04
  -0.00000112   0.00000024  -0.00000302           -0.16        0.04       -0.44

     kinetic stress (kbar)   4915.67      2.47     -0.58
                                2.47   4909.48     -4.96
                               -0.58     -4.96   4909.61

     local   stress (kbar)-444552.73    101.95     16.30
                              101.95-441765.04  -1509.85
                               16.30  -1509.85 442350.64

     nonloc. stress (kbar)   -238.90      6.62     -1.82
                                6.62   -285.48     13.37
                               -1.82     13.37   -109.22

     hartree stress (kbar) 224434.96    -20.28    -12.29
                              -20.28 222988.65    687.77
                              -12.29    687.77-215146.19

     exc-cor stress (kbar)    595.25     -0.38      0.10
                               -0.38    597.47     -0.47
                                0.10     -0.47    586.37

     corecor stress (kbar)  -2382.53      0.02     -0.01
                                0.02  -2382.73      0.16
                               -0.01      0.16  -2381.72

     ewald   stress (kbar) 217223.93    -89.07     -1.86
                              -89.07 215926.92    814.01
                               -1.86    814.01-230209.93

     hubbard stress (kbar)      0.00      0.00      0.00
                                0.00      0.00      0.00
                                0.00      0.00      0.00

     DFT-D   stress (kbar)      0.00      0.00      0.00
                                0.00      0.00      0.00
                                0.00      0.00      0.00

     XDM     stress (kbar)      0.00      0.00      0.00
                                0.00      0.00      0.00
                                0.00      0.00      0.00

     dft-nl  stress (kbar)      0.00      0.00      0.00
                                0.00      0.00      0.00
                                0.00      0.00      0.00

     TS-vdW  stress (kbar)      0.00      0.00      0.00
                                0.00      0.00      0.00
                                0.00      0.00      0.00


                                0.00      0.00      0.00
                                0.00      0.00      0.00


                                0.00      0.00      0.00


     Entering Dynamics:    iteration =     4
                           time      =   0.0039 pico-seconds


     Canonical sampling velocity rescaling

ATOMIC_POSITIONS (crystal)
Ga            0.2009653060        0.3550136927        0.4082315351
Ga            0.1232419859        0.1550639328        0.3856915661
O             0.0891216656        0.2893975225        0.4296642959
O             0.1303826644        0.0039339623        0.3971849287
O             0.2295196467        0.2196462826        0.3643832980
Ga            0.2010519805        0.3543805964        0.6144598345
Ga            0.1224802849        0.1540620192        0.5917514049
O             0.0908720795        0.2890854903        0.6363340130
O             0.1306161920        0.0043155116        0.6014592487
O             0.2304362899        0.2218555067        0.5698362155
Ga            0.2018094414        0.8550755669        0.4079719976
Ga            0.1236247562        0.6541948723        0.3850511503
O             0.0926588312        0.7877735155        0.4295108952
O             0.1290405280        0.5040379278        0.3965285975
O             0.2299012202        0.7204058162        0.3639015821
Ga            0.2015963191        0.8545359854        0.6144123711
Ga            0.1227279683        0.6555811898        0.5911947080
O             0.0893834848        0.7886232005        0.6364624217
O             0.1297183517        0.5054136605        0.6027635663
O             0.2308135947        0.7212947394        0.5708896967
Ga            0.4513857688        0.3544364376        0.4083584871
Ga            0.3724650973        0.1547962155        0.3860067470
O             0.3396882450        0.2881744501        0.4300580513
O             0.3811973252        0.0011910254        0.3970112983
O             0.4807200736        0.2193797655        0.3634799225
Ga            0.4514089847        0.3552055046        0.6146310026
Ga            0.3715826203        0.1553559707        0.5918629130
O             0.3400669914        0.2887246299        0.6365052429
O             0.3790072763        0.0067793728        0.6031219671
O             0.4808135780        0.2201071298        0.5711801556
Ga            0.4518320898        0.8553812921        0.4082214556
Ga            0.3721722766        0.6557037581        0.3854675202
O             0.3390863261        0.7882454581        0.4291810881
O             0.3790917270        0.5037263920        0.3976626955
O             0.4786749248        0.7223285629        0.3646030339
Ga            0.4509436434        0.8550939162        0.6145958414
Ga            0.3714582284        0.6545427612        0.5913781304
O             0.3409562536        0.7872048805        0.6364421075
O             0.3820706350        0.5030777366        0.6035418825
O             0.4807047469        0.7236760153        0.5704817407
Ga            0.7009273818        0.3548551008        0.4080684157
Ga            0.6217228323        0.1555657084        0.3858504286
O             0.5896634507        0.2872008803        0.4291011177
O             0.6311151103        0.0025399352        0.3971347254
O             0.7313715668        0.2212628409        0.3629551049
Ga            0.7000177355        0.3557390563        0.6147653108
Ga            0.6217242440        0.1556732063        0.5915700217
O             0.5876371510        0.2902820676        0.6363123189
O             0.6312805761        0.0018205726        0.6034748511
O             0.7309522376        0.2203875093        0.5707024349
Ga            0.7015417113        0.8548360699        0.4084624303
Ga            0.6226248589        0.6543383352        0.3857398650
O             0.5915165278        0.7864493175        0.4295692056
O             0.6306833894        0.5031109686        0.3973774305
O             0.7316769247        0.7228065708        0.3633639497
Ga            0.7008775792        0.8556475956        0.6144458046
Ga            0.6220641299        0.6549118764        0.5917471922
O             0.5891983478        0.7868243454        0.6362955070
O             0.6299839543        0.5025627997        0.6031228075
O             0.7297283944        0.7219416751        0.5707060909
Ga            0.9500933811        0.3562208872        0.4080431650
Ga            0.8722111946        0.1563498987        0.3855787988
O             0.8386941193        0.2899594717        0.4290094932
O             0.8805964178        0.0035013731        0.3961145958
O             0.9808907719        0.2200310548        0.3634283177
Ga            0.9514914974        0.3547675219        0.6148664481
Ga            0.8713556453        0.1556032610        0.5922003475
O             0.8396146356        0.2876312717        0.6358013873
O             0.8819782965        0.0017059786        0.6024927988
O             0.9825989698        0.2223817194        0.5699886749
Ga            0.9508948446        0.8533667876        0.4084650535
Ga            0.8716907932        0.6543724558        0.3853465682
O             0.8405785713        0.7862858197        0.4302151263
O             0.8812783308        0.5029289480        0.3962220806
O             0.9827488348        0.7202714663        0.3643039661
Ga            0.9520005826        0.8554366783        0.6145001018
Ga            0.8716744449        0.6558383504        0.5918232916
O             0.8409173775        0.7863172473        0.6355327449
O             0.8805608487        0.5051770188        0.6037391351
O             0.9797095390        0.7212840868        0.5707860752


     kinetic energy (Ekin) =           0.21185697 Ry
     temperature           =         282.27485132 K 
     Ekin + Etot (const)   =      -10895.83943987 Ry
     Ions kinetic stress =            0.70 (kbar)
                                      0.63          -0.06          -0.12
                                     -0.06           0.67          -0.02
                                     -0.12          -0.02           0.79



     Linear momentum :    0.0000000000    0.0000000000   -0.0000000000

     Writing config-only to output data dir ./tmp/md/Ga2O3-BL-001-4x2x1-300K.save/

     second order wave-functions extrapolation
     second order charge density extrapolation

     negative rho (up, down):  3.320E-03 0.000E+00

     total cpu time spent up to now is    17156.2 secs

     Self-consistent Calculation

     iteration #  1     ecut=    80.00 Ry     beta= 0.20
     Davidson diagonalization with overlap

---- Real-time Memory Report at c_bands before calling an iterative solver
          1622 MiB given to the printing process from OS
             0 MiB allocation reported by mallinfo(arena+hblkhd)
        348209 MiB available memory on the node where the printing process lives
------------------
     ethr =  1.00E-06,  avg # of iterations =  2.0

     Threshold (ethr) on eigenvalues was too large:
     Diagonalizing with lowered threshold

     Davidson diagonalization with overlap

---- Real-time Memory Report at c_bands before calling an iterative solver
          1622 MiB given to the printing process from OS
             0 MiB allocation reported by mallinfo(arena+hblkhd)
        348290 MiB available memory on the node where the printing process lives
------------------
     ethr =  4.34E-10,  avg # of iterations = 15.2

     negative rho (up, down):  3.321E-03 0.000E+00

     total cpu time spent up to now is    17463.0 secs

     total energy              =  -10896.04276824 Ry
     estimated scf accuracy    <       0.00000883 Ry

     iteration #  2     ecut=    80.00 Ry     beta= 0.20
     Davidson diagonalization with overlap

---- Real-time Memory Report at c_bands before calling an iterative solver
          1622 MiB given to the printing process from OS
             0 MiB allocation reported by mallinfo(arena+hblkhd)
        347969 MiB available memory on the node where the printing process lives
------------------
     ethr =  1.25E-09,  avg # of iterations =  1.0

     negative rho (up, down):  3.322E-03 0.000E+00

     total cpu time spent up to now is    17519.9 secs

     total energy              =  -10896.04276133 Ry
     estimated scf accuracy    <       0.00000509 Ry

     iteration #  3     ecut=    80.00 Ry     beta= 0.20
     Davidson diagonalization with overlap

---- Real-time Memory Report at c_bands before calling an iterative solver
          1622 MiB given to the printing process from OS
             0 MiB allocation reported by mallinfo(arena+hblkhd)
        347911 MiB available memory on the node where the printing process lives
------------------
     ethr =  7.23E-10,  avg # of iterations = 13.5

     negative rho (up, down):  3.323E-03 0.000E+00

     total cpu time spent up to now is    17657.2 secs

     total energy              =  -10896.04276461 Ry
     estimated scf accuracy    <       0.00000201 Ry

     iteration #  4     ecut=    80.00 Ry     beta= 0.20
     Davidson diagonalization with overlap

---- Real-time Memory Report at c_bands before calling an iterative solver
          1622 MiB given to the printing process from OS
             0 MiB allocation reported by mallinfo(arena+hblkhd)
        347793 MiB available memory on the node where the printing process lives
------------------
     ethr =  2.85E-10,  avg # of iterations =  6.8

     negative rho (up, down):  3.323E-03 0.000E+00

     total cpu time spent up to now is    17755.7 secs

     total energy              =  -10896.04276520 Ry
     estimated scf accuracy    <       0.00000164 Ry

     iteration #  5     ecut=    80.00 Ry     beta= 0.20
     Davidson diagonalization with overlap

---- Real-time Memory Report at c_bands before calling an iterative solver
          1622 MiB given to the printing process from OS
             0 MiB allocation reported by mallinfo(arena+hblkhd)
        347708 MiB available memory on the node where the printing process lives
------------------
     ethr =  2.33E-10,  avg # of iterations =  2.0

     negative rho (up, down):  3.324E-03 0.000E+00

     total cpu time spent up to now is    17821.7 secs

     total energy              =  -10896.04276537 Ry
     estimated scf accuracy    <       0.00000097 Ry

     iteration #  6     ecut=    80.00 Ry     beta= 0.20
     Davidson diagonalization with overlap

---- Real-time Memory Report at c_bands before calling an iterative solver
          1622 MiB given to the printing process from OS
             0 MiB allocation reported by mallinfo(arena+hblkhd)
        347594 MiB available memory on the node where the printing process lives
------------------
     ethr =  1.37E-10,  avg # of iterations =  7.2

     negative rho (up, down):  3.324E-03 0.000E+00

     total cpu time spent up to now is    17914.0 secs

     total energy              =  -10896.04276559 Ry
     estimated scf accuracy    <       0.00000016 Ry

     iteration #  7     ecut=    80.00 Ry     beta= 0.20
     Davidson diagonalization with overlap

---- Real-time Memory Report at c_bands before calling an iterative solver
          1622 MiB given to the printing process from OS
             0 MiB allocation reported by mallinfo(arena+hblkhd)
        347547 MiB available memory on the node where the printing process lives
------------------
     c_bands:  1 eigenvalues not converged
     ethr =  2.28E-11,  avg # of iterations = 19.0

     negative rho (up, down):  3.324E-03 0.000E+00

     total cpu time spent up to now is    18188.0 secs

     total energy              =  -10896.04276592 Ry
     estimated scf accuracy    <       0.00000076 Ry

     iteration #  8     ecut=    80.00 Ry     beta= 0.20
     Davidson diagonalization with overlap

---- Real-time Memory Report at c_bands before calling an iterative solver
          1622 MiB given to the printing process from OS
             0 MiB allocation reported by mallinfo(arena+hblkhd)
        347453 MiB available memory on the node where the printing process lives
------------------
     ethr =  2.28E-11,  avg # of iterations =  7.5

     negative rho (up, down):  3.324E-03 0.000E+00

     total cpu time spent up to now is    18274.1 secs

     total energy              =  -10896.04276609 Ry
     estimated scf accuracy    <       0.00000102 Ry

     iteration #  9     ecut=    80.00 Ry     beta= 0.20
     Davidson diagonalization with overlap

---- Real-time Memory Report at c_bands before calling an iterative solver
          1622 MiB given to the printing process from OS
             0 MiB allocation reported by mallinfo(arena+hblkhd)
        347384 MiB available memory on the node where the printing process lives
------------------
     ethr =  2.28E-11,  avg # of iterations =  5.8

     negative rho (up, down):  3.325E-03 0.000E+00

     total cpu time spent up to now is    18350.5 secs

     total energy              =  -10896.04276632 Ry
     estimated scf accuracy    <       0.00000090 Ry

     iteration # 10     ecut=    80.00 Ry     beta= 0.20
     Davidson diagonalization with overlap

---- Real-time Memory Report at c_bands before calling an iterative solver
          1622 MiB given to the printing process from OS
             0 MiB allocation reported by mallinfo(arena+hblkhd)
        347310 MiB available memory on the node where the printing process lives
------------------
     ethr =  2.28E-11,  avg # of iterations = 11.2

     negative rho (up, down):  3.325E-03 0.000E+00

     total cpu time spent up to now is    18519.0 secs

     total energy              =  -10896.04276645 Ry
     estimated scf accuracy    <       0.00000011 Ry

     iteration # 11     ecut=    80.00 Ry     beta= 0.20
     Davidson diagonalization with overlap

---- Real-time Memory Report at c_bands before calling an iterative solver
          1622 MiB given to the printing process from OS
             0 MiB allocation reported by mallinfo(arena+hblkhd)
        347271 MiB available memory on the node where the printing process lives
------------------
     ethr =  1.60E-11,  avg # of iterations =  2.0

     negative rho (up, down):  3.325E-03 0.000E+00

     total cpu time spent up to now is    18584.9 secs

     total energy              =  -10896.04276636 Ry
     estimated scf accuracy    <       0.00000007 Ry

     iteration # 12     ecut=    80.00 Ry     beta= 0.20
     Davidson diagonalization with overlap

---- Real-time Memory Report at c_bands before calling an iterative solver
          1622 MiB given to the printing process from OS
             0 MiB allocation reported by mallinfo(arena+hblkhd)
        347280 MiB available memory on the node where the printing process lives
------------------
     ethr =  1.03E-11,  avg # of iterations =  9.2

     negative rho (up, down):  3.325E-03 0.000E+00

     total cpu time spent up to now is    18740.0 secs

     total energy              =  -10896.04276650 Ry
     estimated scf accuracy    <       0.00000010 Ry

     iteration # 13     ecut=    80.00 Ry     beta= 0.20
     Davidson diagonalization with overlap

---- Real-time Memory Report at c_bands before calling an iterative solver
          1622 MiB given to the printing process from OS
             0 MiB allocation reported by mallinfo(arena+hblkhd)
        347257 MiB available memory on the node where the printing process lives
------------------
     ethr =  1.03E-11,  avg # of iterations =  4.5

     negative rho (up, down):  3.325E-03 0.000E+00

     total cpu time spent up to now is    18816.1 secs

     total energy              =  -10896.04276653 Ry
     estimated scf accuracy    <       0.00000003 Ry

     iteration # 14     ecut=    80.00 Ry     beta= 0.20
     Davidson diagonalization with overlap

---- Real-time Memory Report at c_bands before calling an iterative solver
          1622 MiB given to the printing process from OS
             0 MiB allocation reported by mallinfo(arena+hblkhd)
        347269 MiB available memory on the node where the printing process lives
------------------
     ethr =  4.45E-12,  avg # of iterations = 14.5

     negative rho (up, down):  3.325E-03 0.000E+00

     total cpu time spent up to now is    18946.6 secs

     total energy              =  -10896.04276650 Ry
     estimated scf accuracy    <       0.00000002 Ry

     iteration # 15     ecut=    80.00 Ry     beta= 0.20
     Davidson diagonalization with overlap

---- Real-time Memory Report at c_bands before calling an iterative solver
          1622 MiB given to the printing process from OS
             0 MiB allocation reported by mallinfo(arena+hblkhd)
        347276 MiB available memory on the node where the printing process lives
------------------
     ethr =  2.32E-12,  avg # of iterations = 13.0

     negative rho (up, down):  3.325E-03 0.000E+00

     total cpu time spent up to now is    19109.3 secs

     total energy              =  -10896.04276653 Ry
     estimated scf accuracy    <       0.00000003 Ry

     iteration # 16     ecut=    80.00 Ry     beta= 0.20
     Davidson diagonalization with overlap

---- Real-time Memory Report at c_bands before calling an iterative solver
          1622 MiB given to the printing process from OS
             0 MiB allocation reported by mallinfo(arena+hblkhd)
        347250 MiB available memory on the node where the printing process lives
------------------
     ethr =  2.32E-12,  avg # of iterations =  2.0

     negative rho (up, down):  3.325E-03 0.000E+00

     total cpu time spent up to now is    19175.7 secs

     total energy              =  -10896.04276653 Ry
     estimated scf accuracy    <       0.00000002 Ry

     iteration # 17     ecut=    80.00 Ry     beta= 0.20
     Davidson diagonalization with overlap

---- Real-time Memory Report at c_bands before calling an iterative solver
          1622 MiB given to the printing process from OS
             0 MiB allocation reported by mallinfo(arena+hblkhd)
        347245 MiB available memory on the node where the printing process lives
------------------
     ethr =  2.32E-12,  avg # of iterations = 15.0

     negative rho (up, down):  3.325E-03 0.000E+00

     total cpu time spent up to now is    19408.5 secs

     total energy              =  -10896.04276657 Ry
     estimated scf accuracy    <       0.00000009 Ry

     iteration # 18     ecut=    80.00 Ry     beta= 0.20
     Davidson diagonalization with overlap

---- Real-time Memory Report at c_bands before calling an iterative solver
          1622 MiB given to the printing process from OS
             0 MiB allocation reported by mallinfo(arena+hblkhd)
        347259 MiB available memory on the node where the printing process lives
------------------
     ethr =  2.32E-12,  avg # of iterations =  2.0

     negative rho (up, down):  3.325E-03 0.000E+00

     total cpu time spent up to now is    19474.0 secs

     total energy              =  -10896.04276658 Ry
     estimated scf accuracy    <       0.00000007 Ry

     iteration # 19     ecut=    80.00 Ry     beta= 0.20
     Davidson diagonalization with overlap

---- Real-time Memory Report at c_bands before calling an iterative solver
          1622 MiB given to the printing process from OS
             0 MiB allocation reported by mallinfo(arena+hblkhd)
        347233 MiB available memory on the node where the printing process lives
------------------
     ethr =  2.32E-12,  avg # of iterations = 11.5

     negative rho (up, down):  3.325E-03 0.000E+00

     total cpu time spent up to now is    19596.4 secs

     total energy              =  -10896.04276660 Ry
     estimated scf accuracy    <       0.00000005 Ry

     iteration # 20     ecut=    80.00 Ry     beta= 0.20
     Davidson diagonalization with overlap

---- Real-time Memory Report at c_bands before calling an iterative solver
          1622 MiB given to the printing process from OS
             0 MiB allocation reported by mallinfo(arena+hblkhd)
        347241 MiB available memory on the node where the printing process lives
------------------
     ethr =  2.32E-12,  avg # of iterations = 10.2

     negative rho (up, down):  3.325E-03 0.000E+00

     total cpu time spent up to now is    19743.7 secs

     total energy              =  -10896.04276657 Ry
     estimated scf accuracy    <       0.00000011 Ry

     iteration # 21     ecut=    80.00 Ry     beta= 0.20
     Davidson diagonalization with overlap

---- Real-time Memory Report at c_bands before calling an iterative solver
          1622 MiB given to the printing process from OS
             0 MiB allocation reported by mallinfo(arena+hblkhd)
        347236 MiB available memory on the node where the printing process lives
------------------
     ethr =  2.32E-12,  avg # of iterations = 12.0

     negative rho (up, down):  3.325E-03 0.000E+00

     total cpu time spent up to now is    19894.1 secs

     total energy              =  -10896.04276655 Ry
     estimated scf accuracy    <       0.00000008 Ry

     iteration # 22     ecut=    80.00 Ry     beta= 0.20
     Davidson diagonalization with overlap

---- Real-time Memory Report at c_bands before calling an iterative solver
          1622 MiB given to the printing process from OS
             0 MiB allocation reported by mallinfo(arena+hblkhd)
        347238 MiB available memory on the node where the printing process lives
------------------
     ethr =  2.32E-12,  avg # of iterations =  2.0

     negative rho (up, down):  3.325E-03 0.000E+00

     total cpu time spent up to now is    19958.7 secs

     total energy              =  -10896.04276663 Ry
     estimated scf accuracy    <       0.00000016 Ry

     iteration # 23     ecut=    80.00 Ry     beta= 0.20
     Davidson diagonalization with overlap

---- Real-time Memory Report at c_bands before calling an iterative solver
          1622 MiB given to the printing process from OS
             0 MiB allocation reported by mallinfo(arena+hblkhd)
        347240 MiB available memory on the node where the printing process lives
------------------
     ethr =  2.32E-12,  avg # of iterations =  6.5

     negative rho (up, down):  3.325E-03 0.000E+00

     total cpu time spent up to now is    20052.4 secs

     total energy              =  -10896.04276663 Ry
     estimated scf accuracy    <       0.00000001 Ry

     iteration # 24     ecut=    80.00 Ry     beta= 0.20
     Davidson diagonalization with overlap

---- Real-time Memory Report at c_bands before calling an iterative solver
          1622 MiB given to the printing process from OS
             0 MiB allocation reported by mallinfo(arena+hblkhd)
        347209 MiB available memory on the node where the printing process lives
------------------
     ethr =  2.11E-12,  avg # of iterations = 12.0

     negative rho (up, down):  3.325E-03 0.000E+00

     total cpu time spent up to now is    20179.3 secs

     total energy              =  -10896.04276664 Ry
     estimated scf accuracy    <       0.00000002 Ry

     iteration # 25     ecut=    80.00 Ry     beta= 0.20
     Davidson diagonalization with overlap

---- Real-time Memory Report at c_bands before calling an iterative solver
          1622 MiB given to the printing process from OS
             0 MiB allocation reported by mallinfo(arena+hblkhd)
        347247 MiB available memory on the node where the printing process lives
------------------
     ethr =  2.11E-12,  avg # of iterations =  2.0

     negative rho (up, down):  3.325E-03 0.000E+00

     total cpu time spent up to now is    20248.7 secs

     End of self-consistent calculation

          k = 0.0000 0.0000 0.0000 (360677 PWs)   bands (ev):

   -25.1294 -25.1255 -25.0425 -25.0204 -24.8571 -24.8356 -24.8256 -24.8173
   -24.7787 -24.7628 -24.7358 -24.7327 -24.4115 -24.3674 -24.3471 -24.3148
   -24.3042 -24.2853 -24.2654 -24.2360 -24.2264 -24.2237 -24.1535 -24.1480
   -24.1149 -24.0854 -24.0815 -24.0793 -24.0549 -24.0426 -24.0326 -23.9815
   -23.9568 -23.9297 -23.9048 -23.8999 -23.8840 -23.8640 -23.8528 -23.8417
   -23.8188 -23.8000 -23.7825 -23.7574 -23.7231 -23.7012 -23.6907 -23.5983
   -20.1756 -20.1457 -20.1357 -20.1089 -20.0990 -20.0950 -20.0896 -20.0856
   -20.0785 -20.0688 -20.0548 -20.0403 -20.0363 -20.0265 -20.0207 -20.0201
   -20.0085 -20.0063 -19.9972 -19.9948 -19.9864 -19.9823 -19.9767 -19.9757
   -19.9753 -19.9715 -19.9692 -19.9675 -19.9653 -19.9642 -19.9598 -19.9583
   -19.9526 -19.9515 -19.9505 -19.9397 -19.9391 -19.9371 -19.9353 -19.9260
   -19.9217 -19.9217 -19.9187 -19.9165 -19.9162 -19.9024 -19.9008 -19.8990
   -19.8970 -19.8946 -19.8920 -19.8882 -19.8818 -19.8791 -19.8790 -19.8723
   -19.8696 -19.8644 -19.8623 -19.8601 -19.8572 -19.8541 -19.8515 -19.8488
   -19.8468 -19.8434 -19.8429 -19.8416 -19.8382 -19.8376 -19.8307 -19.8294
   -19.8271 -19.8268 -19.8220 -19.8215 -19.8206 -19.8172 -19.8097 -19.8069
   -19.8063 -19.7990 -19.7946 -19.7932 -19.7916 -19.7885 -19.7850 -19.7832
   -19.7799 -19.7774 -19.7738 -19.7686 -19.7646 -19.7546 -19.7506 -19.7486
   -19.7478 -19.7397 -19.7353 -19.7312 -19.7280 -19.7241 -19.7119 -19.7089
   -19.7081 -19.6991 -19.6981 -19.6929 -19.6798 -19.6736 -19.6729 -19.6504
   -19.6478 -19.6435 -19.6311 -19.6278 -19.6160 -19.6093 -19.5872 -19.5794
   -19.5591 -19.5491 -19.5294 -19.5120 -19.4462 -19.4390 -19.4210 -19.4168
   -19.4069 -19.3978 -19.3612 -19.3496 -19.3432 -19.3108 -19.2941 -19.2886
   -19.2733 -19.2721 -19.1890 -19.1811 -19.1645 -19.1559 -19.1410 -19.1406
   -19.1155 -19.1059 -19.0647 -19.0549 -19.0488 -19.0275 -19.0237 -19.0135
   -18.9835 -18.9778 -18.9712 -18.9549 -18.9478 -18.9419 -18.9386 -18.8942
   -13.1143 -13.1075 -13.0696 -13.0613 -12.9240 -12.9097 -12.8285 -12.8156
   -12.8118 -12.7875 -12.5067 -12.4963 -12.4531 -12.4474 -12.2803 -12.2660
   -12.2515 -12.2479 -11.7134 -11.7034 -11.5983 -11.5738 -11.5559 -11.5507
   -11.2712 -11.2643 -11.2613 -11.2416 -10.8831 -10.8615 -10.8540 -10.8482
   -10.7438 -10.6942 -10.6711 -10.6460 -10.6155 -10.6063 -10.5829 -10.5786
   -10.5542 -10.5338 -10.4979 -10.4933 -10.4599 -10.4233 -10.0184  -9.9988
    -9.9905  -9.9709  -9.9255  -9.9186  -9.8674  -9.8444  -9.7616  -9.7539
    -9.7338  -9.7047  -9.4088  -9.3878  -9.3736  -9.3708  -9.2987  -9.2746
    -9.2437  -9.2402  -9.2189  -9.2076  -9.1950  -9.1734  -8.9899  -8.9819
    -8.9672  -8.9600  -8.7688  -8.7599  -8.6385  -8.6334  -8.5963  -8.5935
    -8.5891  -8.5883  -8.5661  -8.5474  -8.5072  -8.5024  -8.4943  -8.4900
    -8.4896  -8.4813  -8.4717  -8.4624  -8.3307  -8.3075  -8.2603  -8.2338
    -8.2213  -8.1873  -8.1804  -8.1642  -8.1569  -8.1492  -7.8898  -7.8409
    -7.8273  -7.7992  -7.7941  -7.7853  -7.7824  -7.7685  -7.7552  -7.7506
    -7.6802  -7.6768  -7.6757  -7.6597  -7.6349  -7.6141  -7.5762  -7.5710
    -7.5598  -7.5455  -7.5333  -7.5267  -7.5210  -7.5159  -7.4875  -7.4789
    -7.4616  -7.4610  -7.4333  -7.4266  -7.4157  -7.4129  -7.3951  -7.3914
    -7.3773  -7.3380  -7.3307  -7.2981  -7.1259  -7.1051  -7.0518  -7.0203

     occupation numbers 
     1.0000   1.0000   1.0000   1.0000   1.0000   1.0000   1.0000   1.0000
     1.0000   1.0000   1.0000   1.0000   1.0000   1.0000   1.0000   1.0000
     1.0000   1.0000   1.0000   1.0000   1.0000   1.0000   1.0000   1.0000
     1.0000   1.0000   1.0000   1.0000   1.0000   1.0000   1.0000   1.0000
     1.0000   1.0000   1.0000   1.0000   1.0000   1.0000   1.0000   1.0000
     1.0000   1.0000   1.0000   1.0000   1.0000   1.0000   1.0000   1.0000
     1.0000   1.0000   1.0000   1.0000   1.0000   1.0000   1.0000   1.0000
     1.0000   1.0000   1.0000   1.0000   1.0000   1.0000   1.0000   1.0000
     1.0000   1.0000   1.0000   1.0000   1.0000   1.0000   1.0000   1.0000
     1.0000   1.0000   1.0000   1.0000   1.0000   1.0000   1.0000   1.0000
     1.0000   1.0000   1.0000   1.0000   1.0000   1.0000   1.0000   1.0000
     1.0000   1.0000   1.0000   1.0000   1.0000   1.0000   1.0000   1.0000
     1.0000   1.0000   1.0000   1.0000   1.0000   1.0000   1.0000   1.0000
     1.0000   1.0000   1.0000   1.0000   1.0000   1.0000   1.0000   1.0000
     1.0000   1.0000   1.0000   1.0000   1.0000   1.0000   1.0000   1.0000
     1.0000   1.0000   1.0000   1.0000   1.0000   1.0000   1.0000   1.0000
     1.0000   1.0000   1.0000   1.0000   1.0000   1.0000   1.0000   1.0000
     1.0000   1.0000   1.0000   1.0000   1.0000   1.0000   1.0000   1.0000
     1.0000   1.0000   1.0000   1.0000   1.0000   1.0000   1.0000   1.0000
     1.0000   1.0000   1.0000   1.0000   1.0000   1.0000   1.0000   1.0000
     1.0000   1.0000   1.0000   1.0000   1.0000   1.0000   1.0000   1.0000
     1.0000   1.0000   1.0000   1.0000   1.0000   1.0000   1.0000   1.0000
     1.0000   1.0000   1.0000   1.0000   1.0000   1.0000   1.0000   1.0000
     1.0000   1.0000   1.0000   1.0000   1.0000   1.0000   1.0000   1.0000
     1.0000   1.0000   1.0000   1.0000   1.0000   1.0000   1.0000   1.0000
     1.0000   1.0000   1.0000   1.0000   1.0000   1.0000   1.0000   1.0000
     1.0000   1.0000   1.0000   1.0000   1.0000   1.0000   1.0000   1.0000
     1.0000   1.0000   1.0000   1.0000   1.0000   1.0000   1.0000   1.0000
     1.0000   1.0000   1.0000   1.0000   1.0000   1.0000   1.0000   1.0000
     1.0000   1.0000   1.0000   1.0000   1.0000   1.0000   1.0000   1.0000
     1.0000   1.0000   1.0000   1.0000   1.0000   1.0000   1.0000   1.0000
     1.0000   1.0000   1.0000   1.0000   1.0000   1.0000   1.0000   1.0000
     1.0000   1.0000   1.0000   1.0000   1.0000   1.0000   1.0000   1.0000
     1.0000   1.0000   1.0000   1.0000   1.0000   1.0000   1.0000   1.0000
     1.0000   1.0000   1.0000   1.0000   1.0000   1.0000   1.0000   1.0000
     1.0000   1.0000   1.0000   1.0000   1.0000   1.0000   1.0000   1.0000
     1.0000   1.0000   1.0000   1.0000   1.0000   1.0000   1.0000   1.0000
     1.0000   1.0000   1.0000   1.0000   1.0000   1.0000   1.0000   1.0000
     1.0000   1.0000   1.0000   1.0000   1.0000   1.0000   1.0000   1.0000
     1.0000   1.0000   1.0000   1.0000   1.0000   1.0000   1.0000   1.0000
     1.0000   1.0000   1.0000   1.0000   1.0000   1.0000   1.0000   1.0000
     1.0000   1.0000   1.0000   1.0000   1.0000   1.0000   1.0000   1.0000
     1.0000   1.0000   1.0000   1.0000   1.0000   1.0000   1.0000   1.0000
     1.0000   1.0000   1.0000   1.0000   1.0000   1.0000   1.0000   1.0000

          k = 0.0247-0.5725 0.0000 (360514 PWs)   bands (ev):

   -25.1078 -25.0958 -25.0748 -25.0476 -24.8559 -24.8427 -24.8246 -24.8081
   -24.7853 -24.7635 -24.7367 -24.7315 -24.4118 -24.3671 -24.3472 -24.3135
   -24.3051 -24.2833 -24.2662 -24.2318 -24.2161 -24.2085 -24.1515 -24.1488
   -24.1165 -24.0870 -24.0832 -24.0689 -24.0615 -24.0491 -24.0354 -23.9880
   -23.9560 -23.9241 -23.9070 -23.9065 -23.8916 -23.8597 -23.8510 -23.8400
   -23.8200 -23.8004 -23.7817 -23.7566 -23.7240 -23.7030 -23.6907 -23.5982
   -20.1649 -20.1367 -20.1271 -20.1129 -20.1087 -20.1022 -20.0913 -20.0860
   -20.0758 -20.0693 -20.0528 -20.0477 -20.0386 -20.0250 -20.0212 -20.0144
   -20.0081 -20.0025 -19.9988 -19.9967 -19.9894 -19.9859 -19.9829 -19.9775
   -19.9743 -19.9705 -19.9689 -19.9678 -19.9670 -19.9615 -19.9593 -19.9589
   -19.9541 -19.9512 -19.9501 -19.9441 -19.9391 -19.9340 -19.9317 -19.9274
   -19.9237 -19.9235 -19.9194 -19.9172 -19.9150 -19.9050 -19.9030 -19.9020
   -19.8992 -19.8970 -19.8902 -19.8888 -19.8791 -19.8770 -19.8747 -19.8724
   -19.8724 -19.8672 -19.8656 -19.8596 -19.8576 -19.8551 -19.8533 -19.8530
   -19.8479 -19.8456 -19.8438 -19.8419 -19.8370 -19.8346 -19.8317 -19.8315
   -19.8271 -19.8255 -19.8230 -19.8220 -19.8200 -19.8186 -19.8143 -19.8098
   -19.8039 -19.8031 -19.7946 -19.7923 -19.7899 -19.7861 -19.7842 -19.7814
   -19.7814 -19.7744 -19.7737 -19.7662 -19.7607 -19.7518 -19.7498 -19.7481
   -19.7445 -19.7375 -19.7333 -19.7322 -19.7300 -19.7256 -19.7109 -19.7109
   -19.7082 -19.6995 -19.6978 -19.6925 -19.6777 -19.6756 -19.6738 -19.6467
   -19.6465 -19.6448 -19.6329 -19.6287 -19.6124 -19.6061 -19.5902 -19.5834
   -19.5659 -19.5573 -19.5389 -19.5189 -19.4478 -19.4154 -19.4123 -19.3979
   -19.3581 -19.3356 -19.3351 -19.3216 -19.3056 -19.3025 -19.2968 -19.2858
   -19.2798 -19.2795 -19.2742 -19.2703 -19.1855 -19.1811 -19.1786 -19.1660
   -19.1090 -19.0714 -19.0701 -19.0666 -19.0269 -19.0127 -19.0017 -18.9992
   -18.9790 -18.9725 -18.9705 -18.9691 -18.9536 -18.9464 -18.9383 -18.8960
   -13.1143 -13.1039 -13.0732 -13.0614 -12.8509 -12.8321 -12.8268 -12.8124
   -12.5002 -12.4963 -12.4817 -12.4715 -12.4511 -12.4477 -12.4404 -12.4204
   -12.2531 -12.2415 -12.2327 -12.2284 -11.6115 -11.6067 -11.5920 -11.5815
   -11.2590 -11.2545 -11.2492 -11.2380 -10.8519 -10.8420 -10.8365 -10.8154
   -10.7001 -10.6876 -10.6509 -10.6486 -10.6272 -10.6209 -10.6002 -10.5767
   -10.4475 -10.4359 -10.4169 -10.3769 -10.0705 -10.0430 -10.0348 -10.0175
   -10.0052  -9.9803  -9.9679  -9.9613  -9.8874  -9.8773  -9.8601  -9.8128
    -9.4818  -9.4748  -9.4651  -9.4492  -9.3986  -9.3760  -9.3723  -9.3517
    -9.2805  -9.2471  -9.2215  -9.2187  -9.1824  -9.1768  -9.1709  -9.1578
    -9.0134  -9.0013  -8.9854  -8.9818  -8.7046  -8.6792  -8.6253  -8.6198
    -8.6034  -8.5885  -8.5761  -8.5701  -8.5097  -8.5012  -8.4854  -8.4774
    -8.3453  -8.3140  -8.2893  -8.2833  -8.2682  -8.2527  -8.2424  -8.2353
    -8.2305  -8.2171  -8.2087  -8.2031  -7.9556  -7.9220  -7.9071  -7.8915
    -7.8715  -7.8465  -7.8424  -7.8314  -7.7863  -7.7780  -7.7720  -7.7678
    -7.6819  -7.6672  -7.6607  -7.6541  -7.6261  -7.6074  -7.5985  -7.5869
    -7.5742  -7.5513  -7.5502  -7.5399  -7.5236  -7.5146  -7.5104  -7.4991
    -7.4832  -7.4699  -7.4562  -7.4517  -7.4498  -7.4372  -7.4146  -7.4022
    -7.3994  -7.3810  -7.3400  -7.3126  -7.1187  -7.0963  -7.0507  -7.0179

     occupation numbers 
     1.0000   1.0000   1.0000   1.0000   1.0000   1.0000   1.0000   1.0000
     1.0000   1.0000   1.0000   1.0000   1.0000   1.0000   1.0000   1.0000
     1.0000   1.0000   1.0000   1.0000   1.0000   1.0000   1.0000   1.0000
     1.0000   1.0000   1.0000   1.0000   1.0000   1.0000   1.0000   1.0000
     1.0000   1.0000   1.0000   1.0000   1.0000   1.0000   1.0000   1.0000
     1.0000   1.0000   1.0000   1.0000   1.0000   1.0000   1.0000   1.0000
     1.0000   1.0000   1.0000   1.0000   1.0000   1.0000   1.0000   1.0000
     1.0000   1.0000   1.0000   1.0000   1.0000   1.0000   1.0000   1.0000
     1.0000   1.0000   1.0000   1.0000   1.0000   1.0000   1.0000   1.0000
     1.0000   1.0000   1.0000   1.0000   1.0000   1.0000   1.0000   1.0000
     1.0000   1.0000   1.0000   1.0000   1.0000   1.0000   1.0000   1.0000
     1.0000   1.0000   1.0000   1.0000   1.0000   1.0000   1.0000   1.0000
     1.0000   1.0000   1.0000   1.0000   1.0000   1.0000   1.0000   1.0000
     1.0000   1.0000   1.0000   1.0000   1.0000   1.0000   1.0000   1.0000
     1.0000   1.0000   1.0000   1.0000   1.0000   1.0000   1.0000   1.0000
     1.0000   1.0000   1.0000   1.0000   1.0000   1.0000   1.0000   1.0000
     1.0000   1.0000   1.0000   1.0000   1.0000   1.0000   1.0000   1.0000
     1.0000   1.0000   1.0000   1.0000   1.0000   1.0000   1.0000   1.0000
     1.0000   1.0000   1.0000   1.0000   1.0000   1.0000   1.0000   1.0000
     1.0000   1.0000   1.0000   1.0000   1.0000   1.0000   1.0000   1.0000
     1.0000   1.0000   1.0000   1.0000   1.0000   1.0000   1.0000   1.0000
     1.0000   1.0000   1.0000   1.0000   1.0000   1.0000   1.0000   1.0000
     1.0000   1.0000   1.0000   1.0000   1.0000   1.0000   1.0000   1.0000
     1.0000   1.0000   1.0000   1.0000   1.0000   1.0000   1.0000   1.0000
     1.0000   1.0000   1.0000   1.0000   1.0000   1.0000   1.0000   1.0000
     1.0000   1.0000   1.0000   1.0000   1.0000   1.0000   1.0000   1.0000
     1.0000   1.0000   1.0000   1.0000   1.0000   1.0000   1.0000   1.0000
     1.0000   1.0000   1.0000   1.0000   1.0000   1.0000   1.0000   1.0000
     1.0000   1.0000   1.0000   1.0000   1.0000   1.0000   1.0000   1.0000
     1.0000   1.0000   1.0000   1.0000   1.0000   1.0000   1.0000   1.0000
     1.0000   1.0000   1.0000   1.0000   1.0000   1.0000   1.0000   1.0000
     1.0000   1.0000   1.0000   1.0000   1.0000   1.0000   1.0000   1.0000
     1.0000   1.0000   1.0000   1.0000   1.0000   1.0000   1.0000   1.0000
     1.0000   1.0000   1.0000   1.0000   1.0000   1.0000   1.0000   1.0000
     1.0000   1.0000   1.0000   1.0000   1.0000   1.0000   1.0000   1.0000
     1.0000   1.0000   1.0000   1.0000   1.0000   1.0000   1.0000   1.0000
     1.0000   1.0000   1.0000   1.0000   1.0000   1.0000   1.0000   1.0000
     1.0000   1.0000   1.0000   1.0000   1.0000   1.0000   1.0000   1.0000
     1.0000   1.0000   1.0000   1.0000   1.0000   1.0000   1.0000   1.0000
     1.0000   1.0000   1.0000   1.0000   1.0000   1.0000   1.0000   1.0000
     1.0000   1.0000   1.0000   1.0000   1.0000   1.0000   1.0000   1.0000
     1.0000   1.0000   1.0000   1.0000   1.0000   1.0000   1.0000   1.0000
     1.0000   1.0000   1.0000   1.0000   1.0000   1.0000   1.0000   1.0000
     1.0000   1.0000   1.0000   1.0000   1.0000   1.0000   1.0000   1.0000

          k =-0.5052 0.1105 0.0000 (360696 PWs)   bands (ev):

   -25.0892 -25.0777 -25.0502 -25.0003 -24.9894 -24.9373 -24.9205 -24.8930
   -24.6515 -24.5997 -24.5708 -24.5294 -24.5243 -24.5129 -24.4926 -24.4871
   -24.2516 -24.2415 -24.2184 -24.2078 -24.1962 -24.1737 -24.1455 -24.1218
   -24.1170 -24.1032 -24.0973 -24.0946 -24.0629 -24.0510 -24.0360 -23.9859
   -23.9529 -23.9212 -23.9052 -23.8985 -23.8817 -23.8642 -23.8536 -23.8432
   -23.8173 -23.8007 -23.7815 -23.7596 -23.7226 -23.7014 -23.6926 -23.5988
   -20.1751 -20.1426 -20.1378 -20.1196 -20.1005 -20.0901 -20.0901 -20.0848
   -20.0774 -20.0674 -20.0544 -20.0408 -20.0376 -20.0268 -20.0223 -20.0207
   -20.0094 -20.0093 -19.9972 -19.9970 -19.9864 -19.9830 -19.9820 -19.9818
   -19.9780 -19.9733 -19.9691 -19.9691 -19.9661 -19.9625 -19.9595 -19.9590
   -19.9523 -19.9487 -19.9465 -19.9425 -19.9392 -19.9307 -19.9299 -19.9287
   -19.9216 -19.9200 -19.9188 -19.9159 -19.9096 -19.9056 -19.9021 -19.9008
   -19.8953 -19.8856 -19.8847 -19.8821 -19.8821 -19.8802 -19.8714 -19.8692
   -19.8681 -19.8652 -19.8613 -19.8581 -19.8549 -19.8524 -19.8492 -19.8466
   -19.8453 -19.8444 -19.8408 -19.8364 -19.8339 -19.8333 -19.8305 -19.8281
   -19.8261 -19.8257 -19.8217 -19.8216 -19.8138 -19.8116 -19.8114 -19.8103
   -19.8060 -19.8008 -19.7977 -19.7974 -19.7946 -19.7917 -19.7878 -19.7837
   -19.7813 -19.7792 -19.7743 -19.7690 -19.7614 -19.7566 -19.7523 -19.7507
   -19.7462 -19.7372 -19.7355 -19.7346 -19.7318 -19.7314 -19.7161 -19.7102
   -19.7082 -19.7038 -19.6995 -19.6932 -19.6827 -19.6794 -19.6714 -19.6601
   -19.6491 -19.6424 -19.6367 -19.6263 -19.6116 -19.6052 -19.5766 -19.5581
   -19.5347 -19.5220 -19.5208 -19.5155 -19.4777 -19.4715 -19.4697 -19.4599
   -19.4301 -19.4017 -19.3854 -19.3785 -19.3040 -19.2903 -19.2878 -19.2745
   -19.2199 -19.2074 -19.1980 -19.1932 -19.1716 -19.1544 -19.1469 -19.1414
   -19.1062 -19.1055 -19.0907 -19.0754 -19.0494 -19.0217 -19.0086 -19.0053
   -18.9832 -18.9802 -18.9696 -18.9588 -18.9458 -18.9434 -18.9417 -18.8934
   -13.0551 -13.0180 -13.0057 -12.9864 -12.8907 -12.8861 -12.8796 -12.8710
   -12.8255 -12.8053 -12.7993 -12.7752 -12.2301 -12.2093 -12.1796 -12.1707
   -12.0960 -12.0825 -12.0558 -12.0330 -11.8580 -11.8460 -11.8104 -11.7791
   -10.9243 -10.9211 -10.8996 -10.8879 -10.7903 -10.7610 -10.7431 -10.7164
   -10.7073 -10.6893 -10.6722 -10.6679 -10.6275 -10.6173 -10.5897 -10.5684
   -10.5655 -10.5463 -10.5312 -10.5086 -10.4068 -10.3815 -10.3507 -10.3156
   -10.0912 -10.0716 -10.0619 -10.0303  -9.8542  -9.8171  -9.7694  -9.7459
    -9.6334  -9.6261  -9.5784  -9.5293  -9.1917  -9.1768  -9.1617  -9.1221
    -9.1015  -9.0951  -9.0726  -9.0698  -9.0424  -9.0227  -8.9866  -8.9692
    -8.9406  -8.9293  -8.9172  -8.8845  -8.8340  -8.8073  -8.7890  -8.7739
    -8.7470  -8.7435  -8.7383  -8.7278  -8.6939  -8.6739  -8.6702  -8.6606
    -8.4103  -8.3992  -8.3616  -8.3555  -8.3255  -8.3041  -8.2893  -8.2292
    -8.0141  -7.9931  -7.9777  -7.9597  -7.9493  -7.9426  -7.9376  -7.9339
    -7.9293  -7.9256  -7.9076  -7.9022  -7.7505  -7.7210  -7.7160  -7.7076
    -7.6986  -7.6962  -7.6802  -7.6765  -7.6545  -7.6421  -7.6149  -7.5893
    -7.5791  -7.5413  -7.5229  -7.5013  -7.4919  -7.4847  -7.4733  -7.4544
    -7.4392  -7.4361  -7.4087  -7.4028  -7.3888  -7.3560  -7.3387  -7.3286
    -7.3095  -7.2864  -7.2700  -7.2659  -7.2569  -7.2456  -7.1919  -7.1432

     occupation numbers 
     1.0000   1.0000   1.0000   1.0000   1.0000   1.0000   1.0000   1.0000
     1.0000   1.0000   1.0000   1.0000   1.0000   1.0000   1.0000   1.0000
     1.0000   1.0000   1.0000   1.0000   1.0000   1.0000   1.0000   1.0000
     1.0000   1.0000   1.0000   1.0000   1.0000   1.0000   1.0000   1.0000
     1.0000   1.0000   1.0000   1.0000   1.0000   1.0000   1.0000   1.0000
     1.0000   1.0000   1.0000   1.0000   1.0000   1.0000   1.0000   1.0000
     1.0000   1.0000   1.0000   1.0000   1.0000   1.0000   1.0000   1.0000
     1.0000   1.0000   1.0000   1.0000   1.0000   1.0000   1.0000   1.0000
     1.0000   1.0000   1.0000   1.0000   1.0000   1.0000   1.0000   1.0000
     1.0000   1.0000   1.0000   1.0000   1.0000   1.0000   1.0000   1.0000
     1.0000   1.0000   1.0000   1.0000   1.0000   1.0000   1.0000   1.0000
     1.0000   1.0000   1.0000   1.0000   1.0000   1.0000   1.0000   1.0000
     1.0000   1.0000   1.0000   1.0000   1.0000   1.0000   1.0000   1.0000
     1.0000   1.0000   1.0000   1.0000   1.0000   1.0000   1.0000   1.0000
     1.0000   1.0000   1.0000   1.0000   1.0000   1.0000   1.0000   1.0000
     1.0000   1.0000   1.0000   1.0000   1.0000   1.0000   1.0000   1.0000
     1.0000   1.0000   1.0000   1.0000   1.0000   1.0000   1.0000   1.0000
     1.0000   1.0000   1.0000   1.0000   1.0000   1.0000   1.0000   1.0000
     1.0000   1.0000   1.0000   1.0000   1.0000   1.0000   1.0000   1.0000
     1.0000   1.0000   1.0000   1.0000   1.0000   1.0000   1.0000   1.0000
     1.0000   1.0000   1.0000   1.0000   1.0000   1.0000   1.0000   1.0000
     1.0000   1.0000   1.0000   1.0000   1.0000   1.0000   1.0000   1.0000
     1.0000   1.0000   1.0000   1.0000   1.0000   1.0000   1.0000   1.0000
     1.0000   1.0000   1.0000   1.0000   1.0000   1.0000   1.0000   1.0000
     1.0000   1.0000   1.0000   1.0000   1.0000   1.0000   1.0000   1.0000
     1.0000   1.0000   1.0000   1.0000   1.0000   1.0000   1.0000   1.0000
     1.0000   1.0000   1.0000   1.0000   1.0000   1.0000   1.0000   1.0000
     1.0000   1.0000   1.0000   1.0000   1.0000   1.0000   1.0000   1.0000
     1.0000   1.0000   1.0000   1.0000   1.0000   1.0000   1.0000   1.0000
     1.0000   1.0000   1.0000   1.0000   1.0000   1.0000   1.0000   1.0000
     1.0000   1.0000   1.0000   1.0000   1.0000   1.0000   1.0000   1.0000
     1.0000   1.0000   1.0000   1.0000   1.0000   1.0000   1.0000   1.0000
     1.0000   1.0000   1.0000   1.0000   1.0000   1.0000   1.0000   1.0000
     1.0000   1.0000   1.0000   1.0000   1.0000   1.0000   1.0000   1.0000
     1.0000   1.0000   1.0000   1.0000   1.0000   1.0000   1.0000   1.0000
     1.0000   1.0000   1.0000   1.0000   1.0000   1.0000   1.0000   1.0000
     1.0000   1.0000   1.0000   1.0000   1.0000   1.0000   1.0000   1.0000
     1.0000   1.0000   1.0000   1.0000   1.0000   1.0000   1.0000   1.0000
     1.0000   1.0000   1.0000   1.0000   1.0000   1.0000   1.0000   1.0000
     1.0000   1.0000   1.0000   1.0000   1.0000   1.0000   1.0000   1.0000
     1.0000   1.0000   1.0000   1.0000   1.0000   1.0000   1.0000   1.0000
     1.0000   1.0000   1.0000   1.0000   1.0000   1.0000   1.0000   1.0000
     1.0000   1.0000   1.0000   1.0000   1.0000   1.0000   1.0000   1.0000
     1.0000   1.0000   1.0000   1.0000   1.0000   1.0000   1.0000   1.0000

          k =-0.4805-0.4620 0.0000 (360682 PWs)   bands (ev):

   -25.0728 -25.0714 -25.0344 -25.0220 -24.9743 -24.9588 -24.9265 -24.9107
   -24.6528 -24.6054 -24.5701 -24.5484 -24.5148 -24.5016 -24.4874 -24.4840
   -24.2468 -24.2377 -24.2100 -24.2014 -24.1948 -24.1772 -24.1292 -24.1209
   -24.1167 -24.1139 -24.0939 -24.0807 -24.0575 -24.0528 -24.0507 -23.9974
   -23.9539 -23.9257 -23.9031 -23.9029 -23.8935 -23.8624 -23.8522 -23.8365
   -23.8207 -23.8039 -23.7825 -23.7570 -23.7237 -23.7027 -23.6896 -23.5979
   -20.1655 -20.1370 -20.1301 -20.1101 -20.1092 -20.0991 -20.0934 -20.0873
   -20.0791 -20.0670 -20.0540 -20.0478 -20.0403 -20.0253 -20.0223 -20.0141
   -20.0096 -20.0051 -20.0004 -19.9983 -19.9939 -19.9873 -19.9804 -19.9790
   -19.9781 -19.9730 -19.9715 -19.9690 -19.9677 -19.9594 -19.9581 -19.9570
   -19.9551 -19.9519 -19.9484 -19.9401 -19.9392 -19.9348 -19.9300 -19.9279
   -19.9228 -19.9218 -19.9169 -19.9165 -19.9070 -19.9053 -19.9048 -19.8966
   -19.8962 -19.8917 -19.8895 -19.8874 -19.8862 -19.8773 -19.8706 -19.8704
   -19.8694 -19.8642 -19.8606 -19.8593 -19.8589 -19.8551 -19.8524 -19.8460
   -19.8455 -19.8448 -19.8400 -19.8390 -19.8369 -19.8312 -19.8311 -19.8282
   -19.8276 -19.8245 -19.8217 -19.8181 -19.8138 -19.8117 -19.8096 -19.8065
   -19.8050 -19.8013 -19.7964 -19.7934 -19.7933 -19.7906 -19.7869 -19.7858
   -19.7802 -19.7780 -19.7738 -19.7687 -19.7602 -19.7526 -19.7515 -19.7512
   -19.7478 -19.7392 -19.7368 -19.7325 -19.7309 -19.7306 -19.7159 -19.7131
   -19.7086 -19.7005 -19.6977 -19.6934 -19.6806 -19.6781 -19.6758 -19.6586
   -19.6556 -19.6435 -19.6381 -19.6271 -19.6141 -19.6124 -19.5807 -19.5653
   -19.5360 -19.5306 -19.5261 -19.5212 -19.4697 -19.4596 -19.4451 -19.4369
   -19.3646 -19.3524 -19.3428 -19.3274 -19.3105 -19.3089 -19.3070 -19.2987
   -19.2645 -19.2561 -19.2407 -19.2296 -19.1839 -19.1746 -19.1693 -19.1550
   -19.0975 -19.0636 -19.0579 -19.0519 -19.0392 -19.0305 -19.0048 -19.0009
   -18.9938 -18.9836 -18.9730 -18.9702 -18.9460 -18.9439 -18.9345 -18.8945
   -13.1360 -13.1332 -13.1043 -13.0952 -12.6912 -12.6882 -12.6646 -12.6400
   -12.6331 -12.6168 -12.5981 -12.5787 -12.3850 -12.3721 -12.3588 -12.3308
   -12.2624 -12.2555 -12.2195 -12.1951 -12.0056 -11.9930 -11.9746 -11.9695
   -10.8320 -10.8285 -10.8108 -10.8079 -10.7975 -10.7917 -10.7698 -10.7545
   -10.7402 -10.7027 -10.6795 -10.6532 -10.5365 -10.5017 -10.4851 -10.4590
   -10.4294 -10.4141 -10.4037 -10.3888 -10.3856 -10.3744 -10.3439 -10.3357
   -10.0186 -10.0139  -9.9870  -9.9798  -9.8081  -9.7892  -9.7760  -9.7678
    -9.5769  -9.5544  -9.5385  -9.5329  -9.3827  -9.3425  -9.3390  -9.3313
    -9.2718  -9.2553  -9.2415  -9.2348  -8.9746  -8.9693  -8.9595  -8.9321
    -8.9272  -8.9159  -8.9133  -8.8956  -8.8828  -8.8692  -8.8260  -8.8185
    -8.7819  -8.7796  -8.7559  -8.7515  -8.5958  -8.5939  -8.5703  -8.5689
    -8.3633  -8.3283  -8.3237  -8.3028  -8.2769  -8.2517  -8.2370  -8.1996
    -7.9846  -7.9752  -7.9596  -7.9393  -7.9066  -7.8899  -7.8847  -7.8795
    -7.8696  -7.8559  -7.8271  -7.8233  -7.7935  -7.7782  -7.7674  -7.7380
    -7.7300  -7.7181  -7.6974  -7.6943  -7.6800  -7.6726  -7.6518  -7.6481
    -7.5978  -7.5875  -7.5681  -7.5371  -7.5206  -7.5094  -7.5019  -7.4819
    -7.4710  -7.4588  -7.4477  -7.4360  -7.4029  -7.3801  -7.3388  -7.3236
    -7.3100  -7.2721  -7.2654  -7.2582  -7.2555  -7.2519  -7.1881  -7.1400

     occupation numbers 
     1.0000   1.0000   1.0000   1.0000   1.0000   1.0000   1.0000   1.0000
     1.0000   1.0000   1.0000   1.0000   1.0000   1.0000   1.0000   1.0000
     1.0000   1.0000   1.0000   1.0000   1.0000   1.0000   1.0000   1.0000
     1.0000   1.0000   1.0000   1.0000   1.0000   1.0000   1.0000   1.0000
     1.0000   1.0000   1.0000   1.0000   1.0000   1.0000   1.0000   1.0000
     1.0000   1.0000   1.0000   1.0000   1.0000   1.0000   1.0000   1.0000
     1.0000   1.0000   1.0000   1.0000   1.0000   1.0000   1.0000   1.0000
     1.0000   1.0000   1.0000   1.0000   1.0000   1.0000   1.0000   1.0000
     1.0000   1.0000   1.0000   1.0000   1.0000   1.0000   1.0000   1.0000
     1.0000   1.0000   1.0000   1.0000   1.0000   1.0000   1.0000   1.0000
     1.0000   1.0000   1.0000   1.0000   1.0000   1.0000   1.0000   1.0000
     1.0000   1.0000   1.0000   1.0000   1.0000   1.0000   1.0000   1.0000
     1.0000   1.0000   1.0000   1.0000   1.0000   1.0000   1.0000   1.0000
     1.0000   1.0000   1.0000   1.0000   1.0000   1.0000   1.0000   1.0000
     1.0000   1.0000   1.0000   1.0000   1.0000   1.0000   1.0000   1.0000
     1.0000   1.0000   1.0000   1.0000   1.0000   1.0000   1.0000   1.0000
     1.0000   1.0000   1.0000   1.0000   1.0000   1.0000   1.0000   1.0000
     1.0000   1.0000   1.0000   1.0000   1.0000   1.0000   1.0000   1.0000
     1.0000   1.0000   1.0000   1.0000   1.0000   1.0000   1.0000   1.0000
     1.0000   1.0000   1.0000   1.0000   1.0000   1.0000   1.0000   1.0000
     1.0000   1.0000   1.0000   1.0000   1.0000   1.0000   1.0000   1.0000
     1.0000   1.0000   1.0000   1.0000   1.0000   1.0000   1.0000   1.0000
     1.0000   1.0000   1.0000   1.0000   1.0000   1.0000   1.0000   1.0000
     1.0000   1.0000   1.0000   1.0000   1.0000   1.0000   1.0000   1.0000
     1.0000   1.0000   1.0000   1.0000   1.0000   1.0000   1.0000   1.0000
     1.0000   1.0000   1.0000   1.0000   1.0000   1.0000   1.0000   1.0000
     1.0000   1.0000   1.0000   1.0000   1.0000   1.0000   1.0000   1.0000
     1.0000   1.0000   1.0000   1.0000   1.0000   1.0000   1.0000   1.0000
     1.0000   1.0000   1.0000   1.0000   1.0000   1.0000   1.0000   1.0000
     1.0000   1.0000   1.0000   1.0000   1.0000   1.0000   1.0000   1.0000
     1.0000   1.0000   1.0000   1.0000   1.0000   1.0000   1.0000   1.0000
     1.0000   1.0000   1.0000   1.0000   1.0000   1.0000   1.0000   1.0000
     1.0000   1.0000   1.0000   1.0000   1.0000   1.0000   1.0000   1.0000
     1.0000   1.0000   1.0000   1.0000   1.0000   1.0000   1.0000   1.0000
     1.0000   1.0000   1.0000   1.0000   1.0000   1.0000   1.0000   1.0000
     1.0000   1.0000   1.0000   1.0000   1.0000   1.0000   1.0000   1.0000
     1.0000   1.0000   1.0000   1.0000   1.0000   1.0000   1.0000   1.0000
     1.0000   1.0000   1.0000   1.0000   1.0000   1.0000   1.0000   1.0000
     1.0000   1.0000   1.0000   1.0000   1.0000   1.0000   1.0000   1.0000
     1.0000   1.0000   1.0000   1.0000   1.0000   1.0000   1.0000   1.0000
     1.0000   1.0000   1.0000   1.0000   1.0000   1.0000   1.0000   1.0000
     1.0000   1.0000   1.0000   1.0000   1.0000   1.0000   1.0000   1.0000
     1.0000   1.0000   1.0000   1.0000   1.0000   1.0000   1.0000   1.0000
     1.0000   1.0000   1.0000   1.0000   1.0000   1.0000   1.0000   1.0000

     highest occupied level (ev):    -7.0179

!    total energy              =  -10896.04276664 Ry
     estimated scf accuracy    <          7.3E-09 Ry

     convergence has been achieved in  25 iterations

     negative rho (up, down):  3.325E-03 0.000E+00

     Forces acting on atoms (cartesian axes, Ry/au):

     atom    1 type  1   force =    -0.00680100    0.00915240   -0.00044771
     atom    2 type  1   force =    -0.02555182   -0.00893447    0.00331544
     atom    3 type  2   force =    -0.00278879   -0.00195975   -0.00176495
     atom    4 type  2   force =     0.00246496    0.00299446   -0.00045657
     atom    5 type  2   force =     0.02670895    0.00771774   -0.00106643
     atom    6 type  1   force =     0.00016441    0.01990325   -0.00354264
     atom    7 type  1   force =     0.00935974    0.02519663   -0.00579761
     atom    8 type  2   force =    -0.00803858   -0.00649038   -0.00075134
     atom    9 type  2   force =     0.00188405   -0.03669941    0.00795697
     atom   10 type  2   force =     0.00082276    0.00086238    0.00644045
     atom   11 type  1   force =    -0.00901800    0.00590715   -0.00110752
     atom   12 type  1   force =    -0.00496744    0.00281681    0.00712434
     atom   13 type  2   force =    -0.01976406   -0.00041881    0.00044355
     atom   14 type  2   force =     0.00398604   -0.01483206    0.00248658
     atom   15 type  2   force =     0.01869133    0.00203794   -0.00668784
     atom   16 type  1   force =    -0.00546421    0.01354267    0.00722986
     atom   17 type  1   force =    -0.01742618   -0.00061560    0.00665820
     atom   18 type  2   force =     0.01176160    0.00009063   -0.00692669
     atom   19 type  2   force =     0.00663297   -0.02309042    0.00322536
     atom   20 type  2   force =     0.00382734    0.00406724   -0.00894613
     atom   21 type  1   force =    -0.01196832    0.00949572   -0.00575445
     atom   22 type  1   force =    -0.00849533   -0.01481470   -0.00136119
     atom   23 type  2   force =     0.00209932   -0.00417052   -0.00556641
     atom   24 type  2   force =    -0.00353121    0.04158792   -0.00707918
     atom   25 type  2   force =    -0.00110197    0.00513509    0.00854086
     atom   26 type  1   force =    -0.01265569   -0.00437356    0.00348154
     atom   27 type  1   force =    -0.00098360    0.02087093   -0.00037961
     atom   28 type  2   force =    -0.00394936   -0.00081777   -0.00734203
     atom   29 type  2   force =     0.00336613   -0.04877832    0.00939478
     atom   30 type  2   force =     0.00276977    0.00424223   -0.00844054
     atom   31 type  1   force =     0.00268185   -0.02397793    0.00809227
     atom   32 type  1   force =    -0.01550812   -0.01325464    0.00384131
     atom   33 type  2   force =     0.01077473   -0.00087905    0.00598149
     atom   34 type  2   force =     0.00533748    0.00204944   -0.00132905
     atom   35 type  2   force =     0.02537612   -0.00502954   -0.00531338
     atom   36 type  1   force =    -0.00529563    0.01937432    0.00001369
     atom   37 type  1   force =     0.01713431    0.00278769    0.00551920
     atom   38 type  2   force =    -0.00918902    0.00362843   -0.00686480
     atom   39 type  2   force =    -0.00401651    0.01597530   -0.00654286
     atom   40 type  2   force =    -0.00941804   -0.01183834   -0.00337854
     atom   41 type  1   force =    -0.00162471   -0.00543398   -0.00808948
     atom   42 type  1   force =     0.00993325   -0.01674534   -0.01139218
     atom   43 type  2   force =     0.00456042    0.00128521    0.00645867
     atom   44 type  2   force =    -0.00212694    0.01999199   -0.00195306
     atom   45 type  2   force =    -0.01097124    0.00068361    0.01411375
     atom   46 type  1   force =     0.00417343   -0.01267656    0.00434988
     atom   47 type  1   force =    -0.00343296   -0.02128213    0.01019583
     atom   48 type  2   force =     0.01973932   -0.01122375   -0.00146465
     atom   49 type  2   force =    -0.00448705    0.04455267   -0.00934521
     atom   50 type  2   force =    -0.00553496    0.00391893   -0.00029613
     atom   51 type  1   force =     0.00815109   -0.00689368   -0.00017842
     atom   52 type  1   force =     0.00119139    0.00887274   -0.00711481
     atom   53 type  2   force =    -0.00704477    0.00037129   -0.00041223
     atom   54 type  2   force =    -0.00300431    0.01131347   -0.00251316
     atom   55 type  2   force =    -0.01170597   -0.00839741    0.00708066
     atom   56 type  1   force =     0.00746342   -0.02962618    0.01084475
     atom   57 type  1   force =    -0.00298690   -0.00344752    0.00455610
     atom   58 type  2   force =     0.00648673    0.00546870   -0.00127191
     atom   59 type  2   force =    -0.00195479    0.02299669   -0.00691606
     atom   60 type  2   force =     0.00152564   -0.00229885   -0.00449036
     atom   61 type  1   force =     0.01453071   -0.02153863   -0.00237825
     atom   62 type  1   force =    -0.00150475   -0.01862179   -0.00673346
     atom   63 type  2   force =     0.00447624   -0.00515091    0.00770183
     atom   64 type  2   force =     0.00265862   -0.00464766    0.00389613
     atom   65 type  2   force =     0.00652868    0.00766778    0.01101669
     atom   66 type  1   force =     0.00009461    0.01297667   -0.00613339
     atom   67 type  1   force =     0.01695545   -0.01161335   -0.00475320
     atom   68 type  2   force =     0.00029295    0.00175929    0.00094103
     atom   69 type  2   force =    -0.00420204    0.03383609   -0.00609718
     atom   70 type  2   force =    -0.02049576   -0.00350176    0.01091654
     atom   71 type  1   force =     0.01295945    0.01098331   -0.00111572
     atom   72 type  1   force =     0.01383718    0.00790727   -0.00382998
     atom   73 type  2   force =    -0.00395553    0.00020784   -0.00370486
     atom   74 type  2   force =    -0.00771504    0.01610508   -0.00333234
     atom   75 type  2   force =    -0.01774665    0.00011565    0.00237455
     atom   76 type  1   force =    -0.00410173   -0.01933501    0.00391063
     atom   77 type  1   force =    -0.00008869   -0.00251286    0.00164151
     atom   78 type  2   force =    -0.00720021    0.01199463    0.00475420
     atom   79 type  2   force =     0.00034748   -0.01971758    0.00277903
     atom   80 type  2   force =     0.01606792    0.00319490   -0.00691421
     The non-local contrib.  to forces
     atom    1 type  1   force =     0.15473708   -0.09287908    0.04579011
     atom    2 type  1   force =     0.06039109    0.10804990   -0.03782820
     atom    3 type  2   force =    -0.08383778    0.29784649   -1.03258245
     atom    4 type  2   force =     0.85124930    0.08269209   -0.02330265
     atom    5 type  2   force =    -0.05928612   -0.31727629    1.04771904
     atom    6 type  1   force =     0.11886060   -0.05115687    0.04283524
     atom    7 type  1   force =     0.07636973    0.09804229   -0.00322159
     atom    8 type  2   force =    -0.08977512    0.31176449   -1.02984389
     atom    9 type  2   force =     0.81336146    0.12072311    0.08045146
     atom   10 type  2   force =    -0.02286014   -0.30608282    1.07197784
     atom   11 type  1   force =     0.14478684   -0.05566898    0.00561208
     atom   12 type  1   force =     0.06360805    0.06067862   -0.05761586
     atom   13 type  2   force =    -0.09055552    0.30558252   -1.00754737
     atom   14 type  2   force =     0.86664997    0.06716809   -0.00286666
     atom   15 type  2   force =    -0.04713427   -0.34178394    1.01680736
     atom   16 type  1   force =     0.11744910   -0.04837857    0.04026433
     atom   17 type  1   force =     0.09846800    0.14272908   -0.09028870
     atom   18 type  2   force =    -0.08579033    0.33978545   -1.06414604
     atom   19 type  2   force =     0.83794060    0.10170387   -0.02484953
     atom   20 type  2   force =    -0.04014548   -0.32456498    1.02212831
     atom   21 type  1   force =     0.12984258   -0.10411557    0.04778883
     atom   22 type  1   force =     0.04426513    0.08207207   -0.03431904
     atom   23 type  2   force =    -0.08106165    0.27024717   -1.06473345
     atom   24 type  2   force =     0.84149950    0.05336922    0.02812980
     atom   25 type  2   force =    -0.05210218   -0.31543835    1.08087988
     atom   26 type  1   force =     0.09579915   -0.06733700    0.01209485
     atom   27 type  1   force =     0.06913561    0.12436412   -0.07348389
     atom   28 type  2   force =    -0.10245088    0.29866078   -1.06200487
     atom   29 type  2   force =     0.81352337    0.11200140   -0.01712407
     atom   30 type  2   force =    -0.00629473   -0.31501261    0.99540109
     atom   31 type  1   force =     0.14872835   -0.07751375    0.08639719
     atom   32 type  1   force =     0.06683102    0.04478915   -0.07156756
     atom   33 type  2   force =    -0.11228248    0.28235954   -1.02056828
     atom   34 type  2   force =     0.85489166    0.04749693   -0.04505528
     atom   35 type  2   force =    -0.05854493   -0.33175503    1.01901798
     atom   36 type  1   force =     0.09327383    0.00355722    0.04134159
     atom   37 type  1   force =     0.05206813    0.08561074   -0.09842860
     atom   38 type  2   force =    -0.10385330    0.33372844   -1.06041043
     atom   39 type  2   force =     0.78227712    0.07225966   -0.05831856
     atom   40 type  2   force =    -0.04531539   -0.32833909    1.01580045
     atom   41 type  1   force =     0.06152951   -0.07558082    0.07614879
     atom   42 type  1   force =     0.05583880    0.08714491   -0.03077538
     atom   43 type  2   force =    -0.11055925    0.27334399   -1.03770448
     atom   44 type  2   force =     0.80006425    0.05829353    0.02468152
     atom   45 type  2   force =    -0.04573041   -0.29467672    1.09415374
     atom   46 type  1   force =     0.12773025   -0.10905553    0.05863320
     atom   47 type  1   force =     0.08289749    0.08146430   -0.05156280
     atom   48 type  2   force =    -0.09309633    0.30764431   -1.04944860
     atom   49 type  2   force =     0.81402208    0.02690028   -0.01009712
     atom   50 type  2   force =    -0.06434763   -0.33089124    1.03228408
     atom   51 type  1   force =     0.11363651   -0.07378021    0.06757357
     atom   52 type  1   force =     0.06207513    0.06522730   -0.09182313
     atom   53 type  2   force =    -0.08258737    0.28460607   -1.04381122
     atom   54 type  2   force =     0.81097272    0.06931338   -0.03111280
     atom   55 type  2   force =    -0.01548871   -0.35207677    1.06623461
     atom   56 type  1   force =     0.10059122   -0.06919768    0.06622126
     atom   57 type  1   force =     0.05047453    0.02817237   -0.07057426
     atom   58 type  2   force =    -0.11436620    0.30762203   -1.03881522
     atom   59 type  2   force =     0.83109515    0.04783591   -0.00382850
     atom   60 type  2   force =    -0.05949392   -0.32328335    1.01877178
     atom   61 type  1   force =     0.08438574   -0.08368616    0.06942416
     atom   62 type  1   force =     0.03711565    0.10692186    0.00575890
     atom   63 type  2   force =    -0.11533831    0.28616139   -1.02088861
     atom   64 type  2   force =     0.78736533    0.08082192    0.06916317
     atom   65 type  2   force =    -0.07428317   -0.29865037    1.06689154
     atom   66 type  1   force =     0.08012219   -0.08154041    0.08702651
     atom   67 type  1   force =     0.07386301    0.08112591   -0.05637447
     atom   68 type  2   force =    -0.08663375    0.26924748   -1.03212421
     atom   69 type  2   force =     0.79967699    0.07235986    0.06208446
     atom   70 type  2   force =    -0.02865656   -0.30993306    1.07128358
     atom   71 type  1   force =     0.08483125   -0.06741760    0.08245019
     atom   72 type  1   force =     0.05569167    0.07649402   -0.05050242
     atom   73 type  2   force =    -0.08062553    0.31691325   -1.05903888
     atom   74 type  2   force =     0.77709472    0.06942749    0.03079478
     atom   75 type  2   force =    -0.04740153   -0.29877430    1.02694185
     atom   76 type  1   force =     0.10784608   -0.04724643    0.06199722
     atom   77 type  1   force =     0.03003818    0.06478010   -0.11119034
     atom   78 type  2   force =    -0.10808533    0.29659416   -1.01726976
     atom   79 type  2   force =     0.78373859    0.06910567   -0.03812475
     atom   80 type  2   force =    -0.02266511   -0.30675113    0.99540331
     The ionic contribution  to forces
     atom    1 type  1   force =     1.53572701   11.30278882  -89.28366194
     atom    2 type  1   force =     1.03306536  -10.98438946 -128.64157526
     atom    3 type  2   force =     0.00633978   -0.56828360  -15.27235584
     atom    4 type  2   force =    -3.72212438   -0.11950815  -50.01013258
     atom    5 type  2   force =     0.73971822    0.74035472  -85.49334018
     atom    6 type  1   force =     1.31927305   11.63028589  129.01466755
     atom    7 type  1   force =     1.69070779  -10.46948771   89.59325571
     atom    8 type  2   force =    -0.00695162   -0.90948151   85.86306831
     atom    9 type  2   force =    -3.45973197   -1.00637451   48.75772795
     atom   10 type  2   force =     0.04424749    0.69060647   14.82815467
     atom   11 type  1   force =     1.01550049   11.66439879  -89.84477040
     atom   12 type  1   force =     1.54729384  -10.90173371 -129.81770235
     atom   13 type  2   force =    -0.28794117   -0.52000976  -15.38779602
     atom   14 type  2   force =    -3.58274881   -0.48039425  -50.58511503
     atom   15 type  2   force =     0.44817255    0.81591599  -85.86601574
     atom   16 type  1   force =     1.27883393   11.55239367  129.56185828
     atom   17 type  1   force =     1.47115020  -10.90704137   87.98614158
     atom   18 type  2   force =     0.42462804   -0.91109342   86.11610243
     atom   19 type  2   force =    -3.40605440   -0.75025624   50.16903074
     atom   20 type  2   force =     0.18963033    0.61192853   15.57292546
     atom   21 type  1   force =     1.14502729   11.34270926  -89.29178891
     atom   22 type  1   force =     1.58487635  -10.99439236 -128.34078267
     atom   23 type  2   force =     0.21994308   -0.53027710  -15.02526059
     atom   24 type  2   force =    -3.55576364    0.81408680  -50.59188059
     atom   25 type  2   force =     0.06612345    0.74773472  -86.12929470
     atom   26 type  1   force =     0.78016757   10.94713902  129.09408741
     atom   27 type  1   force =     1.81734429  -10.53583242   89.16236578
     atom   28 type  2   force =     0.13993241   -0.72527453   86.03187986
     atom   29 type  2   force =    -3.34823966   -1.31621297   50.59502131
     atom   30 type  2   force =     0.06164897    0.40108803   15.82262478
     atom   31 type  1   force =     1.80103017   10.82731874  -88.75051643
     atom   32 type  1   force =     1.82541336  -11.63519275 -129.52193425
     atom   33 type  2   force =     0.54364413   -0.52333586  -15.38653602
     atom   34 type  2   force =    -3.42608261   -0.06067827  -49.61190656
     atom   35 type  2   force =     0.73739126    0.59334308  -85.38227827
     atom   36 type  1   force =     1.12690183   11.83790869  129.39704501
     atom   37 type  1   force =     2.20302719  -10.92827337   88.09808909
     atom   38 type  2   force =     0.13053955   -0.90524810   86.04681694
     atom   39 type  2   force =    -3.43496937    0.24514081   50.66128126
     atom   40 type  2   force =    -0.04565818    0.53423090   15.30425011
     atom   41 type  1   force =     0.91719598   10.92358186  -89.40093250
     atom   42 type  1   force =     2.13196137  -11.32110376 -128.73310975
     atom   43 type  2   force =     0.41954737   -0.48292860  -15.45820664
     atom   44 type  2   force =    -3.33466081    0.32868700  -50.33361723
     atom   45 type  2   force =    -0.12997645    0.56583109  -86.40104604
     atom   46 type  1   force =     1.85592235   10.59738871  129.66297805
     atom   47 type  1   force =     2.00450385  -11.45208471   88.78924667
     atom   48 type  2   force =     0.69148332   -1.05463045   85.92085438
     atom   49 type  2   force =    -3.45878847    0.97253403   50.45060732
     atom   50 type  2   force =     0.21998833    0.54746648   15.51827337
     atom   51 type  1   force =     1.58344529   11.21644506  -88.67671229
     atom   52 type  1   force =     1.72368230  -10.83700348 -129.39157727
     atom   53 type  2   force =     0.05398032   -0.66711888  -15.26656902
     atom   54 type  2   force =    -3.59918018    0.12601017  -49.93287766
     atom   55 type  2   force =    -0.28672794    0.92820229  -86.23394265
     atom   56 type  1   force =     1.44527909   10.78422210  129.53245146
     atom   57 type  1   force =     1.72460399  -11.41164637   88.93187979
     atom   58 type  2   force =     0.47985514   -0.80253020   85.98780669
     atom   59 type  2   force =    -3.42065450    0.48961635   49.99979067
     atom   60 type  2   force =     0.18461300    0.49394843   15.45232363
     atom   61 type  1   force =     1.63651045   10.42515372  -89.31129705
     atom   62 type  1   force =     1.68356048  -11.46940697 -128.57760235
     atom   63 type  2   force =     0.37679641   -0.61042217  -15.49839755
     atom   64 type  2   force =    -3.25137087   -0.32707805  -51.17148449
     atom   65 type  2   force =     0.44130676    0.61168271  -85.89130437
     atom   66 type  1   force =     1.00362726   11.08343121  129.80376251
     atom   67 type  1   force =     2.22536753  -11.07628486   89.79198247
     atom   68 type  2   force =     0.26331671   -0.62862415   85.46769168
     atom   69 type  2   force =    -3.47804497    0.63509302   49.33948563
     atom   70 type  2   force =    -0.47623584    0.62302694   15.05514032
     atom   71 type  1   force =     1.44380740   11.58192082  -88.41311575
     atom   72 type  1   force =     1.93002520  -10.51036032 -129.62613841
     atom   73 type  2   force =     0.19806978   -0.72967162  -14.79657652
     atom   74 type  2   force =    -3.46907320    0.14502304  -51.10789899
     atom   75 type  2   force =    -0.23458517    0.70268941  -85.31569226
     atom   76 type  1   force =     1.20079138   11.04586239  129.53537935
     atom   77 type  1   force =     1.56698768  -11.38973261   88.75930251
     atom   78 type  2   force =     0.15962812   -0.54436801   85.56360889
     atom   79 type  2   force =    -3.36597775   -0.57340721   50.95307578
     atom   80 type  2   force =     0.28838612    0.44398408   15.58070774
     The local contribution  to forces
     atom    1 type  1   force =    -1.69716120  -11.20337740   89.23789051
     atom    2 type  1   force =    -1.12099446   10.87020086  128.68243661
     atom    3 type  2   force =     0.07385582    0.27127937   16.29489993
     atom    4 type  2   force =     2.88117758    0.04061026   50.03275536
     atom    5 type  2   force =    -0.65405740   -0.41827927   84.45292562
     atom    6 type  1   force =    -1.43792859  -11.56059529 -129.06075598
     atom    7 type  1   force =    -1.75768511   10.40079736  -89.59617697
     atom    8 type  2   force =     0.08776005    0.59409986  -84.84221227
     atom    9 type  2   force =     2.65574810    0.84973263  -48.82942585
     atom   10 type  2   force =    -0.02080106   -0.38651888  -15.88503039
     atom   11 type  1   force =    -1.16949187  -11.60518435   89.83780631
     atom   12 type  1   force =    -1.61687518   10.84661092  129.88215323
     atom   13 type  2   force =     0.35769267    0.21688838   16.38775110
     atom   14 type  2   force =     2.72807339    0.39890667   50.59044716
     atom   15 type  2   force =    -0.38265363   -0.47526386   84.85056257
     atom   16 type  1   force =    -1.40198291  -11.49218652 -129.59422456
     atom   17 type  1   force =    -1.58814134   10.76724731  -87.88986822
     atom   18 type  2   force =    -0.32780850    0.57457348  -85.06746353
     atom   19 type  2   force =     2.58252620    0.62618246  -50.14114705
     atom   20 type  2   force =    -0.14601583   -0.28628714  -16.59594057
     atom   21 type  1   force =    -1.28730698  -11.23182008   89.23849520
     atom   22 type  1   force =    -1.63888939   10.89940414  128.37317326
     atom   23 type  2   force =    -0.13755775    0.25838191   16.07583754
     atom   24 type  2   force =     2.71842815   -0.82497580   50.55685660
     atom   25 type  2   force =    -0.01563224   -0.43009352   85.06571077
     atom   26 type  1   force =    -0.88963206  -10.88706953 -129.10248924
     atom   27 type  1   force =    -1.88797627   10.43665248  -89.09017146
     atom   28 type  2   force =    -0.04243026    0.42860682  -84.98579494
     atom   29 type  2   force =     2.54559406    1.15601626  -50.56855994
     atom   30 type  2   force =    -0.05265574   -0.08477012  -16.81861917
     atom   31 type  1   force =    -1.94679547  -10.77783440   88.67360545
     atom   32 type  1   force =    -1.90913428   11.57892446  129.59673396
     atom   33 type  2   force =    -0.42155102    0.24275313   16.40500921
     atom   34 type  2   force =     2.58445006    0.01573079   49.65519880
     atom   35 type  2   force =    -0.65382068   -0.26975353   84.36602333
     atom   36 type  1   force =    -1.22595215  -11.82290983 -129.43799109
     atom   37 type  1   force =    -2.23781337   10.84832215  -87.99497036
     atom   38 type  2   force =    -0.03693075    0.57828508  -85.00182423
     atom   39 type  2   force =     2.65583616   -0.30061862  -50.61009385
     atom   40 type  2   force =     0.08103859   -0.22088425  -16.31534749
     atom   41 type  1   force =    -0.98126141  -10.85640025   89.31717550
     atom   42 type  1   force =    -2.17801016   11.21911729  128.75145912
     atom   43 type  2   force =    -0.30542540    0.21345138   16.49415127
     atom   44 type  2   force =     2.53982480   -0.36624157   50.30717938
     atom   45 type  2   force =     0.16420270   -0.27325973   85.32993736
     atom   46 type  1   force =    -1.97924541  -10.50483519 -129.71635481
     atom   47 type  1   force =    -2.09127108   11.35088900  -88.72740429
     atom   48 type  2   force =    -0.57937390    0.73855434  -84.88126770
     atom   49 type  2   force =     2.64772557   -0.95420440  -50.45002214
     atom   50 type  2   force =    -0.16182443   -0.21572930  -16.54260550
     atom   51 type  1   force =    -1.68866617  -11.15262002   88.60962969
     atom   52 type  1   force =    -1.78512924   10.78360335  129.47467177
     atom   53 type  2   force =     0.02069899    0.38554920   16.30161778
     atom   54 type  2   force =     2.79261982   -0.18325670   49.96116019
     atom   55 type  2   force =     0.29023055   -0.58786220   85.18340210
     atom   56 type  1   force =    -1.53841707  -10.74885754 -129.58649406
     atom   57 type  1   force =    -1.77891966   11.38195048  -88.85729096
     atom   58 type  2   force =    -0.36003045    0.50329178  -84.95857846
     atom   59 type  2   force =     2.59521930   -0.51377128  -50.00298763
     atom   60 type  2   force =    -0.12414876   -0.17600328  -16.46749351
     atom   61 type  1   force =    -1.70628276  -10.36677291   89.24014660
     atom   62 type  1   force =    -1.72316459   11.34600375  128.56484510
     atom   63 type  2   force =    -0.25802636    0.32176770   16.51892773
     atom   64 type  2   force =     2.47396849    0.24233444   51.10687257
     atom   65 type  2   force =    -0.36111488   -0.30812697   84.84410873
     atom   66 type  1   force =    -1.08407987  -10.99101904 -129.89613704
     atom   67 type  1   force =    -2.28181184   10.98560326  -89.74144743
     atom   68 type  2   force =    -0.17722678    0.36370453  -84.44286071
     atom   69 type  2   force =     2.68148882   -0.67263610  -49.40716251
     atom   70 type  2   force =     0.48393034   -0.31953072  -16.10680191
     atom   71 type  1   force =    -1.51527394  -11.50554679   88.33039318
     atom   72 type  1   force =    -1.97165034   10.44465725  129.67200945
     atom   73 type  2   force =    -0.12221423    0.41592217   15.84339045
     atom   74 type  2   force =     2.69132025   -0.19755331   51.07400147
     atom   75 type  2   force =     0.26364060   -0.40662476   84.29934843
     atom   76 type  1   force =    -1.31327806  -11.02140231 -129.59265421
     atom   77 type  1   force =    -1.59811417   11.32495242  -88.64770739
     atom   78 type  2   force =    -0.05982058    0.26265300  -84.54963556
     atom   79 type  2   force =     2.58981321    0.48506867  -50.91248933
     atom   80 type  2   force =    -0.24977121   -0.13691303  -16.57516038
     The core correction contribution to forces
     atom    1 type  1   force =    -0.00011251    0.00262327   -0.00047501
     atom    2 type  1   force =     0.00199394   -0.00279882    0.00028686
     atom    3 type  2   force =     0.00085151   -0.00280008    0.00826857
     atom    4 type  2   force =    -0.00783420   -0.00079654    0.00021839
     atom    5 type  2   force =     0.00033483    0.00291572   -0.00837076
     atom    6 type  1   force =    -0.00004064    0.00137451   -0.00025166
     atom    7 type  1   force =    -0.00003928   -0.00416071    0.00037566
     atom    8 type  2   force =     0.00092579   -0.00287135    0.00824627
     atom    9 type  2   force =    -0.00749447   -0.00078176   -0.00078477
     atom   10 type  2   force =     0.00023653    0.00285944   -0.00865345
     atom   11 type  1   force =     0.00020114    0.00236841    0.00021405
     atom   12 type  1   force =     0.00102000   -0.00276217    0.00024675
     atom   13 type  2   force =     0.00103867   -0.00287784    0.00802927
     atom   14 type  2   force =    -0.00799109   -0.00051545    0.00001568
     atom   15 type  2   force =     0.00030941    0.00317084   -0.00805189
     atom   16 type  1   force =     0.00022914    0.00172277   -0.00062623
     atom   17 type  1   force =     0.00109725   -0.00356051    0.00069078
     atom   18 type  2   force =     0.00073361   -0.00316915    0.00859277
     atom   19 type  2   force =    -0.00777999   -0.00072096    0.00020168
     atom   20 type  2   force =     0.00035915    0.00299500   -0.00804969
     atom   21 type  1   force =     0.00046696    0.00272522   -0.00025685
     atom   22 type  1   force =     0.00124692   -0.00192773    0.00055351
     atom   23 type  2   force =     0.00077429   -0.00252468    0.00858513
     atom   24 type  2   force =    -0.00769521   -0.00089050   -0.00018795
     atom   25 type  2   force =     0.00050753    0.00292904   -0.00875384
     atom   26 type  1   force =     0.00101273    0.00289890   -0.00019183
     atom   27 type  1   force =     0.00051216   -0.00431001    0.00093820
     atom   28 type  2   force =     0.00099800   -0.00280833    0.00858715
     atom   29 type  2   force =    -0.00751235   -0.00058448    0.00006684
     atom   30 type  2   force =     0.00007310    0.00293759   -0.00783915
     atom   31 type  1   force =    -0.00027007    0.00407703   -0.00140999
     atom   32 type  1   force =     0.00137204   -0.00176586    0.00059440
     atom   33 type  2   force =     0.00096774   -0.00265097    0.00806853
     atom   34 type  2   force =    -0.00792175   -0.00049991    0.00043003
     atom   35 type  2   force =     0.00034920    0.00313854   -0.00807744
     atom   36 type  1   force =     0.00047528    0.00081908   -0.00035971
     atom   37 type  1   force =    -0.00014115   -0.00288287    0.00086064
     atom   38 type  2   force =     0.00105295   -0.00313366    0.00856255
     atom   39 type  2   force =    -0.00716023   -0.00080741    0.00059600
     atom   40 type  2   force =     0.00051901    0.00315737   -0.00807296
     atom   41 type  1   force =     0.00091649    0.00296184   -0.00048975
     atom   42 type  1   force =     0.00014456   -0.00192088    0.00102125
     atom   43 type  2   force =     0.00099736   -0.00258244    0.00821451
     atom   44 type  2   force =    -0.00735705   -0.00074476   -0.00019961
     atom   45 type  2   force =     0.00053127    0.00278810   -0.00893155
     atom   46 type  1   force =    -0.00023378    0.00381449   -0.00088120
     atom   47 type  1   force =     0.00045187   -0.00154474   -0.00005963
     atom   48 type  2   force =     0.00072643   -0.00279148    0.00840251
     atom   49 type  2   force =    -0.00744803   -0.00067655    0.00017350
     atom   50 type  2   force =     0.00064577    0.00307384   -0.00823995
     atom   51 type  1   force =    -0.00026970    0.00307556   -0.00068035
     atom   52 type  1   force =     0.00056700   -0.00294794    0.00159836
     atom   53 type  2   force =     0.00086102   -0.00266315    0.00834406
     atom   54 type  2   force =    -0.00741648   -0.00075112    0.00031436
     atom   55 type  2   force =     0.00027808    0.00333893   -0.00861565
     atom   56 type  1   force =     0.00001323    0.00420223   -0.00131819
     atom   57 type  1   force =     0.00085427   -0.00192554    0.00055923
     atom   58 type  2   force =     0.00102391   -0.00291281    0.00831976
     atom   59 type  2   force =    -0.00761546   -0.00068584    0.00011677
     atom   60 type  2   force =     0.00055024    0.00303962   -0.00808477
     atom   61 type  1   force =    -0.00008519    0.00376942   -0.00065384
     atom   62 type  1   force =     0.00097404   -0.00213329    0.00025822
     atom   63 type  2   force =     0.00104331   -0.00265531    0.00805673
     atom   64 type  2   force =    -0.00730807   -0.00072272   -0.00065958
     atom   65 type  2   force =     0.00061822    0.00276397   -0.00867974
     atom   66 type  1   force =     0.00042179    0.00210316   -0.00075892
     atom   67 type  1   force =    -0.00046665   -0.00208759    0.00109842
     atom   68 type  2   force =     0.00083378   -0.00256688    0.00824123
     atom   69 type  2   force =    -0.00732400   -0.00097685   -0.00049432
     atom   70 type  2   force =     0.00046376    0.00293634   -0.00869574
     atom   71 type  1   force =    -0.00039880    0.00203495   -0.00086284
     atom   72 type  1   force =    -0.00023706   -0.00289116    0.00078936
     atom   73 type  2   force =     0.00080776   -0.00295411    0.00851293
     atom   74 type  2   force =    -0.00705899   -0.00079422   -0.00023257
     atom   75 type  2   force =     0.00059518    0.00282395   -0.00823275
     atom   76 type  1   force =     0.00057193    0.00346454   -0.00078301
     atom   77 type  1   force =     0.00098042   -0.00252047    0.00126269
     atom   78 type  2   force =     0.00107522   -0.00288062    0.00806104
     atom   79 type  2   force =    -0.00722902   -0.00048571    0.00032616
     atom   80 type  2   force =     0.00011514    0.00287602   -0.00785591
     The Hubbard contrib.    to forces
     atom    1 type  1   force =     0.00000000    0.00000000    0.00000000
     atom    2 type  1   force =     0.00000000    0.00000000    0.00000000
     atom    3 type  2   force =     0.00000000    0.00000000    0.00000000
     atom    4 type  2   force =     0.00000000    0.00000000    0.00000000
     atom    5 type  2   force =     0.00000000    0.00000000    0.00000000
     atom    6 type  1   force =     0.00000000    0.00000000    0.00000000
     atom    7 type  1   force =     0.00000000    0.00000000    0.00000000
     atom    8 type  2   force =     0.00000000    0.00000000    0.00000000
     atom    9 type  2   force =     0.00000000    0.00000000    0.00000000
     atom   10 type  2   force =     0.00000000    0.00000000    0.00000000
     atom   11 type  1   force =     0.00000000    0.00000000    0.00000000
     atom   12 type  1   force =     0.00000000    0.00000000    0.00000000
     atom   13 type  2   force =     0.00000000    0.00000000    0.00000000
     atom   14 type  2   force =     0.00000000    0.00000000    0.00000000
     atom   15 type  2   force =     0.00000000    0.00000000    0.00000000
     atom   16 type  1   force =     0.00000000    0.00000000    0.00000000
     atom   17 type  1   force =     0.00000000    0.00000000    0.00000000
     atom   18 type  2   force =     0.00000000    0.00000000    0.00000000
     atom   19 type  2   force =     0.00000000    0.00000000    0.00000000
     atom   20 type  2   force =     0.00000000    0.00000000    0.00000000
     atom   21 type  1   force =     0.00000000    0.00000000    0.00000000
     atom   22 type  1   force =     0.00000000    0.00000000    0.00000000
     atom   23 type  2   force =     0.00000000    0.00000000    0.00000000
     atom   24 type  2   force =     0.00000000    0.00000000    0.00000000
     atom   25 type  2   force =     0.00000000    0.00000000    0.00000000
     atom   26 type  1   force =     0.00000000    0.00000000    0.00000000
     atom   27 type  1   force =     0.00000000    0.00000000    0.00000000
     atom   28 type  2   force =     0.00000000    0.00000000    0.00000000
     atom   29 type  2   force =     0.00000000    0.00000000    0.00000000
     atom   30 type  2   force =     0.00000000    0.00000000    0.00000000
     atom   31 type  1   force =     0.00000000    0.00000000    0.00000000
     atom   32 type  1   force =     0.00000000    0.00000000    0.00000000
     atom   33 type  2   force =     0.00000000    0.00000000    0.00000000
     atom   34 type  2   force =     0.00000000    0.00000000    0.00000000
     atom   35 type  2   force =     0.00000000    0.00000000    0.00000000
     atom   36 type  1   force =     0.00000000    0.00000000    0.00000000
     atom   37 type  1   force =     0.00000000    0.00000000    0.00000000
     atom   38 type  2   force =     0.00000000    0.00000000    0.00000000
     atom   39 type  2   force =     0.00000000    0.00000000    0.00000000
     atom   40 type  2   force =     0.00000000    0.00000000    0.00000000
     atom   41 type  1   force =     0.00000000    0.00000000    0.00000000
     atom   42 type  1   force =     0.00000000    0.00000000    0.00000000
     atom   43 type  2   force =     0.00000000    0.00000000    0.00000000
     atom   44 type  2   force =     0.00000000    0.00000000    0.00000000
     atom   45 type  2   force =     0.00000000    0.00000000    0.00000000
     atom   46 type  1   force =     0.00000000    0.00000000    0.00000000
     atom   47 type  1   force =     0.00000000    0.00000000    0.00000000
     atom   48 type  2   force =     0.00000000    0.00000000    0.00000000
     atom   49 type  2   force =     0.00000000    0.00000000    0.00000000
     atom   50 type  2   force =     0.00000000    0.00000000    0.00000000
     atom   51 type  1   force =     0.00000000    0.00000000    0.00000000
     atom   52 type  1   force =     0.00000000    0.00000000    0.00000000
     atom   53 type  2   force =     0.00000000    0.00000000    0.00000000
     atom   54 type  2   force =     0.00000000    0.00000000    0.00000000
     atom   55 type  2   force =     0.00000000    0.00000000    0.00000000
     atom   56 type  1   force =     0.00000000    0.00000000    0.00000000
     atom   57 type  1   force =     0.00000000    0.00000000    0.00000000
     atom   58 type  2   force =     0.00000000    0.00000000    0.00000000
     atom   59 type  2   force =     0.00000000    0.00000000    0.00000000
     atom   60 type  2   force =     0.00000000    0.00000000    0.00000000
     atom   61 type  1   force =     0.00000000    0.00000000    0.00000000
     atom   62 type  1   force =     0.00000000    0.00000000    0.00000000
     atom   63 type  2   force =     0.00000000    0.00000000    0.00000000
     atom   64 type  2   force =     0.00000000    0.00000000    0.00000000
     atom   65 type  2   force =     0.00000000    0.00000000    0.00000000
     atom   66 type  1   force =     0.00000000    0.00000000    0.00000000
     atom   67 type  1   force =     0.00000000    0.00000000    0.00000000
     atom   68 type  2   force =     0.00000000    0.00000000    0.00000000
     atom   69 type  2   force =     0.00000000    0.00000000    0.00000000
     atom   70 type  2   force =     0.00000000    0.00000000    0.00000000
     atom   71 type  1   force =     0.00000000    0.00000000    0.00000000
     atom   72 type  1   force =     0.00000000    0.00000000    0.00000000
     atom   73 type  2   force =     0.00000000    0.00000000    0.00000000
     atom   74 type  2   force =     0.00000000    0.00000000    0.00000000
     atom   75 type  2   force =     0.00000000    0.00000000    0.00000000
     atom   76 type  1   force =     0.00000000    0.00000000    0.00000000
     atom   77 type  1   force =     0.00000000    0.00000000    0.00000000
     atom   78 type  2   force =     0.00000000    0.00000000    0.00000000
     atom   79 type  2   force =     0.00000000    0.00000000    0.00000000
     atom   80 type  2   force =     0.00000000    0.00000000    0.00000000
     The SCF correction term to forces
     atom    1 type  1   force =     0.00000721   -0.00000245    0.00000812
     atom    2 type  1   force =    -0.00000916    0.00000380   -0.00000508
     atom    3 type  2   force =     0.00000046   -0.00000118    0.00000432
     atom    4 type  2   force =    -0.00000476   -0.00000246    0.00000440
     atom    5 type  2   force =    -0.00000200    0.00000362   -0.00000066
     atom    6 type  1   force =    -0.00000142   -0.00000425   -0.00003829
     atom    7 type  1   force =     0.00000519    0.00000615   -0.00003093
     atom    8 type  2   force =     0.00000090   -0.00000112   -0.00001026
     atom    9 type  2   force =    -0.00000049    0.00000188   -0.00001232
     atom   10 type  2   force =    -0.00000148   -0.00000109   -0.00000872
     atom   11 type  1   force =    -0.00001601   -0.00000597    0.00002994
     atom   12 type  1   force =    -0.00001557    0.00002390    0.00004207
     atom   13 type  2   force =    -0.00000012   -0.00000136    0.00000606
     atom   14 type  2   force =     0.00000117    0.00000363    0.00000492
     atom   15 type  2   force =    -0.00000414   -0.00000034    0.00000935
     atom   16 type  1   force =     0.00000511   -0.00000792   -0.00004246
     atom   17 type  1   force =    -0.00000171    0.00001065   -0.00001774
     atom   18 type  2   force =    -0.00000263   -0.00000499   -0.00001283
     atom   19 type  2   force =    -0.00000085    0.00000121   -0.00001098
     atom   20 type  2   force =    -0.00000224   -0.00000343   -0.00001014
     atom   21 type  1   force =     0.00000042   -0.00000236    0.00000677
     atom   22 type  1   force =     0.00000424    0.00002992    0.00001324
     atom   23 type  2   force =    -0.00000005    0.00000293    0.00000445
     atom   24 type  2   force =    -0.00000143   -0.00000105    0.00000246
     atom   25 type  2   force =     0.00000006    0.00000394   -0.00000175
     atom   26 type  1   force =    -0.00000450   -0.00000420   -0.00002016
     atom   27 type  1   force =    -0.00000081   -0.00000249   -0.00002874
     atom   28 type  2   force =    -0.00000004   -0.00000176   -0.00000972
     atom   29 type  2   force =    -0.00000071    0.00000222   -0.00000986
     atom   30 type  2   force =    -0.00000323    0.00000008   -0.00000859
     atom   31 type  1   force =    -0.00001254   -0.00002482    0.00001555
     atom   32 type  1   force =     0.00000831   -0.00000890    0.00001424
     atom   33 type  2   force =    -0.00000505   -0.00000415    0.00000755
     atom   34 type  2   force =    -0.00000130    0.00000065    0.00000346
     atom   35 type  2   force =    -0.00000015   -0.00000184    0.00000052
     atom   36 type  1   force =     0.00000417   -0.00000009   -0.00002261
     atom   37 type  1   force =    -0.00000791    0.00001180   -0.00003207
     atom   38 type  2   force =     0.00000111   -0.00000259   -0.00001014
     atom   39 type  2   force =    -0.00000159    0.00000161   -0.00000821
     atom   40 type  2   force =    -0.00000350   -0.00000251   -0.00000916
     atom   41 type  1   force =    -0.00000670    0.00000415    0.00000798
     atom   42 type  1   force =    -0.00000274    0.00001786    0.00001207
     atom   43 type  2   force =    -0.00000107    0.00000162    0.00000351
     atom   44 type  2   force =     0.00000045   -0.00000147    0.00000237
     atom   45 type  2   force =     0.00000023    0.00000161   -0.00000026
     atom   46 type  1   force =    -0.00000139    0.00001172   -0.00002586
     atom   47 type  1   force =    -0.00001650   -0.00000523   -0.00002463
     atom   48 type  2   force =    -0.00000160    0.00000028   -0.00000573
     atom   49 type  2   force =     0.00000038    0.00000006   -0.00000727
     atom   50 type  2   force =     0.00000159   -0.00000010   -0.00000862
     atom   51 type  1   force =     0.00000375   -0.00001332    0.00001046
     atom   52 type  1   force =    -0.00000522   -0.00000574    0.00001495
     atom   53 type  2   force =     0.00000086   -0.00000120    0.00000566
     atom   54 type  2   force =    -0.00000160   -0.00000151    0.00000226
     atom   55 type  2   force =     0.00000063    0.00000109    0.00000176
     atom   56 type  1   force =    -0.00000446    0.00000545   -0.00001622
     atom   57 type  1   force =    -0.00000143    0.00000228   -0.00001820
     atom   58 type  2   force =     0.00000292   -0.00000135   -0.00000518
     atom   59 type  2   force =    -0.00000068    0.00000230   -0.00000787
     atom   60 type  2   force =     0.00000366    0.00000048   -0.00000799
     atom   61 type  1   force =     0.00000106   -0.00000194    0.00000137
     atom   62 type  1   force =     0.00000826   -0.00000640    0.00000618
     atom   63 type  2   force =    -0.00000023   -0.00000177    0.00000303
     atom   64 type  2   force =     0.00000232   -0.00000251    0.00000396
     atom   65 type  2   force =     0.00000034   -0.00000080    0.00000004
     atom   66 type  1   force =     0.00000182    0.00000250   -0.00002695
     atom   67 type  1   force =     0.00000200    0.00003068   -0.00001269
     atom   68 type  2   force =     0.00000158   -0.00000095   -0.00000745
     atom   69 type  2   force =    -0.00000030   -0.00000309   -0.00001094
     atom   70 type  2   force =     0.00000112   -0.00000051   -0.00001021
     atom   71 type  1   force =    -0.00000787   -0.00000732    0.00001900
     atom   72 type  1   force =     0.00000629    0.00000823    0.00001153
     atom   73 type  2   force =     0.00000528   -0.00000110    0.00000666
     atom   74 type  2   force =     0.00000076    0.00000283    0.00000247
     atom   75 type  2   force =     0.00000285    0.00000210    0.00000878
     atom   76 type  1   force =    -0.00003447   -0.00001245   -0.00002922
     atom   77 type  1   force =     0.00001779    0.00000845   -0.00002647
     atom   78 type  2   force =     0.00000094   -0.00000314   -0.00001092
     atom   79 type  2   force =     0.00000103    0.00000175   -0.00000933
     atom   80 type  2   force =     0.00000158   -0.00000029   -0.00000946

     Total force =     0.173333     Total SCF correction =     0.000164


     Computing stress (Cartesian axis) and pressure


     negative rho (up, down):  3.325E-03 0.000E+00
          total   stress  (Ry/bohr**3)                   (kbar)     P=       -5.18
  -0.00002949   0.00000841  -0.00000148           -4.34        1.24       -0.22
   0.00000841  -0.00007278   0.00000013            1.24      -10.71        0.02
  -0.00000148   0.00000013  -0.00000339           -0.22        0.02       -0.50

     kinetic stress (kbar)   4915.29      2.39     -0.59
                                2.39   4909.18     -4.94
                               -0.59     -4.94   4909.37

     local   stress (kbar)-444525.54    104.47     15.25
                              104.47-441733.26  -1509.67
                               15.25  -1509.67 442318.74

     nonloc. stress (kbar)   -238.53      6.72     -1.87
                                6.72   -285.04     13.32
                               -1.87     13.32   -109.02

     hartree stress (kbar) 224420.08    -21.12    -11.88
                              -21.12 222972.10    687.63
                              -11.88    687.63-215129.72

     exc-cor stress (kbar)    595.27     -0.39      0.10
                               -0.39    597.48     -0.47
                                0.10     -0.47    586.40

     corecor stress (kbar)  -2382.53      0.02     -0.01
                                0.02  -2382.73      0.16
                               -0.01      0.16  -2381.73

     ewald   stress (kbar) 217211.63    -90.86     -1.20
                              -90.86 215911.56    813.98
                               -1.20    813.98-230194.55

     hubbard stress (kbar)      0.00      0.00      0.00
                                0.00      0.00      0.00
                                0.00      0.00      0.00

     DFT-D   stress (kbar)      0.00      0.00      0.00
                                0.00      0.00      0.00
                                0.00      0.00      0.00

     XDM     stress (kbar)      0.00      0.00      0.00
                                0.00      0.00      0.00
                                0.00      0.00      0.00

     dft-nl  stress (kbar)      0.00      0.00      0.00
                                0.00      0.00      0.00
                                0.00      0.00      0.00

     TS-vdW  stress (kbar)      0.00      0.00      0.00
                                0.00      0.00      0.00
                                0.00      0.00      0.00


                                0.00      0.00      0.00
                                0.00      0.00      0.00


                                0.00      0.00      0.00


     Entering Dynamics:    iteration =     5
                           time      =   0.0048 pico-seconds


     Canonical sampling velocity rescaling

ATOMIC_POSITIONS (crystal)
Ga            0.2009585579        0.3550485152        0.4082164759
Ga            0.1234489284        0.1550932947        0.3857534915
O             0.0889259496        0.2897550817        0.4296685315
O             0.1302902249        0.0040141081        0.3972842602
O             0.2292266957        0.2192822255        0.3644500839
Ga            0.2010786890        0.3542081543        0.6144212340
Ga            0.1225268135        0.1538052147        0.5917450671
O             0.0911166865        0.2892922106        0.6364077273
O             0.1306024233        0.0043827127        0.6011332796
O             0.2303338978        0.2219687024        0.5696746677
Ga            0.2020120850        0.8551239030        0.4078922314
Ga            0.1239357133        0.6540140703        0.3849545277
O             0.0933062114        0.7877326728        0.4294789229
O             0.1286258466        0.5040998822        0.3964673619
O             0.2296888127        0.7202180991        0.3638432933
Ga            0.2017564024        0.8543988046        0.6143642237
Ga            0.1228257486        0.6556888365        0.5910524613
O             0.0892968778        0.7887287401        0.6365624371
O             0.1294849690        0.5057862699        0.6027578269
O             0.2308101039        0.7212757180        0.5709762873
Ga            0.4514811691        0.3543278189        0.4083739018
Ga            0.3724875768        0.1547550353        0.3861461618
O             0.3396451191        0.2882216820        0.4301567677
O             0.3812769596        0.0006831940        0.3970612871
O             0.4806678043        0.2189466196        0.3633305676
Ga            0.4515210464        0.3552249833        0.6146365016
Ga            0.3714011347        0.1554189727        0.5918854720
O             0.3401172489        0.2888547993        0.6366155795
O             0.3786022727        0.0074297415        0.6032110714
O             0.4808078986        0.2197930171        0.5713394346
Ga            0.4520491990        0.8554889438        0.4082056855
Ga            0.3721183425        0.6558896700        0.3854738230
O             0.3389103154        0.7883175257        0.4290721077
O             0.3786845629        0.5037522601        0.3978801525
O             0.4781752525        0.7226015388        0.3647206095
Ga            0.4509407409        0.8550989808        0.6145918025
Ga            0.3712566076        0.6543929706        0.5912812712
O             0.3412144791        0.7869682464        0.6365371589
O             0.3823812712        0.5029658218        0.6037207738
O             0.4806529979        0.7242125033        0.5704719254
Ga            0.7009154085        0.3548421134        0.4080111807
Ga            0.6215699170        0.1557146829        0.3859488578
O             0.5896168256        0.2870185693        0.4289726381
O             0.6311871794        0.0023152611        0.3972201443
O             0.7314622067        0.2212884231        0.3626802370
Ga            0.6997926092        0.3558863594        0.6148043919
Ga            0.6215812779        0.1557916408        0.5915219220
O             0.5871378515        0.2907722374        0.6363798853
O             0.6313803526        0.0014658702        0.6036344257
O             0.7309633429        0.2201432966        0.5707503165
Ga            0.7016874843        0.8548173372        0.4085048927
Ga            0.6226893277        0.6541963805        0.3858116339
O             0.5919066246        0.7860791088        0.4295509776
O             0.6306502400        0.5030070923        0.3975227610
O             0.7318461255        0.7231942296        0.3631844018
Ga            0.7008698364        0.8557626827        0.6144067555
Ga            0.6220041455        0.6548508593        0.5917419831
O             0.5890519035        0.7864957709        0.6363591963
O             0.6297764199        0.5023397235        0.6031970750
O             0.7294527591        0.7220685013        0.5707510212
Ga            0.9498834025        0.3565385255        0.4079808104
Ga            0.8721743764        0.1566932475        0.3856105934
O             0.8384088659        0.2904484414        0.4288594212
O             0.8805613117        0.0034549572        0.3959515699
O             0.9808963087        0.2197653138        0.3632684567
Ga            0.9516283427        0.3546874621        0.6149284858
Ga            0.8711300538        0.1557093718        0.5923059447
O             0.8395602299        0.2874949324        0.6357440812
O             0.8822572767        0.0012964629        0.6024109975
O             0.9829906294        0.2226171143        0.5698692357
Ga            0.9508800995        0.8529922864        0.4085079772
Ga            0.8715291919        0.6542380629        0.3853211704
O             0.8407419993        0.7858743424        0.4303546691
O             0.8813810996        0.5027915156        0.3960792415
O             0.9831681891        0.7200495403        0.3643540802
Ga            0.9522655283        0.8555052140        0.6144730973
Ga            0.8715187555        0.6560085657        0.5918364252
O             0.8411663555        0.7858792884        0.6354120141
O             0.8805219375        0.5054998802        0.6039757208
O             0.9794577863        0.7212590279        0.5708487222


     kinetic energy (Ekin) =           0.20330103 Ry
     temperature           =         270.87505065 K 
     Ekin + Etot (const)   =      -10895.83946561 Ry
     Ions kinetic stress =            0.67 (kbar)
                                      0.61          -0.06          -0.11
                                     -0.06           0.63          -0.01
                                     -0.11          -0.01           0.77



     Linear momentum :    0.0000000000    0.0000000000   -0.0000000000

     Writing config-only to output data dir ./tmp/md/Ga2O3-BL-001-4x2x1-300K.save/

     second order wave-functions extrapolation
     second order charge density extrapolation

     negative rho (up, down):  3.313E-03 0.000E+00

     total cpu time spent up to now is    20531.5 secs

     Self-consistent Calculation

     iteration #  1     ecut=    80.00 Ry     beta= 0.20
     Davidson diagonalization with overlap

---- Real-time Memory Report at c_bands before calling an iterative solver
          1660 MiB given to the printing process from OS
             0 MiB allocation reported by mallinfo(arena+hblkhd)
        348231 MiB available memory on the node where the printing process lives
------------------
     ethr =  1.00E-06,  avg # of iterations =  2.0

     Threshold (ethr) on eigenvalues was too large:
     Diagonalizing with lowered threshold

     Davidson diagonalization with overlap

---- Real-time Memory Report at c_bands before calling an iterative solver
          1660 MiB given to the printing process from OS
             0 MiB allocation reported by mallinfo(arena+hblkhd)
        348250 MiB available memory on the node where the printing process lives
------------------
     ethr =  2.22E-10,  avg # of iterations = 11.0

     negative rho (up, down):  3.314E-03 0.000E+00

     total cpu time spent up to now is    20796.2 secs

     total energy              =  -10896.03266340 Ry
     estimated scf accuracy    <       0.00000348 Ry

     iteration #  2     ecut=    80.00 Ry     beta= 0.20
     Davidson diagonalization with overlap

---- Real-time Memory Report at c_bands before calling an iterative solver
          1660 MiB given to the printing process from OS
             0 MiB allocation reported by mallinfo(arena+hblkhd)
        347959 MiB available memory on the node where the printing process lives
------------------
     ethr =  4.94E-10,  avg # of iterations =  1.5

     negative rho (up, down):  3.315E-03 0.000E+00

     total cpu time spent up to now is    20856.4 secs

     total energy              =  -10896.03266117 Ry
     estimated scf accuracy    <       0.00000171 Ry

     iteration #  3     ecut=    80.00 Ry     beta= 0.20
     Davidson diagonalization with overlap

---- Real-time Memory Report at c_bands before calling an iterative solver
          1660 MiB given to the printing process from OS
             0 MiB allocation reported by mallinfo(arena+hblkhd)
        347945 MiB available memory on the node where the printing process lives
------------------
     ethr =  2.43E-10,  avg # of iterations = 11.5

     negative rho (up, down):  3.315E-03 0.000E+00

     total cpu time spent up to now is    21015.5 secs

     total energy              =  -10896.03266398 Ry
     estimated scf accuracy    <       0.00000344 Ry

     iteration #  4     ecut=    80.00 Ry     beta= 0.20
     Davidson diagonalization with overlap

---- Real-time Memory Report at c_bands before calling an iterative solver
          1660 MiB given to the printing process from OS
             0 MiB allocation reported by mallinfo(arena+hblkhd)
        347800 MiB available memory on the node where the printing process lives
------------------
     ethr =  2.43E-10,  avg # of iterations =  3.8

     negative rho (up, down):  3.315E-03 0.000E+00

     total cpu time spent up to now is    21089.7 secs

     total energy              =  -10896.03266418 Ry
     estimated scf accuracy    <       0.00000523 Ry

     iteration #  5     ecut=    80.00 Ry     beta= 0.20
     Davidson diagonalization with overlap

---- Real-time Memory Report at c_bands before calling an iterative solver
          1660 MiB given to the printing process from OS
             0 MiB allocation reported by mallinfo(arena+hblkhd)
        347737 MiB available memory on the node where the printing process lives
------------------
     ethr =  2.43E-10,  avg # of iterations =  2.0

     negative rho (up, down):  3.316E-03 0.000E+00

     total cpu time spent up to now is    21153.8 secs

     total energy              =  -10896.03266198 Ry
     estimated scf accuracy    <       0.00000547 Ry

     iteration #  6     ecut=    80.00 Ry     beta= 0.20
     Davidson diagonalization with overlap

---- Real-time Memory Report at c_bands before calling an iterative solver
          1660 MiB given to the printing process from OS
             0 MiB allocation reported by mallinfo(arena+hblkhd)
        347624 MiB available memory on the node where the printing process lives
------------------
     ethr =  2.43E-10,  avg # of iterations =  7.2

     negative rho (up, down):  3.316E-03 0.000E+00

     total cpu time spent up to now is    21276.0 secs

     total energy              =  -10896.03266307 Ry
     estimated scf accuracy    <       0.00000110 Ry

     iteration #  7     ecut=    80.00 Ry     beta= 0.20
     Davidson diagonalization with overlap

---- Real-time Memory Report at c_bands before calling an iterative solver
          1660 MiB given to the printing process from OS
             0 MiB allocation reported by mallinfo(arena+hblkhd)
        347511 MiB available memory on the node where the printing process lives
------------------
     ethr =  1.56E-10,  avg # of iterations =  2.0

     negative rho (up, down):  3.316E-03 0.000E+00

     total cpu time spent up to now is    21341.5 secs

     total energy              =  -10896.03266311 Ry
     estimated scf accuracy    <       0.00000087 Ry

     iteration #  8     ecut=    80.00 Ry     beta= 0.20
     Davidson diagonalization with overlap

---- Real-time Memory Report at c_bands before calling an iterative solver
          1660 MiB given to the printing process from OS
             0 MiB allocation reported by mallinfo(arena+hblkhd)
        347343 MiB available memory on the node where the printing process lives
------------------
     ethr =  1.24E-10,  avg # of iterations =  2.0

     negative rho (up, down):  3.316E-03 0.000E+00

     total cpu time spent up to now is    21405.9 secs

     total energy              =  -10896.03266314 Ry
     estimated scf accuracy    <       0.00000080 Ry

     iteration #  9     ecut=    80.00 Ry     beta= 0.20
     Davidson diagonalization with overlap

---- Real-time Memory Report at c_bands before calling an iterative solver
          1660 MiB given to the printing process from OS
             0 MiB allocation reported by mallinfo(arena+hblkhd)
        347318 MiB available memory on the node where the printing process lives
------------------
     ethr =  1.13E-10,  avg # of iterations =  1.0

     negative rho (up, down):  3.316E-03 0.000E+00

     total cpu time spent up to now is    21462.8 secs

     total energy              =  -10896.03266319 Ry
     estimated scf accuracy    <       0.00000072 Ry

     iteration # 10     ecut=    80.00 Ry     beta= 0.20
     Davidson diagonalization with overlap

---- Real-time Memory Report at c_bands before calling an iterative solver
          1660 MiB given to the printing process from OS
             0 MiB allocation reported by mallinfo(arena+hblkhd)
        347245 MiB available memory on the node where the printing process lives
------------------
     ethr =  1.03E-10,  avg # of iterations =  2.0

     negative rho (up, down):  3.316E-03 0.000E+00

     total cpu time spent up to now is    21526.6 secs

     total energy              =  -10896.03266324 Ry
     estimated scf accuracy    <       0.00000057 Ry

     iteration # 11     ecut=    80.00 Ry     beta= 0.20
     Davidson diagonalization with overlap

---- Real-time Memory Report at c_bands before calling an iterative solver
          1660 MiB given to the printing process from OS
             0 MiB allocation reported by mallinfo(arena+hblkhd)
        347165 MiB available memory on the node where the printing process lives
------------------
     ethr =  8.11E-11,  avg # of iterations =  1.2

     negative rho (up, down):  3.316E-03 0.000E+00

     total cpu time spent up to now is    21585.3 secs

     total energy              =  -10896.03266330 Ry
     estimated scf accuracy    <       0.00000024 Ry

     iteration # 12     ecut=    80.00 Ry     beta= 0.20
     Davidson diagonalization with overlap

---- Real-time Memory Report at c_bands before calling an iterative solver
          1660 MiB given to the printing process from OS
             0 MiB allocation reported by mallinfo(arena+hblkhd)
        347202 MiB available memory on the node where the printing process lives
------------------
     ethr =  3.45E-11,  avg # of iterations =  4.8

     negative rho (up, down):  3.317E-03 0.000E+00

     total cpu time spent up to now is    21659.2 secs

     total energy              =  -10896.03266342 Ry
     estimated scf accuracy    <       0.00000007 Ry

     iteration # 13     ecut=    80.00 Ry     beta= 0.20
     Davidson diagonalization with overlap

---- Real-time Memory Report at c_bands before calling an iterative solver
          1660 MiB given to the printing process from OS
             0 MiB allocation reported by mallinfo(arena+hblkhd)
        347213 MiB available memory on the node where the printing process lives
------------------
     ethr =  9.91E-12,  avg # of iterations = 16.2

     negative rho (up, down):  3.317E-03 0.000E+00

     total cpu time spent up to now is    21831.5 secs

     total energy              =  -10896.03266350 Ry
     estimated scf accuracy    <       0.00000007 Ry

     iteration # 14     ecut=    80.00 Ry     beta= 0.20
     Davidson diagonalization with overlap

---- Real-time Memory Report at c_bands before calling an iterative solver
          1660 MiB given to the printing process from OS
             0 MiB allocation reported by mallinfo(arena+hblkhd)
        347188 MiB available memory on the node where the printing process lives
------------------
     ethr =  9.75E-12,  avg # of iterations =  2.0

     negative rho (up, down):  3.317E-03 0.000E+00

     total cpu time spent up to now is    21902.4 secs

     total energy              =  -10896.03266351 Ry
     estimated scf accuracy    <       0.00000006 Ry

     iteration # 15     ecut=    80.00 Ry     beta= 0.20
     Davidson diagonalization with overlap

---- Real-time Memory Report at c_bands before calling an iterative solver
          1660 MiB given to the printing process from OS
             0 MiB allocation reported by mallinfo(arena+hblkhd)
        347169 MiB available memory on the node where the printing process lives
------------------
     ethr =  8.29E-12,  avg # of iterations =  2.0

     negative rho (up, down):  3.317E-03 0.000E+00

     total cpu time spent up to now is    21966.3 secs

     total energy              =  -10896.03266345 Ry
     estimated scf accuracy    <       0.00000007 Ry

     iteration # 16     ecut=    80.00 Ry     beta= 0.20
     Davidson diagonalization with overlap

---- Real-time Memory Report at c_bands before calling an iterative solver
          1660 MiB given to the printing process from OS
             0 MiB allocation reported by mallinfo(arena+hblkhd)
        347204 MiB available memory on the node where the printing process lives
------------------
     ethr =  8.29E-12,  avg # of iterations =  9.5

     negative rho (up, down):  3.317E-03 0.000E+00

     total cpu time spent up to now is    22088.5 secs

     total energy              =  -10896.03266346 Ry
     estimated scf accuracy    <       0.00000008 Ry

     iteration # 17     ecut=    80.00 Ry     beta= 0.20
     Davidson diagonalization with overlap

---- Real-time Memory Report at c_bands before calling an iterative solver
          1660 MiB given to the printing process from OS
             0 MiB allocation reported by mallinfo(arena+hblkhd)
        347186 MiB available memory on the node where the printing process lives
------------------
     ethr =  8.29E-12,  avg # of iterations = 10.0

     negative rho (up, down):  3.317E-03 0.000E+00

     total cpu time spent up to now is    22181.5 secs

     total energy              =  -10896.03266347 Ry
     estimated scf accuracy    <       0.00000003 Ry

     iteration # 18     ecut=    80.00 Ry     beta= 0.20
     Davidson diagonalization with overlap

---- Real-time Memory Report at c_bands before calling an iterative solver
          1660 MiB given to the printing process from OS
             0 MiB allocation reported by mallinfo(arena+hblkhd)
        347199 MiB available memory on the node where the printing process lives
------------------
     ethr =  4.53E-12,  avg # of iterations =  6.5

     negative rho (up, down):  3.317E-03 0.000E+00

     total cpu time spent up to now is    22260.2 secs

     total energy              =  -10896.03266348 Ry
     estimated scf accuracy    <       0.00000002 Ry

     iteration # 19     ecut=    80.00 Ry     beta= 0.20
     Davidson diagonalization with overlap

---- Real-time Memory Report at c_bands before calling an iterative solver
          1660 MiB given to the printing process from OS
             0 MiB allocation reported by mallinfo(arena+hblkhd)
        347163 MiB available memory on the node where the printing process lives
------------------
     c_bands:  1 eigenvalues not converged
     ethr =  3.08E-12,  avg # of iterations = 17.2

     negative rho (up, down):  3.317E-03 0.000E+00

     total cpu time spent up to now is    22447.0 secs

     total energy              =  -10896.03266352 Ry
     estimated scf accuracy    <       0.00000004 Ry

     iteration # 20     ecut=    80.00 Ry     beta= 0.20
     Davidson diagonalization with overlap

---- Real-time Memory Report at c_bands before calling an iterative solver
          1660 MiB given to the printing process from OS
             0 MiB allocation reported by mallinfo(arena+hblkhd)
        347169 MiB available memory on the node where the printing process lives
------------------
     ethr =  3.08E-12,  avg # of iterations =  2.0

     negative rho (up, down):  3.317E-03 0.000E+00

     total cpu time spent up to now is    22513.9 secs

     total energy              =  -10896.03266355 Ry
     estimated scf accuracy    <       0.00000003 Ry

     iteration # 21     ecut=    80.00 Ry     beta= 0.20
     Davidson diagonalization with overlap

---- Real-time Memory Report at c_bands before calling an iterative solver
          1660 MiB given to the printing process from OS
             0 MiB allocation reported by mallinfo(arena+hblkhd)
        347160 MiB available memory on the node where the printing process lives
------------------
     ethr =  3.08E-12,  avg # of iterations =  9.2

     negative rho (up, down):  3.317E-03 0.000E+00

     total cpu time spent up to now is    22636.3 secs

     total energy              =  -10896.03266356 Ry
     estimated scf accuracy    <       0.00000008 Ry

     iteration # 22     ecut=    80.00 Ry     beta= 0.20
     Davidson diagonalization with overlap

---- Real-time Memory Report at c_bands before calling an iterative solver
          1660 MiB given to the printing process from OS
             0 MiB allocation reported by mallinfo(arena+hblkhd)
        347198 MiB available memory on the node where the printing process lives
------------------
     ethr =  3.08E-12,  avg # of iterations =  8.2

     negative rho (up, down):  3.317E-03 0.000E+00

     total cpu time spent up to now is    22722.9 secs

     total energy              =  -10896.03266353 Ry
     estimated scf accuracy    <       0.00000007 Ry

     iteration # 23     ecut=    80.00 Ry     beta= 0.20
     Davidson diagonalization with overlap

---- Real-time Memory Report at c_bands before calling an iterative solver
          1660 MiB given to the printing process from OS
             0 MiB allocation reported by mallinfo(arena+hblkhd)
        347160 MiB available memory on the node where the printing process lives
------------------
     ethr =  3.08E-12,  avg # of iterations =  9.8

     negative rho (up, down):  3.317E-03 0.000E+00

     total cpu time spent up to now is    22871.8 secs

     total energy              =  -10896.03266355 Ry
     estimated scf accuracy    <       0.00000003 Ry

     iteration # 24     ecut=    80.00 Ry     beta= 0.20
     Davidson diagonalization with overlap

---- Real-time Memory Report at c_bands before calling an iterative solver
          1660 MiB given to the printing process from OS
             0 MiB allocation reported by mallinfo(arena+hblkhd)
        347182 MiB available memory on the node where the printing process lives
------------------
     ethr =  3.08E-12,  avg # of iterations =  2.0

     negative rho (up, down):  3.317E-03 0.000E+00

     total cpu time spent up to now is    22941.3 secs

     total energy              =  -10896.03266355 Ry
     estimated scf accuracy    <       0.00000001 Ry

     iteration # 25     ecut=    80.00 Ry     beta= 0.20
     Davidson diagonalization with overlap

---- Real-time Memory Report at c_bands before calling an iterative solver
          1660 MiB given to the printing process from OS
             0 MiB allocation reported by mallinfo(arena+hblkhd)
        347187 MiB available memory on the node where the printing process lives
------------------
     ethr =  2.08E-12,  avg # of iterations =  8.8

     negative rho (up, down):  3.317E-03 0.000E+00

     total cpu time spent up to now is    23040.7 secs

     total energy              =  -10896.03266356 Ry
     estimated scf accuracy    <       0.00000002 Ry

     iteration # 26     ecut=    80.00 Ry     beta= 0.20
     Davidson diagonalization with overlap

---- Real-time Memory Report at c_bands before calling an iterative solver
          1660 MiB given to the printing process from OS
             0 MiB allocation reported by mallinfo(arena+hblkhd)
        347168 MiB available memory on the node where the printing process lives
------------------
     ethr =  2.08E-12,  avg # of iterations =  2.0

     negative rho (up, down):  3.317E-03 0.000E+00

     total cpu time spent up to now is    23106.0 secs

     total energy              =  -10896.03266356 Ry
     estimated scf accuracy    <       0.00000002 Ry

     iteration # 27     ecut=    80.00 Ry     beta= 0.20
     Davidson diagonalization with overlap

---- Real-time Memory Report at c_bands before calling an iterative solver
          1660 MiB given to the printing process from OS
             0 MiB allocation reported by mallinfo(arena+hblkhd)
        347157 MiB available memory on the node where the printing process lives
------------------
     ethr =  2.08E-12,  avg # of iterations =  1.5

     negative rho (up, down):  3.317E-03 0.000E+00

     total cpu time spent up to now is    23166.3 secs

     total energy              =  -10896.03266356 Ry
     estimated scf accuracy    <       0.00000002 Ry

     iteration # 28     ecut=    80.00 Ry     beta= 0.20
     Davidson diagonalization with overlap

---- Real-time Memory Report at c_bands before calling an iterative solver
          1660 MiB given to the printing process from OS
             0 MiB allocation reported by mallinfo(arena+hblkhd)
        347148 MiB available memory on the node where the printing process lives
------------------
     ethr =  2.08E-12,  avg # of iterations =  2.0

     negative rho (up, down):  3.317E-03 0.000E+00

     total cpu time spent up to now is    23232.5 secs

     End of self-consistent calculation

          k = 0.0000 0.0000 0.0000 (360677 PWs)   bands (ev):

   -25.1571 -25.1466 -25.0692 -25.0394 -24.8861 -24.8514 -24.8479 -24.8328
   -24.7837 -24.7738 -24.7389 -24.7313 -24.4473 -24.3856 -24.3709 -24.3281
   -24.3202 -24.2964 -24.2679 -24.2503 -24.2488 -24.2211 -24.1656 -24.1610
   -24.1200 -24.0886 -24.0830 -24.0804 -24.0493 -24.0386 -24.0258 -23.9963
   -23.9814 -23.9450 -23.9269 -23.9192 -23.9024 -23.8813 -23.8639 -23.8554
   -23.8289 -23.8065 -23.7817 -23.7558 -23.7066 -23.6858 -23.6715 -23.5575
   -20.2063 -20.1642 -20.1633 -20.1275 -20.1256 -20.1108 -20.1079 -20.1051
   -20.0978 -20.0847 -20.0809 -20.0539 -20.0537 -20.0522 -20.0481 -20.0412
   -20.0303 -20.0284 -20.0223 -20.0135 -20.0118 -20.0038 -20.0011 -19.9992
   -19.9972 -19.9964 -19.9916 -19.9881 -19.9867 -19.9841 -19.9798 -19.9768
   -19.9704 -19.9701 -19.9629 -19.9594 -19.9576 -19.9572 -19.9525 -19.9476
   -19.9422 -19.9388 -19.9347 -19.9325 -19.9315 -19.9241 -19.9160 -19.9130
   -19.9110 -19.9065 -19.9032 -19.8994 -19.8981 -19.8923 -19.8920 -19.8863
   -19.8793 -19.8728 -19.8720 -19.8714 -19.8650 -19.8643 -19.8631 -19.8598
   -19.8577 -19.8560 -19.8495 -19.8494 -19.8477 -19.8451 -19.8421 -19.8402
   -19.8353 -19.8331 -19.8312 -19.8310 -19.8298 -19.8242 -19.8160 -19.8134
   -19.8116 -19.8055 -19.7987 -19.7980 -19.7979 -19.7949 -19.7904 -19.7898
   -19.7869 -19.7824 -19.7801 -19.7754 -19.7625 -19.7583 -19.7512 -19.7496
   -19.7481 -19.7403 -19.7372 -19.7350 -19.7293 -19.7250 -19.7099 -19.7099
   -19.7064 -19.7004 -19.6972 -19.6957 -19.6884 -19.6769 -19.6742 -19.6585
   -19.6510 -19.6297 -19.6240 -19.6219 -19.6162 -19.6119 -19.5890 -19.5802
   -19.5645 -19.5554 -19.5260 -19.5076 -19.4636 -19.4587 -19.4308 -19.4238
   -19.4135 -19.4051 -19.3765 -19.3584 -19.3511 -19.3107 -19.3017 -19.3008
   -19.2809 -19.2755 -19.2072 -19.2037 -19.1730 -19.1665 -19.1506 -19.1484
   -19.1197 -19.1180 -19.0768 -19.0711 -19.0598 -19.0363 -19.0291 -19.0175
   -18.9919 -18.9810 -18.9757 -18.9592 -18.9501 -18.9421 -18.9366 -18.8846
   -13.1359 -13.1210 -13.0777 -13.0699 -12.9456 -12.9213 -12.8349 -12.8204
   -12.8175 -12.7861 -12.5232 -12.5132 -12.4605 -12.4513 -12.2866 -12.2739
   -12.2537 -12.2518 -11.7206 -11.7119 -11.6142 -11.5872 -11.5627 -11.5551
   -11.2850 -11.2743 -11.2730 -11.2465 -10.8987 -10.8781 -10.8644 -10.8589
   -10.7742 -10.7050 -10.6847 -10.6537 -10.6333 -10.6138 -10.5919 -10.5814
   -10.5586 -10.5332 -10.5055 -10.5004 -10.4632 -10.4208 -10.0346 -10.0167
   -10.0029  -9.9754  -9.9380  -9.9246  -9.8718  -9.8465  -9.7671  -9.7648
    -9.7364  -9.7108  -9.4263  -9.4021  -9.3828  -9.3817  -9.3138  -9.2783
    -9.2517  -9.2480  -9.2324  -9.2203  -9.2013  -9.1757  -9.0016  -8.9927
    -8.9783  -8.9693  -8.7809  -8.7675  -8.6541  -8.6461  -8.6081  -8.6072
    -8.6027  -8.5963  -8.5751  -8.5610  -8.5178  -8.5159  -8.5006  -8.4979
    -8.4965  -8.4853  -8.4743  -8.4649  -8.3341  -8.3066  -8.2702  -8.2416
    -8.2274  -8.1993  -8.1924  -8.1712  -8.1648  -8.1567  -7.9062  -7.8623
    -7.8479  -7.8121  -7.8095  -7.8009  -7.7935  -7.7755  -7.7657  -7.7625
    -7.6925  -7.6902  -7.6858  -7.6651  -7.6493  -7.6311  -7.5913  -7.5831
    -7.5695  -7.5526  -7.5422  -7.5325  -7.5276  -7.5233  -7.4955  -7.4869
    -7.4778  -7.4671  -7.4362  -7.4290  -7.4234  -7.4115  -7.3974  -7.3942
    -7.3752  -7.3295  -7.3226  -7.2859  -7.1453  -7.1161  -7.0524  -7.0141

     occupation numbers 
     1.0000   1.0000   1.0000   1.0000   1.0000   1.0000   1.0000   1.0000
     1.0000   1.0000   1.0000   1.0000   1.0000   1.0000   1.0000   1.0000
     1.0000   1.0000   1.0000   1.0000   1.0000   1.0000   1.0000   1.0000
     1.0000   1.0000   1.0000   1.0000   1.0000   1.0000   1.0000   1.0000
     1.0000   1.0000   1.0000   1.0000   1.0000   1.0000   1.0000   1.0000
     1.0000   1.0000   1.0000   1.0000   1.0000   1.0000   1.0000   1.0000
     1.0000   1.0000   1.0000   1.0000   1.0000   1.0000   1.0000   1.0000
     1.0000   1.0000   1.0000   1.0000   1.0000   1.0000   1.0000   1.0000
     1.0000   1.0000   1.0000   1.0000   1.0000   1.0000   1.0000   1.0000
     1.0000   1.0000   1.0000   1.0000   1.0000   1.0000   1.0000   1.0000
     1.0000   1.0000   1.0000   1.0000   1.0000   1.0000   1.0000   1.0000
     1.0000   1.0000   1.0000   1.0000   1.0000   1.0000   1.0000   1.0000
     1.0000   1.0000   1.0000   1.0000   1.0000   1.0000   1.0000   1.0000
     1.0000   1.0000   1.0000   1.0000   1.0000   1.0000   1.0000   1.0000
     1.0000   1.0000   1.0000   1.0000   1.0000   1.0000   1.0000   1.0000
     1.0000   1.0000   1.0000   1.0000   1.0000   1.0000   1.0000   1.0000
     1.0000   1.0000   1.0000   1.0000   1.0000   1.0000   1.0000   1.0000
     1.0000   1.0000   1.0000   1.0000   1.0000   1.0000   1.0000   1.0000
     1.0000   1.0000   1.0000   1.0000   1.0000   1.0000   1.0000   1.0000
     1.0000   1.0000   1.0000   1.0000   1.0000   1.0000   1.0000   1.0000
     1.0000   1.0000   1.0000   1.0000   1.0000   1.0000   1.0000   1.0000
     1.0000   1.0000   1.0000   1.0000   1.0000   1.0000   1.0000   1.0000
     1.0000   1.0000   1.0000   1.0000   1.0000   1.0000   1.0000   1.0000
     1.0000   1.0000   1.0000   1.0000   1.0000   1.0000   1.0000   1.0000
     1.0000   1.0000   1.0000   1.0000   1.0000   1.0000   1.0000   1.0000
     1.0000   1.0000   1.0000   1.0000   1.0000   1.0000   1.0000   1.0000
     1.0000   1.0000   1.0000   1.0000   1.0000   1.0000   1.0000   1.0000
     1.0000   1.0000   1.0000   1.0000   1.0000   1.0000   1.0000   1.0000
     1.0000   1.0000   1.0000   1.0000   1.0000   1.0000   1.0000   1.0000
     1.0000   1.0000   1.0000   1.0000   1.0000   1.0000   1.0000   1.0000
     1.0000   1.0000   1.0000   1.0000   1.0000   1.0000   1.0000   1.0000
     1.0000   1.0000   1.0000   1.0000   1.0000   1.0000   1.0000   1.0000
     1.0000   1.0000   1.0000   1.0000   1.0000   1.0000   1.0000   1.0000
     1.0000   1.0000   1.0000   1.0000   1.0000   1.0000   1.0000   1.0000
     1.0000   1.0000   1.0000   1.0000   1.0000   1.0000   1.0000   1.0000
     1.0000   1.0000   1.0000   1.0000   1.0000   1.0000   1.0000   1.0000
     1.0000   1.0000   1.0000   1.0000   1.0000   1.0000   1.0000   1.0000
     1.0000   1.0000   1.0000   1.0000   1.0000   1.0000   1.0000   1.0000
     1.0000   1.0000   1.0000   1.0000   1.0000   1.0000   1.0000   1.0000
     1.0000   1.0000   1.0000   1.0000   1.0000   1.0000   1.0000   1.0000
     1.0000   1.0000   1.0000   1.0000   1.0000   1.0000   1.0000   1.0000
     1.0000   1.0000   1.0000   1.0000   1.0000   1.0000   1.0000   1.0000
     1.0000   1.0000   1.0000   1.0000   1.0000   1.0000   1.0000   1.0000
     1.0000   1.0000   1.0000   1.0000   1.0000   1.0000   1.0000   1.0000

          k = 0.0247-0.5725 0.0000 (360514 PWs)   bands (ev):

   -25.1393 -25.1193 -25.0979 -25.0627 -24.8848 -24.8598 -24.8470 -24.8239
   -24.7903 -24.7743 -24.7400 -24.7295 -24.4476 -24.3855 -24.3704 -24.3263
   -24.3216 -24.2937 -24.2683 -24.2414 -24.2353 -24.2221 -24.1686 -24.1550
   -24.1180 -24.0954 -24.0805 -24.0673 -24.0593 -24.0444 -24.0279 -23.9936
   -23.9866 -23.9375 -23.9294 -23.9293 -23.9113 -23.8759 -23.8623 -23.8534
   -23.8301 -23.8068 -23.7809 -23.7552 -23.7075 -23.6874 -23.6715 -23.5574
   -20.1980 -20.1634 -20.1468 -20.1340 -20.1310 -20.1198 -20.1099 -20.1036
   -20.0963 -20.0840 -20.0777 -20.0590 -20.0541 -20.0536 -20.0477 -20.0351
   -20.0323 -20.0249 -20.0242 -20.0147 -20.0140 -20.0084 -20.0065 -20.0016
   -19.9977 -19.9942 -19.9935 -19.9880 -19.9863 -19.9833 -19.9832 -19.9734
   -19.9731 -19.9666 -19.9648 -19.9613 -19.9570 -19.9532 -19.9511 -19.9433
   -19.9414 -19.9405 -19.9392 -19.9331 -19.9329 -19.9275 -19.9183 -19.9164
   -19.9152 -19.9059 -19.9047 -19.9005 -19.8963 -19.8918 -19.8874 -19.8826
   -19.8784 -19.8743 -19.8739 -19.8717 -19.8680 -19.8654 -19.8647 -19.8631
   -19.8576 -19.8570 -19.8523 -19.8506 -19.8463 -19.8448 -19.8444 -19.8374
   -19.8354 -19.8331 -19.8325 -19.8322 -19.8305 -19.8245 -19.8178 -19.8160
   -19.8120 -19.8097 -19.8007 -19.7957 -19.7953 -19.7918 -19.7904 -19.7875
   -19.7865 -19.7804 -19.7790 -19.7744 -19.7592 -19.7541 -19.7536 -19.7463
   -19.7462 -19.7393 -19.7378 -19.7353 -19.7295 -19.7260 -19.7120 -19.7082
   -19.7062 -19.7028 -19.7004 -19.6914 -19.6866 -19.6806 -19.6743 -19.6537
   -19.6518 -19.6312 -19.6260 -19.6169 -19.6136 -19.6133 -19.5938 -19.5865
   -19.5692 -19.5617 -19.5341 -19.5124 -19.4663 -19.4235 -19.4190 -19.4077
   -19.3815 -19.3511 -19.3484 -19.3316 -19.3159 -19.3141 -19.3049 -19.2959
   -19.2838 -19.2832 -19.2829 -19.2719 -19.1930 -19.1874 -19.1872 -19.1702
   -19.1321 -19.0885 -19.0798 -19.0744 -19.0432 -19.0232 -19.0107 -19.0053
   -18.9861 -18.9772 -18.9736 -18.9719 -18.9551 -18.9425 -18.9386 -18.8856
   -13.1355 -13.1182 -13.0801 -13.0705 -12.8637 -12.8458 -12.8333 -12.8175
   -12.5183 -12.5112 -12.4981 -12.4816 -12.4567 -12.4541 -12.4411 -12.4243
   -12.2594 -12.2495 -12.2354 -12.2281 -11.6231 -11.6194 -11.6016 -11.5848
   -11.2705 -11.2681 -11.2596 -11.2476 -10.8674 -10.8561 -10.8473 -10.8195
   -10.7240 -10.7076 -10.6655 -10.6599 -10.6345 -10.6315 -10.5991 -10.5753
   -10.4591 -10.4433 -10.4196 -10.3731 -10.0886 -10.0511 -10.0404 -10.0344
   -10.0228  -9.9911  -9.9776  -9.9713  -9.8976  -9.8868  -9.8641  -9.8110
    -9.5014  -9.4888  -9.4753  -9.4624  -9.4093  -9.3835  -9.3754  -9.3488
    -9.3026  -9.2533  -9.2311  -9.2235  -9.1893  -9.1854  -9.1794  -9.1587
    -9.0243  -9.0092  -8.9937  -8.9900  -8.7240  -8.6897  -8.6330  -8.6179
    -8.6155  -8.6016  -8.5805  -8.5763  -8.5207  -8.5098  -8.4968  -8.4835
    -8.3701  -8.3262  -8.2994  -8.2935  -8.2791  -8.2622  -8.2523  -8.2445
    -8.2394  -8.2198  -8.2126  -8.2039  -7.9706  -7.9323  -7.9211  -7.9133
    -7.8814  -7.8564  -7.8510  -7.8421  -7.7984  -7.7940  -7.7819  -7.7788
    -7.7013  -7.6785  -7.6718  -7.6619  -7.6468  -7.6191  -7.6107  -7.5982
    -7.5930  -7.5604  -7.5597  -7.5444  -7.5352  -7.5235  -7.5176  -7.5031
    -7.4894  -7.4780  -7.4650  -7.4581  -7.4475  -7.4350  -7.4152  -7.4059
    -7.3966  -7.3763  -7.3299  -7.2983  -7.1384  -7.1081  -7.0505  -7.0115

     occupation numbers 
     1.0000   1.0000   1.0000   1.0000   1.0000   1.0000   1.0000   1.0000
     1.0000   1.0000   1.0000   1.0000   1.0000   1.0000   1.0000   1.0000
     1.0000   1.0000   1.0000   1.0000   1.0000   1.0000   1.0000   1.0000
     1.0000   1.0000   1.0000   1.0000   1.0000   1.0000   1.0000   1.0000
     1.0000   1.0000   1.0000   1.0000   1.0000   1.0000   1.0000   1.0000
     1.0000   1.0000   1.0000   1.0000   1.0000   1.0000   1.0000   1.0000
     1.0000   1.0000   1.0000   1.0000   1.0000   1.0000   1.0000   1.0000
     1.0000   1.0000   1.0000   1.0000   1.0000   1.0000   1.0000   1.0000
     1.0000   1.0000   1.0000   1.0000   1.0000   1.0000   1.0000   1.0000
     1.0000   1.0000   1.0000   1.0000   1.0000   1.0000   1.0000   1.0000
     1.0000   1.0000   1.0000   1.0000   1.0000   1.0000   1.0000   1.0000
     1.0000   1.0000   1.0000   1.0000   1.0000   1.0000   1.0000   1.0000
     1.0000   1.0000   1.0000   1.0000   1.0000   1.0000   1.0000   1.0000
     1.0000   1.0000   1.0000   1.0000   1.0000   1.0000   1.0000   1.0000
     1.0000   1.0000   1.0000   1.0000   1.0000   1.0000   1.0000   1.0000
     1.0000   1.0000   1.0000   1.0000   1.0000   1.0000   1.0000   1.0000
     1.0000   1.0000   1.0000   1.0000   1.0000   1.0000   1.0000   1.0000
     1.0000   1.0000   1.0000   1.0000   1.0000   1.0000   1.0000   1.0000
     1.0000   1.0000   1.0000   1.0000   1.0000   1.0000   1.0000   1.0000
     1.0000   1.0000   1.0000   1.0000   1.0000   1.0000   1.0000   1.0000
     1.0000   1.0000   1.0000   1.0000   1.0000   1.0000   1.0000   1.0000
     1.0000   1.0000   1.0000   1.0000   1.0000   1.0000   1.0000   1.0000
     1.0000   1.0000   1.0000   1.0000   1.0000   1.0000   1.0000   1.0000
     1.0000   1.0000   1.0000   1.0000   1.0000   1.0000   1.0000   1.0000
     1.0000   1.0000   1.0000   1.0000   1.0000   1.0000   1.0000   1.0000
     1.0000   1.0000   1.0000   1.0000   1.0000   1.0000   1.0000   1.0000
     1.0000   1.0000   1.0000   1.0000   1.0000   1.0000   1.0000   1.0000
     1.0000   1.0000   1.0000   1.0000   1.0000   1.0000   1.0000   1.0000
     1.0000   1.0000   1.0000   1.0000   1.0000   1.0000   1.0000   1.0000
     1.0000   1.0000   1.0000   1.0000   1.0000   1.0000   1.0000   1.0000
     1.0000   1.0000   1.0000   1.0000   1.0000   1.0000   1.0000   1.0000
     1.0000   1.0000   1.0000   1.0000   1.0000   1.0000   1.0000   1.0000
     1.0000   1.0000   1.0000   1.0000   1.0000   1.0000   1.0000   1.0000
     1.0000   1.0000   1.0000   1.0000   1.0000   1.0000   1.0000   1.0000
     1.0000   1.0000   1.0000   1.0000   1.0000   1.0000   1.0000   1.0000
     1.0000   1.0000   1.0000   1.0000   1.0000   1.0000   1.0000   1.0000
     1.0000   1.0000   1.0000   1.0000   1.0000   1.0000   1.0000   1.0000
     1.0000   1.0000   1.0000   1.0000   1.0000   1.0000   1.0000   1.0000
     1.0000   1.0000   1.0000   1.0000   1.0000   1.0000   1.0000   1.0000
     1.0000   1.0000   1.0000   1.0000   1.0000   1.0000   1.0000   1.0000
     1.0000   1.0000   1.0000   1.0000   1.0000   1.0000   1.0000   1.0000
     1.0000   1.0000   1.0000   1.0000   1.0000   1.0000   1.0000   1.0000
     1.0000   1.0000   1.0000   1.0000   1.0000   1.0000   1.0000   1.0000
     1.0000   1.0000   1.0000   1.0000   1.0000   1.0000   1.0000   1.0000

          k =-0.5052 0.1105 0.0000 (360696 PWs)   bands (ev):

   -25.1234 -25.1047 -25.0781 -25.0171 -25.0113 -24.9444 -24.9220 -24.8946
   -24.6944 -24.6190 -24.5877 -24.5403 -24.5376 -24.5181 -24.4929 -24.4920
   -24.2837 -24.2654 -24.2432 -24.2205 -24.2092 -24.1923 -24.1526 -24.1264
   -24.1158 -24.1033 -24.1002 -24.0919 -24.0570 -24.0474 -24.0283 -23.9960
   -23.9785 -23.9410 -23.9224 -23.9204 -23.9033 -23.8785 -23.8665 -23.8560
   -23.8278 -23.8069 -23.7805 -23.7578 -23.7061 -23.6860 -23.6730 -23.5578
   -20.2060 -20.1654 -20.1612 -20.1349 -20.1264 -20.1095 -20.1091 -20.1033
   -20.0982 -20.0831 -20.0801 -20.0547 -20.0535 -20.0534 -20.0494 -20.0422
   -20.0311 -20.0302 -20.0222 -20.0151 -20.0141 -20.0036 -20.0021 -20.0005
   -19.9990 -19.9967 -19.9944 -19.9888 -19.9861 -19.9860 -19.9788 -19.9768
   -19.9729 -19.9696 -19.9623 -19.9582 -19.9581 -19.9484 -19.9464 -19.9443
   -19.9441 -19.9391 -19.9347 -19.9318 -19.9292 -19.9237 -19.9191 -19.9181
   -19.9101 -19.9059 -19.8963 -19.8954 -19.8938 -19.8930 -19.8884 -19.8822
   -19.8756 -19.8733 -19.8715 -19.8688 -19.8645 -19.8634 -19.8606 -19.8602
   -19.8536 -19.8527 -19.8491 -19.8484 -19.8459 -19.8457 -19.8404 -19.8385
   -19.8336 -19.8308 -19.8298 -19.8273 -19.8255 -19.8205 -19.8193 -19.8144
   -19.8098 -19.8084 -19.8023 -19.8003 -19.8000 -19.7933 -19.7925 -19.7883
   -19.7882 -19.7865 -19.7795 -19.7732 -19.7629 -19.7591 -19.7533 -19.7503
   -19.7439 -19.7429 -19.7394 -19.7380 -19.7316 -19.7281 -19.7219 -19.7089
   -19.7045 -19.7003 -19.7001 -19.6964 -19.6893 -19.6820 -19.6697 -19.6668
   -19.6596 -19.6297 -19.6249 -19.6172 -19.6122 -19.6120 -19.5744 -19.5570
   -19.5454 -19.5340 -19.5283 -19.5219 -19.4828 -19.4767 -19.4698 -19.4670
   -19.4410 -19.4107 -19.3920 -19.3912 -19.3144 -19.2953 -19.2951 -19.2846
   -19.2365 -19.2246 -19.2064 -19.2005 -19.1934 -19.1637 -19.1540 -19.1459
   -19.1202 -19.1149 -19.0968 -19.0793 -19.0691 -19.0312 -19.0199 -19.0131
   -18.9885 -18.9819 -18.9731 -18.9637 -18.9464 -18.9430 -18.9413 -18.8839
   -13.0797 -13.0297 -13.0164 -12.9978 -12.9055 -12.9044 -12.8940 -12.8864
   -12.8282 -12.8039 -12.7969 -12.7704 -12.2510 -12.2236 -12.1872 -12.1840
   -12.1046 -12.0895 -12.0584 -12.0335 -11.8736 -11.8554 -11.8111 -11.7774
   -10.9439 -10.9406 -10.9112 -10.9058 -10.8127 -10.7708 -10.7507 -10.7278
   -10.7232 -10.7060 -10.6909 -10.6805 -10.6409 -10.6247 -10.5989 -10.5737
   -10.5653 -10.5431 -10.5290 -10.5082 -10.4233 -10.3903 -10.3515 -10.3128
   -10.1071 -10.0792 -10.0685 -10.0340  -9.8766  -9.8283  -9.7695  -9.7433
    -9.6532  -9.6409  -9.5828  -9.5256  -9.2198  -9.1980  -9.1779  -9.1401
    -9.1096  -9.1050  -9.0828  -9.0745  -9.0580  -9.0322  -8.9868  -8.9795
    -8.9419  -8.9360  -8.9172  -8.8831  -8.8554  -8.8207  -8.7988  -8.7840
    -8.7613  -8.7581  -8.7512  -8.7412  -8.7014  -8.6723  -8.6678  -8.6600
    -8.4259  -8.4105  -8.3781  -8.3633  -8.3229  -8.3114  -8.2925  -8.2238
    -8.0303  -8.0098  -7.9878  -7.9766  -7.9689  -7.9532  -7.9501  -7.9426
    -7.9403  -7.9373  -7.9208  -7.9087  -7.7755  -7.7387  -7.7309  -7.7239
    -7.7123  -7.7113  -7.6951  -7.6834  -7.6620  -7.6472  -7.6130  -7.5908
    -7.5844  -7.5455  -7.5218  -7.5167  -7.5049  -7.4994  -7.4842  -7.4588
    -7.4490  -7.4472  -7.4104  -7.4078  -7.3878  -7.3619  -7.3375  -7.3293
    -7.3009  -7.2968  -7.2796  -7.2748  -7.2676  -7.2528  -7.1856  -7.1278

     occupation numbers 
     1.0000   1.0000   1.0000   1.0000   1.0000   1.0000   1.0000   1.0000
     1.0000   1.0000   1.0000   1.0000   1.0000   1.0000   1.0000   1.0000
     1.0000   1.0000   1.0000   1.0000   1.0000   1.0000   1.0000   1.0000
     1.0000   1.0000   1.0000   1.0000   1.0000   1.0000   1.0000   1.0000
     1.0000   1.0000   1.0000   1.0000   1.0000   1.0000   1.0000   1.0000
     1.0000   1.0000   1.0000   1.0000   1.0000   1.0000   1.0000   1.0000
     1.0000   1.0000   1.0000   1.0000   1.0000   1.0000   1.0000   1.0000
     1.0000   1.0000   1.0000   1.0000   1.0000   1.0000   1.0000   1.0000
     1.0000   1.0000   1.0000   1.0000   1.0000   1.0000   1.0000   1.0000
     1.0000   1.0000   1.0000   1.0000   1.0000   1.0000   1.0000   1.0000
     1.0000   1.0000   1.0000   1.0000   1.0000   1.0000   1.0000   1.0000
     1.0000   1.0000   1.0000   1.0000   1.0000   1.0000   1.0000   1.0000
     1.0000   1.0000   1.0000   1.0000   1.0000   1.0000   1.0000   1.0000
     1.0000   1.0000   1.0000   1.0000   1.0000   1.0000   1.0000   1.0000
     1.0000   1.0000   1.0000   1.0000   1.0000   1.0000   1.0000   1.0000
     1.0000   1.0000   1.0000   1.0000   1.0000   1.0000   1.0000   1.0000
     1.0000   1.0000   1.0000   1.0000   1.0000   1.0000   1.0000   1.0000
     1.0000   1.0000   1.0000   1.0000   1.0000   1.0000   1.0000   1.0000
     1.0000   1.0000   1.0000   1.0000   1.0000   1.0000   1.0000   1.0000
     1.0000   1.0000   1.0000   1.0000   1.0000   1.0000   1.0000   1.0000
     1.0000   1.0000   1.0000   1.0000   1.0000   1.0000   1.0000   1.0000
     1.0000   1.0000   1.0000   1.0000   1.0000   1.0000   1.0000   1.0000
     1.0000   1.0000   1.0000   1.0000   1.0000   1.0000   1.0000   1.0000
     1.0000   1.0000   1.0000   1.0000   1.0000   1.0000   1.0000   1.0000
     1.0000   1.0000   1.0000   1.0000   1.0000   1.0000   1.0000   1.0000
     1.0000   1.0000   1.0000   1.0000   1.0000   1.0000   1.0000   1.0000
     1.0000   1.0000   1.0000   1.0000   1.0000   1.0000   1.0000   1.0000
     1.0000   1.0000   1.0000   1.0000   1.0000   1.0000   1.0000   1.0000
     1.0000   1.0000   1.0000   1.0000   1.0000   1.0000   1.0000   1.0000
     1.0000   1.0000   1.0000   1.0000   1.0000   1.0000   1.0000   1.0000
     1.0000   1.0000   1.0000   1.0000   1.0000   1.0000   1.0000   1.0000
     1.0000   1.0000   1.0000   1.0000   1.0000   1.0000   1.0000   1.0000
     1.0000   1.0000   1.0000   1.0000   1.0000   1.0000   1.0000   1.0000
     1.0000   1.0000   1.0000   1.0000   1.0000   1.0000   1.0000   1.0000
     1.0000   1.0000   1.0000   1.0000   1.0000   1.0000   1.0000   1.0000
     1.0000   1.0000   1.0000   1.0000   1.0000   1.0000   1.0000   1.0000
     1.0000   1.0000   1.0000   1.0000   1.0000   1.0000   1.0000   1.0000
     1.0000   1.0000   1.0000   1.0000   1.0000   1.0000   1.0000   1.0000
     1.0000   1.0000   1.0000   1.0000   1.0000   1.0000   1.0000   1.0000
     1.0000   1.0000   1.0000   1.0000   1.0000   1.0000   1.0000   1.0000
     1.0000   1.0000   1.0000   1.0000   1.0000   1.0000   1.0000   1.0000
     1.0000   1.0000   1.0000   1.0000   1.0000   1.0000   1.0000   1.0000
     1.0000   1.0000   1.0000   1.0000   1.0000   1.0000   1.0000   1.0000
     1.0000   1.0000   1.0000   1.0000   1.0000   1.0000   1.0000   1.0000

          k =-0.4805-0.4620 0.0000 (360682 PWs)   bands (ev):

   -25.1089 -25.1015 -25.0653 -25.0422 -24.9922 -24.9619 -24.9271 -24.9095
   -24.6954 -24.6237 -24.5870 -24.5604 -24.5202 -24.5142 -24.4926 -24.4854
   -24.2791 -24.2609 -24.2366 -24.2168 -24.2059 -24.1960 -24.1375 -24.1229
   -24.1200 -24.1156 -24.0891 -24.0776 -24.0554 -24.0447 -24.0443 -24.0055
   -23.9854 -23.9336 -23.9288 -23.9265 -23.9130 -23.8767 -23.8638 -23.8507
   -23.8306 -23.8095 -23.7814 -23.7556 -23.7073 -23.6872 -23.6708 -23.5572
   -20.1985 -20.1637 -20.1491 -20.1351 -20.1287 -20.1172 -20.1085 -20.1076
   -20.0979 -20.0827 -20.0806 -20.0597 -20.0554 -20.0534 -20.0483 -20.0355
   -20.0320 -20.0271 -20.0245 -20.0178 -20.0158 -20.0057 -20.0054 -20.0033
   -19.9988 -19.9954 -19.9938 -19.9920 -19.9874 -19.9845 -19.9830 -19.9753
   -19.9724 -19.9659 -19.9649 -19.9556 -19.9540 -19.9533 -19.9527 -19.9424
   -19.9411 -19.9398 -19.9357 -19.9342 -19.9304 -19.9240 -19.9181 -19.9136
   -19.9120 -19.9065 -19.9030 -19.9006 -19.8968 -19.8905 -19.8844 -19.8827
   -19.8768 -19.8737 -19.8725 -19.8713 -19.8652 -19.8635 -19.8623 -19.8574
   -19.8562 -19.8545 -19.8524 -19.8507 -19.8478 -19.8457 -19.8390 -19.8385
   -19.8343 -19.8334 -19.8302 -19.8263 -19.8244 -19.8214 -19.8180 -19.8111
   -19.8103 -19.8043 -19.8017 -19.7979 -19.7966 -19.7935 -19.7930 -19.7864
   -19.7860 -19.7856 -19.7779 -19.7755 -19.7590 -19.7552 -19.7527 -19.7525
   -19.7491 -19.7453 -19.7398 -19.7353 -19.7313 -19.7272 -19.7217 -19.7114
   -19.7020 -19.7010 -19.7004 -19.6939 -19.6891 -19.6818 -19.6718 -19.6674
   -19.6654 -19.6309 -19.6267 -19.6200 -19.6177 -19.6128 -19.5774 -19.5642
   -19.5477 -19.5366 -19.5316 -19.5250 -19.4778 -19.4680 -19.4471 -19.4386
   -19.3871 -19.3701 -19.3544 -19.3369 -19.3213 -19.3149 -19.3139 -19.3082
   -19.2720 -19.2677 -19.2486 -19.2321 -19.1923 -19.1855 -19.1775 -19.1614
   -19.1190 -19.0819 -19.0681 -19.0622 -19.0534 -19.0369 -19.0111 -19.0101
   -19.0002 -18.9842 -18.9751 -18.9734 -18.9471 -18.9433 -18.9357 -18.8847
   -13.1507 -13.1494 -13.1101 -13.1045 -12.7126 -12.7106 -12.6793 -12.6545
   -12.6429 -12.6195 -12.5991 -12.5788 -12.3948 -12.3871 -12.3683 -12.3294
   -12.2740 -12.2668 -12.2210 -12.1919 -12.0166 -12.0023 -11.9810 -11.9718
   -10.8508 -10.8478 -10.8307 -10.8227 -10.8172 -10.8043 -10.7810 -10.7583
   -10.7570 -10.7147 -10.6876 -10.6515 -10.5511 -10.5135 -10.4983 -10.4684
   -10.4339 -10.4254 -10.4127 -10.3932 -10.3900 -10.3775 -10.3380 -10.3308
   -10.0380 -10.0265  -9.9943  -9.9907  -9.8197  -9.7962  -9.7826  -9.7751
    -9.5968  -9.5634  -9.5473  -9.5441  -9.3962  -9.3518  -9.3432  -9.3376
    -9.2839  -9.2596  -9.2501  -9.2370  -8.9987  -8.9909  -8.9732  -8.9440
    -8.9334  -8.9259  -8.9242  -8.9044  -8.8902  -8.8710  -8.8328  -8.8114
    -8.7902  -8.7853  -8.7598  -8.7552  -8.6079  -8.6033  -8.5802  -8.5749
    -8.3897  -8.3460  -8.3380  -8.3130  -8.2829  -8.2501  -8.2357  -8.1901
    -8.0060  -7.9883  -7.9765  -7.9476  -7.9300  -7.9116  -7.8967  -7.8948
    -7.8799  -7.8717  -7.8344  -7.8315  -7.8091  -7.7951  -7.7809  -7.7488
    -7.7437  -7.7230  -7.7078  -7.7050  -7.6897  -7.6791  -7.6589  -7.6504
    -7.6179  -7.5951  -7.5762  -7.5421  -7.5271  -7.5172  -7.5056  -7.4901
    -7.4768  -7.4560  -7.4509  -7.4354  -7.4075  -7.3795  -7.3480  -7.3309
    -7.2976  -7.2842  -7.2756  -7.2684  -7.2645  -7.2631  -7.1810  -7.1243

     occupation numbers 
     1.0000   1.0000   1.0000   1.0000   1.0000   1.0000   1.0000   1.0000
     1.0000   1.0000   1.0000   1.0000   1.0000   1.0000   1.0000   1.0000
     1.0000   1.0000   1.0000   1.0000   1.0000   1.0000   1.0000   1.0000
     1.0000   1.0000   1.0000   1.0000   1.0000   1.0000   1.0000   1.0000
     1.0000   1.0000   1.0000   1.0000   1.0000   1.0000   1.0000   1.0000
     1.0000   1.0000   1.0000   1.0000   1.0000   1.0000   1.0000   1.0000
     1.0000   1.0000   1.0000   1.0000   1.0000   1.0000   1.0000   1.0000
     1.0000   1.0000   1.0000   1.0000   1.0000   1.0000   1.0000   1.0000
     1.0000   1.0000   1.0000   1.0000   1.0000   1.0000   1.0000   1.0000
     1.0000   1.0000   1.0000   1.0000   1.0000   1.0000   1.0000   1.0000
     1.0000   1.0000   1.0000   1.0000   1.0000   1.0000   1.0000   1.0000
     1.0000   1.0000   1.0000   1.0000   1.0000   1.0000   1.0000   1.0000
     1.0000   1.0000   1.0000   1.0000   1.0000   1.0000   1.0000   1.0000
     1.0000   1.0000   1.0000   1.0000   1.0000   1.0000   1.0000   1.0000
     1.0000   1.0000   1.0000   1.0000   1.0000   1.0000   1.0000   1.0000
     1.0000   1.0000   1.0000   1.0000   1.0000   1.0000   1.0000   1.0000
     1.0000   1.0000   1.0000   1.0000   1.0000   1.0000   1.0000   1.0000
     1.0000   1.0000   1.0000   1.0000   1.0000   1.0000   1.0000   1.0000
     1.0000   1.0000   1.0000   1.0000   1.0000   1.0000   1.0000   1.0000
     1.0000   1.0000   1.0000   1.0000   1.0000   1.0000   1.0000   1.0000
     1.0000   1.0000   1.0000   1.0000   1.0000   1.0000   1.0000   1.0000
     1.0000   1.0000   1.0000   1.0000   1.0000   1.0000   1.0000   1.0000
     1.0000   1.0000   1.0000   1.0000   1.0000   1.0000   1.0000   1.0000
     1.0000   1.0000   1.0000   1.0000   1.0000   1.0000   1.0000   1.0000
     1.0000   1.0000   1.0000   1.0000   1.0000   1.0000   1.0000   1.0000
     1.0000   1.0000   1.0000   1.0000   1.0000   1.0000   1.0000   1.0000
     1.0000   1.0000   1.0000   1.0000   1.0000   1.0000   1.0000   1.0000
     1.0000   1.0000   1.0000   1.0000   1.0000   1.0000   1.0000   1.0000
     1.0000   1.0000   1.0000   1.0000   1.0000   1.0000   1.0000   1.0000
     1.0000   1.0000   1.0000   1.0000   1.0000   1.0000   1.0000   1.0000
     1.0000   1.0000   1.0000   1.0000   1.0000   1.0000   1.0000   1.0000
     1.0000   1.0000   1.0000   1.0000   1.0000   1.0000   1.0000   1.0000
     1.0000   1.0000   1.0000   1.0000   1.0000   1.0000   1.0000   1.0000
     1.0000   1.0000   1.0000   1.0000   1.0000   1.0000   1.0000   1.0000
     1.0000   1.0000   1.0000   1.0000   1.0000   1.0000   1.0000   1.0000
     1.0000   1.0000   1.0000   1.0000   1.0000   1.0000   1.0000   1.0000
     1.0000   1.0000   1.0000   1.0000   1.0000   1.0000   1.0000   1.0000
     1.0000   1.0000   1.0000   1.0000   1.0000   1.0000   1.0000   1.0000
     1.0000   1.0000   1.0000   1.0000   1.0000   1.0000   1.0000   1.0000
     1.0000   1.0000   1.0000   1.0000   1.0000   1.0000   1.0000   1.0000
     1.0000   1.0000   1.0000   1.0000   1.0000   1.0000   1.0000   1.0000
     1.0000   1.0000   1.0000   1.0000   1.0000   1.0000   1.0000   1.0000
     1.0000   1.0000   1.0000   1.0000   1.0000   1.0000   1.0000   1.0000
     1.0000   1.0000   1.0000   1.0000   1.0000   1.0000   1.0000   1.0000

     highest occupied level (ev):    -7.0115

!    total energy              =  -10896.03266356 Ry
     estimated scf accuracy    <          4.5E-09 Ry

     convergence has been achieved in  28 iterations

     negative rho (up, down):  3.317E-03 0.000E+00

     Forces acting on atoms (cartesian axes, Ry/au):

     atom    1 type  1   force =    -0.00821858    0.01093495   -0.00050662
     atom    2 type  1   force =    -0.03174306   -0.01111639    0.00425475
     atom    3 type  2   force =    -0.00335300   -0.00246041   -0.00216879
     atom    4 type  2   force =     0.00304211    0.00350200   -0.00054499
     atom    5 type  2   force =     0.03297957    0.00985461   -0.00156862
     atom    6 type  1   force =     0.00044728    0.02405386   -0.00417705
     atom    7 type  1   force =     0.01128076    0.03079056   -0.00705036
     atom    8 type  2   force =    -0.00996083   -0.00805995   -0.00086954
     atom    9 type  2   force =     0.00214474   -0.04413039    0.00955308
     atom   10 type  2   force =     0.00104537    0.00094597    0.00795583
     atom   11 type  1   force =    -0.01122638    0.00745252   -0.00141238
     atom   12 type  1   force =    -0.00641988    0.00301187    0.00889479
     atom   13 type  2   force =    -0.02413399   -0.00069153    0.00063067
     atom   14 type  2   force =     0.00491746   -0.01757771    0.00292108
     atom   15 type  2   force =     0.02308398    0.00270841   -0.00834096
     atom   16 type  1   force =    -0.00639776    0.01616618    0.00907872
     atom   17 type  1   force =    -0.02149356   -0.00122527    0.00824956
     atom   18 type  2   force =     0.01428423    0.00002871   -0.00845638
     atom   19 type  2   force =     0.00802198   -0.02748160    0.00376779
     atom   20 type  2   force =     0.00461654    0.00496709   -0.01114432
     atom   21 type  1   force =    -0.01490302    0.01179004   -0.00704089
     atom   22 type  1   force =    -0.01012834   -0.01748485   -0.00191844
     atom   23 type  2   force =     0.00253703   -0.00503895   -0.00679300
     atom   24 type  2   force =    -0.00448938    0.05010940   -0.00845095
     atom   25 type  2   force =    -0.00126155    0.00629089    0.01054128
     atom   26 type  1   force =    -0.01589247   -0.00517820    0.00411749
     atom   27 type  1   force =    -0.00117114    0.02540209   -0.00048241
     atom   28 type  2   force =    -0.00486044   -0.00103039   -0.00905238
     atom   29 type  2   force =     0.00381603   -0.05854527    0.01126771
     atom   30 type  2   force =     0.00320083    0.00532870   -0.01041356
     atom   31 type  1   force =     0.00339564   -0.02931827    0.00988054
     atom   32 type  1   force =    -0.01906386   -0.01643435    0.00477322
     atom   33 type  2   force =     0.01324434   -0.00107080    0.00748087
     atom   34 type  2   force =     0.00665053    0.00244903   -0.00171840
     atom   35 type  2   force =     0.03104132   -0.00605602   -0.00679788
     atom   36 type  1   force =    -0.00624580    0.02271825    0.00039660
     atom   37 type  1   force =     0.02114661    0.00353966    0.00696810
     atom   38 type  2   force =    -0.01126865    0.00439454   -0.00844713
     atom   39 type  2   force =    -0.00497745    0.01936289   -0.00798048
     atom   40 type  2   force =    -0.01132033   -0.01458760   -0.00428365
     atom   41 type  1   force =    -0.00227415   -0.00644348   -0.01007806
     atom   42 type  1   force =     0.01206068   -0.02057412   -0.01440070
     atom   43 type  2   force =     0.00562995    0.00184581    0.00817074
     atom   44 type  2   force =    -0.00263583    0.02391365   -0.00225261
     atom   45 type  2   force =    -0.01317097    0.00086608    0.01743280
     atom   46 type  1   force =     0.00522641   -0.01560696    0.00533572
     atom   47 type  1   force =    -0.00379567   -0.02540936    0.01244065
     atom   48 type  2   force =     0.02447204   -0.01385390   -0.00153990
     atom   49 type  2   force =    -0.00566605    0.05355331   -0.01121290
     atom   50 type  2   force =    -0.00681064    0.00490184   -0.00043557
     atom   51 type  1   force =     0.00991449   -0.00829473   -0.00031488
     atom   52 type  1   force =     0.00147485    0.01078521   -0.00873193
     atom   53 type  2   force =    -0.00860388    0.00066645   -0.00040031
     atom   54 type  2   force =    -0.00369635    0.01362139   -0.00302752
     atom   55 type  2   force =    -0.01401785   -0.01016588    0.00873767
     atom   56 type  1   force =     0.00907739   -0.03627531    0.01320753
     atom   57 type  1   force =    -0.00382788   -0.00383688    0.00558359
     atom   58 type  2   force =     0.00791364    0.00674800   -0.00157515
     atom   59 type  2   force =    -0.00238698    0.02779866   -0.00841589
     atom   60 type  2   force =     0.00203152   -0.00282771   -0.00555439
     atom   61 type  1   force =     0.01796267   -0.02653368   -0.00274818
     atom   62 type  1   force =    -0.00194927   -0.02298190   -0.00842862
     atom   63 type  2   force =     0.00570449   -0.00641317    0.00953846
     atom   64 type  2   force =     0.00322434   -0.00550878    0.00482491
     atom   65 type  2   force =     0.00787191    0.00935642    0.01343417
     atom   66 type  1   force =     0.00015955    0.01561520   -0.00743927
     atom   67 type  1   force =     0.02049019   -0.01420962   -0.00594418
     atom   68 type  2   force =     0.00035649    0.00235253    0.00131613
     atom   69 type  2   force =    -0.00527597    0.04073849   -0.00727359
     atom   70 type  2   force =    -0.02454413   -0.00410678    0.01332900
     atom   71 type  1   force =     0.01585819    0.01353741   -0.00149723
     atom   72 type  1   force =     0.01683549    0.00991595   -0.00472010
     atom   73 type  2   force =    -0.00486585    0.00033615   -0.00459686
     atom   74 type  2   force =    -0.00956774    0.01965075   -0.00413374
     atom   75 type  2   force =    -0.02163819    0.00028253    0.00280290
     atom   76 type  1   force =    -0.00502865   -0.02351155    0.00480599
     atom   77 type  1   force =    -0.00019204   -0.00370970    0.00185090
     atom   78 type  2   force =    -0.00877588    0.01507916    0.00613487
     atom   79 type  2   force =     0.00037846   -0.02353399    0.00324309
     atom   80 type  2   force =     0.01971437    0.00391822   -0.00858040
     The non-local contrib.  to forces
     atom    1 type  1   force =     0.16518021   -0.09965747    0.04323541
     atom    2 type  1   force =     0.05990983    0.11353756   -0.03247321
     atom    3 type  2   force =    -0.08250108    0.29609682   -1.03179021
     atom    4 type  2   force =     0.86047796    0.08464024   -0.02958250
     atom    5 type  2   force =    -0.06287824   -0.31614215    1.05117322
     atom    6 type  1   force =     0.12116748   -0.04886847    0.03804606
     atom    7 type  1   force =     0.07979652    0.09996611    0.00940117
     atom    8 type  2   force =    -0.08958934    0.31282432   -1.02962076
     atom    9 type  2   force =     0.81378513    0.13030641    0.09599763
     atom   10 type  2   force =    -0.01741341   -0.30337229    1.08047370
     atom   11 type  1   force =     0.15307715   -0.05401270   -0.00713101
     atom   12 type  1   force =     0.06441904    0.05502192   -0.05702085
     atom   13 type  2   force =    -0.09043570    0.30584053   -1.00113992
     atom   14 type  2   force =     0.87988792    0.06517714   -0.00393744
     atom   15 type  2   force =    -0.04746459   -0.34705683    1.01336081
     atom   16 type  1   force =     0.11887386   -0.04535004    0.03506655
     atom   17 type  1   force =     0.10645671    0.15552724   -0.09813494
     atom   18 type  2   force =    -0.08538908    0.34757657   -1.07130046
     atom   19 type  2   force =     0.84398327    0.10679540   -0.03526805
     atom   20 type  2   force =    -0.03928800   -0.32617278    1.01830840
     atom   21 type  1   force =     0.13519147   -0.11294627    0.04540212
     atom   22 type  1   force =     0.04002953    0.08146736   -0.02776667
     atom   23 type  2   force =    -0.07879798    0.26236343   -1.07105825
     atom   24 type  2   force =     0.84861054    0.04941320    0.03406592
     atom   25 type  2   force =    -0.05337131   -0.31345133    1.09216926
     atom   26 type  1   force =     0.09267930   -0.06852469    0.00021032
     atom   27 type  1   force =     0.07019874    0.13226187   -0.07736221
     atom   28 type  2   force =    -0.10510583    0.29665460   -1.06896625
     atom   29 type  2   force =     0.81413933    0.11925398   -0.02564443
     atom   30 type  2   force =     0.00248457   -0.31354662    0.98561850
     atom   31 type  1   force =     0.15776129   -0.07954063    0.09284641
     atom   32 type  1   force =     0.06795928    0.03547205   -0.07422231
     atom   33 type  2   force =    -0.11760371    0.27720971   -1.01729485
     atom   34 type  2   force =     0.86469489    0.04139859   -0.05659183
     atom   35 type  2   force =    -0.06132168   -0.33397328    1.01560350
     atom   36 type  1   force =     0.09018011    0.01902228    0.03662062
     atom   37 type  1   force =     0.04929473    0.08540017   -0.10861657
     atom   38 type  2   force =    -0.10727403    0.34020836   -1.06646331
     atom   39 type  2   force =     0.77469266    0.07103538   -0.07715465
     atom   40 type  2   force =    -0.04536210   -0.33007403    1.01108723
     atom   41 type  1   force =     0.05084734   -0.07834861    0.08024889
     atom   42 type  1   force =     0.05464645    0.08775180   -0.02365626
     atom   43 type  2   force =    -0.11522028    0.26601388   -1.03798497
     atom   44 type  2   force =     0.79741221    0.05478656    0.02981218
     atom   45 type  2   force =    -0.04548298   -0.28813293    1.10809636
     atom   46 type  1   force =     0.13215734   -0.11869929    0.05780621
     atom   47 type  1   force =     0.08692104    0.08114933   -0.05057982
     atom   48 type  2   force =    -0.09363461    0.30846738   -1.05335390
     atom   49 type  2   force =     0.81445721    0.01611170   -0.01752689
     atom   50 type  2   force =    -0.06910502   -0.33307531    1.03117669
     atom   51 type  1   force =     0.11457437   -0.07559836    0.06994335
     atom   52 type  1   force =     0.06204969    0.06070588   -0.09891138
     atom   53 type  2   force =    -0.08106253    0.28026596   -1.04561225
     atom   54 type  2   force =     0.81091240    0.06814582   -0.03952824
     atom   55 type  2   force =    -0.00844408   -0.35901679    1.07404508
     atom   56 type  1   force =     0.09899078   -0.06950015    0.06665856
     atom   57 type  1   force =     0.04803717    0.01515836   -0.07434188
     atom   58 type  2   force =    -0.11921131    0.30817424   -1.04040623
     atom   59 type  2   force =     0.83612254    0.04177773   -0.00924997
     atom   60 type  2   force =    -0.06224286   -0.32397469    1.01490074
     atom   61 type  1   force =     0.07817412   -0.08770359    0.07187690
     atom   62 type  1   force =     0.03098296    0.11197094    0.02153673
     atom   63 type  2   force =    -0.12109754    0.28144366   -1.01749422
     atom   64 type  2   force =     0.78143927    0.08216704    0.08539353
     atom   65 type  2   force =    -0.08116642   -0.29311490    1.07468001
     atom   66 type  1   force =     0.07356741   -0.08590370    0.09282977
     atom   67 type  1   force =     0.07670524    0.08018625   -0.05658353
     atom   68 type  2   force =    -0.08589236    0.26061692   -1.03156711
     atom   69 type  2   force =     0.79682734    0.07189236    0.07257272
     atom   70 type  2   force =    -0.02441959   -0.30792462    1.07915028
     atom   71 type  1   force =     0.07914180   -0.06799895    0.08832251
     atom   72 type  1   force =     0.05400164    0.07486807   -0.04794332
     atom   73 type  2   force =    -0.07864060    0.32016314   -1.06456304
     atom   74 type  2   force =     0.76901257    0.06885121    0.03781115
     atom   75 type  2   force =    -0.04779993   -0.29351877    1.02522900
     atom   76 type  1   force =     0.10685016   -0.04334111    0.06177297
     atom   77 type  1   force =     0.02262358    0.05975071   -0.12426065
     atom   78 type  2   force =    -0.11251801    0.29424378   -1.01392727
     atom   79 type  2   force =     0.77729633    0.06665486   -0.05219953
     atom   80 type  2   force =    -0.01711081   -0.30375676    0.98574720
     The ionic contribution  to forces
     atom    1 type  1   force =     1.59203983   11.30386614  -89.35920428
     atom    2 type  1   force =     0.85653719  -10.99646571 -128.45054142
     atom    3 type  2   force =    -0.03874080   -0.55784843  -15.28636474
     atom    4 type  2   force =    -3.79373552   -0.10770404  -49.89374812
     atom    5 type  2   force =     0.87869938    0.74677818  -85.46173060
     atom    6 type  1   force =     1.32388138   11.73467848  128.88223183
     atom    7 type  1   force =     1.66195936  -10.34392415   89.70859635
     atom    8 type  2   force =    -0.05944274   -0.93958088   85.88911545
     atom    9 type  2   force =    -3.47104011   -1.18119773   48.46339800
     atom   10 type  2   force =     0.02241420    0.72297014   14.70353769
     atom   11 type  1   force =     0.94334879   11.75639318  -90.06365664
     atom   12 type  1   force =     1.49323875  -10.89955410 -129.91524572
     atom   13 type  2   force =    -0.40128870   -0.50079961  -15.42886528
     atom   14 type  2   force =    -3.62211884   -0.53269262  -50.61426816
     atom   15 type  2   force =     0.51959627    0.84222204  -85.92715030
     atom   16 type  1   force =     1.27581303   11.63898070  129.56381346
     atom   17 type  1   force =     1.39246610  -10.88536448   87.71144879
     atom   18 type  2   force =     0.46984146   -0.94158594   86.19873066
     atom   19 type  2   force =    -3.40356899   -0.87641999   50.22627183
     atom   20 type  2   force =     0.20050772    0.62752939   15.62451179
     atom   21 type  1   force =     1.10828233   11.36476068  -89.37087883
     atom   22 type  1   force =     1.54816036  -10.99874881 -128.07427199
     atom   23 type  2   force =     0.22188335   -0.50870639  -14.97924252
     atom   24 type  2   force =    -3.58758903    1.01574888  -50.61378195
     atom   25 type  2   force =     0.05289299    0.75032408  -86.24610525
     atom   26 type  1   force =     0.65344411   10.89943881  128.98031228
     atom   27 type  1   force =     1.82348662  -10.43103055   89.17476021
     atom   28 type  2   force =     0.12221672   -0.70937543   86.09387898
     atom   29 type  2   force =    -3.33348949   -1.55562047   50.75670033
     atom   30 type  2   force =     0.04100505    0.36647992   15.93714270
     atom   31 type  1   force =     1.91614053   10.73652575  -88.70389733
     atom   32 type  1   force =     1.84161815  -11.80384194 -129.54284064
     atom   33 type  2   force =     0.62155529   -0.50048903  -15.42624338
     atom   34 type  2   force =    -3.42364491   -0.03142884  -49.39847119
     atom   35 type  2   force =     0.87231725    0.56311594  -85.32372837
     atom   36 type  1   force =     1.09728886   11.98129828  129.36270493
     atom   37 type  1   force =     2.30275269  -10.89979055   87.85391000
     atom   38 type  2   force =     0.11328503   -0.93530348   86.11147068
     atom   39 type  2   force =    -3.43545076    0.32406624   50.84372547
     atom   40 type  2   force =    -0.08244346    0.53232437   15.28981867
     atom   41 type  1   force =     0.82473240   10.84537737  -89.51531443
     atom   42 type  1   force =     2.21688516  -11.41297166 -128.57144112
     atom   43 type  2   force =     0.46985518   -0.44819040  -15.51474831
     atom   44 type  2   force =    -3.31274078    0.43408845  -50.29285321
     atom   45 type  2   force =    -0.18610122    0.52620728  -86.57861752
     atom   46 type  1   force =     1.98884055   10.47488945  129.68763215
     atom   47 type  1   force =     2.06052535  -11.53212029   88.70737218
     atom   48 type  2   force =     0.80153197   -1.11703067   85.96182110
     atom   49 type  2   force =    -3.46568452    1.19433186   50.58532570
     atom   50 type  2   force =     0.24220373    0.54885582   15.55764362
     atom   51 type  1   force =     1.64711626   11.21237599  -88.60691389
     atom   52 type  1   force =     1.71086499  -10.81697913 -129.37959977
     atom   53 type  2   force =     0.02115990   -0.67633506  -15.27810626
     atom   54 type  2   force =    -3.64123774    0.19090734  -49.79480185
     atom   55 type  2   force =    -0.37841442    0.97946371  -86.37506244
     atom   56 type  1   force =     1.47512636   10.71063832  129.51767341
     atom   57 type  1   force =     1.71330802  -11.48656375   88.88785395
     atom   58 type  2   force =     0.53994809   -0.80478146   86.03974730
     atom   59 type  2   force =    -3.41710103    0.61783128   50.01899874
     atom   60 type  2   force =     0.19712828    0.48233187   15.47475823
     atom   61 type  1   force =     1.71178272   10.23024971  -89.39595287
     atom   62 type  1   force =     1.65980744  -11.59955575 -128.37769800
     atom   63 type  2   force =     0.41857667   -0.60871137  -15.56586026
     atom   64 type  2   force =    -3.20971923   -0.35508401  -51.33891176
     atom   65 type  2   force =     0.51178603    0.58158739  -85.95212110
     atom   66 type  1   force =     0.93392900   11.06094112  129.86236126
     atom   67 type  1   force =     2.32935522  -11.07963445   89.95648809
     atom   68 type  2   force =     0.27581418   -0.58640488   85.39537485
     atom   69 type  2   force =    -3.49046597    0.78834923   49.19885538
     atom   70 type  2   force =    -0.61104812    0.64452932   14.98891301
     atom   71 type  1   force =     1.47876014   11.65837612  -88.28198830
     atom   72 type  1   force =     1.96359846  -10.40613735 -129.67655717
     atom   73 type  2   force =     0.19784634   -0.75750247  -14.69489071
     atom   74 type  2   force =    -3.47910362    0.21083322  -51.26467964
     atom   75 type  2   force =    -0.31513614    0.69904140  -85.23698859
     atom   76 type  1   force =     1.16762495   11.02766758  129.52845468
     atom   77 type  1   force =     1.51672482  -11.47923376   88.67261684
     atom   78 type  2   force =     0.15111977   -0.48026184   85.51612006
     atom   79 type  2   force =    -3.35200912   -0.66051348   51.20543087
     atom   80 type  2   force =     0.31869049    0.41910990   15.63382242
     The local contribution  to forces
     atom    1 type  1   force =    -1.76526881  -11.19592127   89.31589584
     atom    2 type  1   force =    -0.95050945   10.87461117  128.48706784
     atom    3 type  2   force =     0.11703935    0.26207369   16.30770975
     atom    4 type  2   force =     2.94422418    0.02738441   49.92250244
     atom    5 type  2   force =    -0.78315458   -0.42367753   84.41738189
     atom    6 type  1   force =    -1.44451044  -11.66286863 -128.92427147
     atom    7 type  1   force =    -1.73028915   10.27918350  -89.72531574
     atom    8 type  2   force =     0.13813231    0.62156544  -84.86860722
     atom    9 type  2   force =     2.66690022    1.00755800  -48.54889786
     atom   10 type  2   force =    -0.00414153   -0.42148340  -15.76730321
     atom   11 type  1   force =    -1.10786477  -11.69722659   90.06893679
     atom   12 type  1   force =    -1.56520870   10.85029452  129.98101316
     atom   13 type  2   force =     0.46651621    0.19715005   16.42264875
     atom   14 type  2   force =     2.75526283    0.45041588   50.62109705
     atom   15 type  2   force =    -0.44932747   -0.49566391   84.91344845
     atom   16 type  1   force =    -1.40133384  -11.57901350 -129.58916953
     atom   17 type  1   force =    -1.52162334   10.73232828  -87.60572242
     atom   18 type  2   force =    -0.37087680    0.59727764  -85.14455566
     atom   19 type  2   force =     2.57546154    0.74286959  -50.18752174
     atom   20 type  2   force =    -0.15694656   -0.29938904  -16.64596132
     atom   21 type  1   force =    -1.25888760  -11.24277999   89.31861660
     atom   22 type  1   force =    -1.59971515   10.90154329  128.09960732
     atom   23 type  2   force =    -0.14129844    0.24374559   16.03484700
     atom   24 type  2   force =     2.74224168   -1.01412019   50.57148802
     atom   25 type  2   force =    -0.00130432   -0.43349304   85.17335396
     atom   26 type  1   force =    -0.76324999  -10.83905446 -128.97631481
     atom   27 type  1   force =    -1.89532876   10.32879639  -89.09885724
     atom   28 type  2   force =    -0.02299888    0.41448261  -85.04262743
     atom   29 type  2   force =     2.53068902    1.37837882  -50.71990650
     atom   30 type  2   force =    -0.04027795   -0.05052381  -16.92543572
     atom   31 type  1   force =    -2.07016133  -10.69067541   88.62248841
     atom   32 type  1   force =    -1.93016749   11.75347937  129.62124098
     atom   33 type  2   force =    -0.49169826    0.22481623   16.44298319
     atom   34 type  2   force =     2.57362892   -0.00706492   49.45280041
     atom   35 type  2   force =    -0.78028236   -0.23836022   84.30935610
     atom   36 type  1   force =    -1.19424549  -11.97805846 -129.39860514
     atom   37 type  1   force =    -2.33058145   10.82084180  -87.73921404
     atom   38 type  2   force =    -0.01838043    0.60268059  -85.06208901
     atom   39 type  2   force =     2.66286473   -0.37491197  -50.77532512
     atom   40 type  2   force =     0.11594419   -0.22003148  -16.29715610
     atom   41 type  1   force =    -0.87897149  -10.77649928   89.42544441
     atom   42 type  1   force =    -2.25951948   11.30635253  128.57960937
     atom   43 type  2   force =    -0.35003134    0.18654037   16.55270310
     atom   44 type  2   force =     2.52002347   -0.46420541   50.26102425
     atom   45 type  2   force =     0.21786356   -0.23994297   85.49704472
     atom   46 type  1   force =    -2.11544275  -10.37587125 -129.73915952
     atom   47 type  1   force =    -2.15165508   11.42686610  -88.64411854
     atom   48 type  2   force =    -0.68411357    0.79748631  -84.91844153
     atom   49 type  2   force =     2.65300449   -1.15622781  -50.57926180
     atom   50 type  2   force =    -0.18060682   -0.21396630  -16.58101981
     atom   51 type  1   force =    -1.75143023  -11.14820622   88.53731139
     atom   52 type  1   force =    -1.77200248   10.77003260  129.46795700
     atom   53 type  2   force =     0.05043276    0.39936036   16.31494345
     atom   54 type  2   force =     2.83403577   -0.24467002   49.83090178
     atom   55 type  2   force =     0.37260136   -0.63402512   85.31844925
     atom   56 type  1   force =    -1.56502691  -10.68194962 -129.56964337
     atom   57 type  1   force =    -1.76609018   11.46931667  -88.80845461
     atom   58 type  2   force =    -0.41387758    0.50627992  -85.00924968
     atom   59 type  2   force =     2.58624743   -0.63113685  -50.01834089
     atom   60 type  2   force =    -0.13342626   -0.16423255  -16.48716383
     atom   61 type  1   force =    -1.77185381  -10.17310155   89.32197728
     atom   62 type  1   force =    -1.69379879   11.46655740  128.34757735
     atom   63 type  2   force =    -0.29285716    0.32345882   16.58487965
     atom   64 type  2   force =     2.43877351    0.26813727   51.25915380
     atom   65 type  2   force =    -0.42340895   -0.28182124   84.89965081
     atom   66 type  1   force =    -1.00782691  -10.96141953 -129.96181770
     atom   67 type  1   force =    -2.38487540   10.98718019  -89.90703418
     atom   68 type  2   force =    -0.19039504    0.33063626  -84.37072509
     atom   69 type  2   force =     2.69565522   -0.81846810  -49.27811920
     atom   70 type  2   force =     0.61045738   -0.34363573  -16.04593289
     atom   71 type  1   force =    -1.54153091  -11.57872783   88.19305811
     atom   72 type  1   force =    -2.00033891   10.34411110  129.71894590
     atom   73 type  2   force =    -0.12486687    0.44065688   15.74627476
     atom   74 type  2   force =     2.70748847   -0.25921444   51.22301539
     atom   75 type  2   force =     0.34066961   -0.40801872   84.22278085
     atom   76 type  1   force =    -1.28019616  -11.01147602 -129.58459048
     atom   77 type  1   force =    -1.54060290   11.41818869  -88.54789145
     atom   78 type  2   force =    -0.04850200    0.20398317  -84.50407142
     atom   79 type  2   force =     2.58226450    0.57075397  -51.15043056
     atom   80 type  2   force =    -0.28190025   -0.11428126  -16.62038145
     The core correction contribution to forces
     atom    1 type  1   force =    -0.00017668    0.00264255   -0.00045174
     atom    2 type  1   force =     0.00232642   -0.00280027    0.00017983
     atom    3 type  2   force =     0.00084868   -0.00278510    0.00826740
     atom    4 type  2   force =    -0.00791985   -0.00081767    0.00027528
     atom    5 type  2   force =     0.00031469    0.00288848   -0.00839582
     atom    6 type  1   force =    -0.00009128    0.00111490   -0.00016560
     atom    7 type  1   force =    -0.00018544   -0.00445041    0.00029845
     atom    8 type  2   force =     0.00093930   -0.00286847    0.00824858
     atom    9 type  2   force =    -0.00749977   -0.00080087   -0.00093785
     atom   10 type  2   force =     0.00018781    0.00283205   -0.00874282
     atom   11 type  1   force =     0.00022131    0.00230566    0.00041026
     atom   12 type  1   force =     0.00112414   -0.00273826    0.00013061
     atom   13 type  2   force =     0.00107556   -0.00288167    0.00797357
     atom   14 type  2   force =    -0.00811696   -0.00047583    0.00002280
     atom   15 type  2   force =     0.00027941    0.00321013   -0.00800693
     atom   16 type  1   force =     0.00024576    0.00154926   -0.00062559
     atom   17 type  1   force =     0.00121437   -0.00371110    0.00068747
     atom   18 type  2   force =     0.00070968   -0.00323742    0.00867007
     atom   19 type  2   force =    -0.00785121   -0.00072279    0.00029016
     atom   20 type  2   force =     0.00034542    0.00299866   -0.00799132
     atom   21 type  1   force =     0.00053927    0.00274060   -0.00018016
     atom   22 type  1   force =     0.00138395   -0.00176667    0.00051922
     atom   23 type  2   force =     0.00075217   -0.00244932    0.00865370
     atom   24 type  2   force =    -0.00774902   -0.00093180   -0.00023049
     atom   25 type  2   force =     0.00052112    0.00290391   -0.00887184
     atom   26 type  1   force =     0.00122735    0.00295755   -0.00007983
     atom   27 type  1   force =     0.00048881   -0.00462682    0.00099502
     atom   28 type  2   force =     0.00102683   -0.00279111    0.00866652
     atom   29 type  2   force =    -0.00752199   -0.00055928    0.00012391
     atom   30 type  2   force =    -0.00000635    0.00291950   -0.00773514
     atom   31 type  1   force =    -0.00036640    0.00438779   -0.00158924
     atom   32 type  1   force =     0.00153961   -0.00152534    0.00056622
     atom   33 type  2   force =     0.00099316   -0.00260362    0.00802275
     atom   34 type  2   force =    -0.00802653   -0.00045416    0.00053829
     atom   35 type  2   force =     0.00032910    0.00316432   -0.00803285
     atom   36 type  1   force =     0.00053779    0.00045559   -0.00031390
     atom   37 type  1   force =    -0.00031271   -0.00290937    0.00090113
     atom   38 type  2   force =     0.00109813   -0.00319461    0.00863143
     atom   39 type  2   force =    -0.00708219   -0.00082279    0.00077851
     atom   40 type  2   force =     0.00053671    0.00319166   -0.00802536
     atom   41 type  1   force =     0.00110244    0.00303044   -0.00045898
     atom   42 type  1   force =     0.00004216   -0.00172493    0.00110409
     atom   43 type  2   force =     0.00102695   -0.00252043    0.00819775
     atom   44 type  2   force =    -0.00733199   -0.00075121   -0.00024384
     atom   45 type  2   force =     0.00054819    0.00273199   -0.00908739
     atom   46 type  1   force =    -0.00032640    0.00407569   -0.00093531
     atom   47 type  1   force =     0.00040973   -0.00130148   -0.00022406
     atom   48 type  2   force =     0.00069166   -0.00277700    0.00843550
     atom   49 type  2   force =    -0.00744183   -0.00066059    0.00025447
     atom   50 type  2   force =     0.00069754    0.00308702   -0.00822912
     atom   51 type  1   force =    -0.00035765    0.00316462   -0.00069469
     atom   52 type  1   force =     0.00055701   -0.00297865    0.00179821
     atom   53 type  2   force =     0.00086099   -0.00262263    0.00835921
     atom   54 type  2   force =    -0.00740584   -0.00076010    0.00039551
     atom   55 type  2   force =     0.00023736    0.00341126   -0.00870087
     atom   56 type  1   force =    -0.00001854    0.00454002   -0.00146127
     atom   57 type  1   force =     0.00091527   -0.00174864    0.00054140
     atom   58 type  2   force =     0.00105445   -0.00292442    0.00833750
     atom   59 type  2   force =    -0.00765496   -0.00067854    0.00018146
     atom   60 type  2   force =     0.00057118    0.00304783   -0.00804169
     atom   61 type  1   force =    -0.00013420    0.00402658   -0.00066867
     atom   62 type  1   force =     0.00106333   -0.00197497    0.00015297
     atom   63 type  2   force =     0.00108202   -0.00260452    0.00800697
     atom   64 type  2   force =    -0.00726865   -0.00072853   -0.00081707
     atom   65 type  2   force =     0.00066362    0.00270371   -0.00877665
     atom   66 type  1   force =     0.00048657    0.00200446   -0.00079388
     atom   67 type  1   force =    -0.00069488   -0.00193709    0.00120401
     atom   68 type  2   force =     0.00082699   -0.00249738    0.00823371
     atom   69 type  2   force =    -0.00728986   -0.00103268   -0.00057781
     atom   70 type  2   force =     0.00046147    0.00292232   -0.00878981
     atom   71 type  1   force =    -0.00051547    0.00189810   -0.00092032
     atom   72 type  1   force =    -0.00042308   -0.00292921    0.00080352
     atom   73 type  2   force =     0.00079620   -0.00298075    0.00857016
     atom   74 type  2   force =    -0.00696385   -0.00081835   -0.00028660
     atom   75 type  2   force =     0.00062990    0.00277877   -0.00822381
     atom   76 type  1   force =     0.00068259    0.00364261   -0.00081068
     atom   77 type  1   force =     0.00106221   -0.00242670    0.00140857
     atom   78 type  2   force =     0.00112497   -0.00288394    0.00801662
     atom   79 type  2   force =    -0.00717406   -0.00043153    0.00044867
     atom   80 type  2   force =     0.00003910    0.00284803   -0.00775633
     The Hubbard contrib.    to forces
     atom    1 type  1   force =     0.00000000    0.00000000    0.00000000
     atom    2 type  1   force =     0.00000000    0.00000000    0.00000000
     atom    3 type  2   force =     0.00000000    0.00000000    0.00000000
     atom    4 type  2   force =     0.00000000    0.00000000    0.00000000
     atom    5 type  2   force =     0.00000000    0.00000000    0.00000000
     atom    6 type  1   force =     0.00000000    0.00000000    0.00000000
     atom    7 type  1   force =     0.00000000    0.00000000    0.00000000
     atom    8 type  2   force =     0.00000000    0.00000000    0.00000000
     atom    9 type  2   force =     0.00000000    0.00000000    0.00000000
     atom   10 type  2   force =     0.00000000    0.00000000    0.00000000
     atom   11 type  1   force =     0.00000000    0.00000000    0.00000000
     atom   12 type  1   force =     0.00000000    0.00000000    0.00000000
     atom   13 type  2   force =     0.00000000    0.00000000    0.00000000
     atom   14 type  2   force =     0.00000000    0.00000000    0.00000000
     atom   15 type  2   force =     0.00000000    0.00000000    0.00000000
     atom   16 type  1   force =     0.00000000    0.00000000    0.00000000
     atom   17 type  1   force =     0.00000000    0.00000000    0.00000000
     atom   18 type  2   force =     0.00000000    0.00000000    0.00000000
     atom   19 type  2   force =     0.00000000    0.00000000    0.00000000
     atom   20 type  2   force =     0.00000000    0.00000000    0.00000000
     atom   21 type  1   force =     0.00000000    0.00000000    0.00000000
     atom   22 type  1   force =     0.00000000    0.00000000    0.00000000
     atom   23 type  2   force =     0.00000000    0.00000000    0.00000000
     atom   24 type  2   force =     0.00000000    0.00000000    0.00000000
     atom   25 type  2   force =     0.00000000    0.00000000    0.00000000
     atom   26 type  1   force =     0.00000000    0.00000000    0.00000000
     atom   27 type  1   force =     0.00000000    0.00000000    0.00000000
     atom   28 type  2   force =     0.00000000    0.00000000    0.00000000
     atom   29 type  2   force =     0.00000000    0.00000000    0.00000000
     atom   30 type  2   force =     0.00000000    0.00000000    0.00000000
     atom   31 type  1   force =     0.00000000    0.00000000    0.00000000
     atom   32 type  1   force =     0.00000000    0.00000000    0.00000000
     atom   33 type  2   force =     0.00000000    0.00000000    0.00000000
     atom   34 type  2   force =     0.00000000    0.00000000    0.00000000
     atom   35 type  2   force =     0.00000000    0.00000000    0.00000000
     atom   36 type  1   force =     0.00000000    0.00000000    0.00000000
     atom   37 type  1   force =     0.00000000    0.00000000    0.00000000
     atom   38 type  2   force =     0.00000000    0.00000000    0.00000000
     atom   39 type  2   force =     0.00000000    0.00000000    0.00000000
     atom   40 type  2   force =     0.00000000    0.00000000    0.00000000
     atom   41 type  1   force =     0.00000000    0.00000000    0.00000000
     atom   42 type  1   force =     0.00000000    0.00000000    0.00000000
     atom   43 type  2   force =     0.00000000    0.00000000    0.00000000
     atom   44 type  2   force =     0.00000000    0.00000000    0.00000000
     atom   45 type  2   force =     0.00000000    0.00000000    0.00000000
     atom   46 type  1   force =     0.00000000    0.00000000    0.00000000
     atom   47 type  1   force =     0.00000000    0.00000000    0.00000000
     atom   48 type  2   force =     0.00000000    0.00000000    0.00000000
     atom   49 type  2   force =     0.00000000    0.00000000    0.00000000
     atom   50 type  2   force =     0.00000000    0.00000000    0.00000000
     atom   51 type  1   force =     0.00000000    0.00000000    0.00000000
     atom   52 type  1   force =     0.00000000    0.00000000    0.00000000
     atom   53 type  2   force =     0.00000000    0.00000000    0.00000000
     atom   54 type  2   force =     0.00000000    0.00000000    0.00000000
     atom   55 type  2   force =     0.00000000    0.00000000    0.00000000
     atom   56 type  1   force =     0.00000000    0.00000000    0.00000000
     atom   57 type  1   force =     0.00000000    0.00000000    0.00000000
     atom   58 type  2   force =     0.00000000    0.00000000    0.00000000
     atom   59 type  2   force =     0.00000000    0.00000000    0.00000000
     atom   60 type  2   force =     0.00000000    0.00000000    0.00000000
     atom   61 type  1   force =     0.00000000    0.00000000    0.00000000
     atom   62 type  1   force =     0.00000000    0.00000000    0.00000000
     atom   63 type  2   force =     0.00000000    0.00000000    0.00000000
     atom   64 type  2   force =     0.00000000    0.00000000    0.00000000
     atom   65 type  2   force =     0.00000000    0.00000000    0.00000000
     atom   66 type  1   force =     0.00000000    0.00000000    0.00000000
     atom   67 type  1   force =     0.00000000    0.00000000    0.00000000
     atom   68 type  2   force =     0.00000000    0.00000000    0.00000000
     atom   69 type  2   force =     0.00000000    0.00000000    0.00000000
     atom   70 type  2   force =     0.00000000    0.00000000    0.00000000
     atom   71 type  1   force =     0.00000000    0.00000000    0.00000000
     atom   72 type  1   force =     0.00000000    0.00000000    0.00000000
     atom   73 type  2   force =     0.00000000    0.00000000    0.00000000
     atom   74 type  2   force =     0.00000000    0.00000000    0.00000000
     atom   75 type  2   force =     0.00000000    0.00000000    0.00000000
     atom   76 type  1   force =     0.00000000    0.00000000    0.00000000
     atom   77 type  1   force =     0.00000000    0.00000000    0.00000000
     atom   78 type  2   force =     0.00000000    0.00000000    0.00000000
     atom   79 type  2   force =     0.00000000    0.00000000    0.00000000
     atom   80 type  2   force =     0.00000000    0.00000000    0.00000000
     The SCF correction term to forces
     atom    1 type  1   force =     0.00000728    0.00000477    0.00001812
     atom    2 type  1   force =    -0.00000665    0.00000063    0.00002171
     atom    3 type  2   force =     0.00000124    0.00000239    0.00000900
     atom    4 type  2   force =    -0.00000425   -0.00000116    0.00000790
     atom    5 type  2   force =    -0.00000128    0.00000741    0.00000268
     atom    6 type  1   force =     0.00000055   -0.00000265   -0.00001789
     atom    7 type  1   force =    -0.00000013    0.00001528   -0.00003062
     atom    8 type  2   force =     0.00000004   -0.00000059   -0.00000561
     atom    9 type  2   force =    -0.00000032    0.00000358   -0.00000686
     atom   10 type  2   force =    -0.00000130   -0.00000075   -0.00000955
     atom   11 type  1   force =    -0.00000845   -0.00000725    0.00002820
     atom   12 type  1   force =     0.00000730   -0.00001244    0.00001757
     atom   13 type  2   force =    -0.00000096   -0.00000106    0.00001352
     atom   14 type  2   force =     0.00000292   -0.00000250    0.00000681
     atom   15 type  2   force =     0.00000077   -0.00000325    0.00000700
     atom   16 type  1   force =     0.00000385   -0.00000046   -0.00000619
     atom   17 type  1   force =    -0.00000699   -0.00000544   -0.00002936
     atom   18 type  2   force =    -0.00000063   -0.00000237   -0.00000101
     atom   19 type  2   force =    -0.00000223   -0.00000403   -0.00000443
     atom   20 type  2   force =    -0.00000164    0.00000064   -0.00001189
     atom   21 type  1   force =    -0.00002810    0.00001479   -0.00000063
     atom   22 type  1   force =     0.00001339    0.00001976   -0.00000634
     atom   23 type  2   force =    -0.00000166    0.00000751    0.00000706
     atom   24 type  2   force =    -0.00000315   -0.00000091    0.00000754
     atom   25 type  2   force =     0.00000036    0.00000705   -0.00000488
     atom   26 type  1   force =     0.00000717    0.00000436   -0.00001049
     atom   27 type  1   force =    -0.00001615    0.00000098   -0.00001820
     atom   28 type  2   force =     0.00000113   -0.00000127   -0.00000422
     atom   29 type  2   force =    -0.00000043    0.00000145   -0.00000562
     atom   30 type  2   force =    -0.00000409   -0.00000052   -0.00000392
     atom   31 type  1   force =     0.00002196   -0.00001598    0.00003229
     atom   32 type  1   force =    -0.00001300   -0.00001871    0.00002897
     atom   33 type  2   force =    -0.00000174   -0.00000432    0.00001315
     atom   34 type  2   force =    -0.00000143   -0.00000187    0.00000590
     atom   35 type  2   force =    -0.00000058   -0.00000300    0.00000373
     atom   36 type  1   force =    -0.00000666    0.00000032   -0.00000992
     atom   37 type  1   force =    -0.00000625   -0.00000261   -0.00001244
     atom   38 type  2   force =     0.00000305    0.00000345    0.00000306
     atom   39 type  2   force =    -0.00000149   -0.00000420   -0.00000471
     atom   40 type  2   force =     0.00000474    0.00000166   -0.00000811
     atom   41 type  1   force =     0.00001556   -0.00000362    0.00000202
     atom   42 type  1   force =     0.00000679    0.00001792   -0.00001680
     atom   43 type  2   force =    -0.00000016    0.00000216    0.00000315
     atom   44 type  2   force =     0.00000166   -0.00000496    0.00000799
     atom   45 type  2   force =     0.00000188    0.00000249   -0.00000340
     atom   46 type  1   force =    -0.00000191   -0.00000178   -0.00000782
     atom   47 type  1   force =     0.00000370   -0.00000324   -0.00000913
     atom   48 type  2   force =    -0.00000301   -0.00000015   -0.00000109
     atom   49 type  2   force =    -0.00000099   -0.00000208   -0.00000440
     atom   50 type  2   force =     0.00000033    0.00000038   -0.00000696
     atom   51 type  1   force =     0.00001213   -0.00003099    0.00003895
     atom   52 type  1   force =     0.00000605    0.00000430    0.00002398
     atom   53 type  2   force =     0.00000540   -0.00000242    0.00001552
     atom   54 type  2   force =    -0.00000053   -0.00000188    0.00000526
     atom   55 type  2   force =     0.00000233    0.00000083    0.00000664
     atom   56 type  1   force =     0.00000610   -0.00000411   -0.00001982
     atom   57 type  1   force =     0.00000225    0.00000025   -0.00001529
     atom   58 type  2   force =     0.00000040   -0.00000052   -0.00000405
     atom   59 type  2   force =    -0.00000056    0.00000482   -0.00000526
     atom   60 type  2   force =     0.00000158   -0.00000040   -0.00000786
     atom   61 type  1   force =    -0.00000575   -0.00000505    0.00001915
     atom   62 type  1   force =    -0.00000381    0.00002027    0.00000231
     atom   63 type  2   force =     0.00000091    0.00000001    0.00000629
     atom   64 type  2   force =    -0.00000015   -0.00000077    0.00000638
     atom   65 type  2   force =    -0.00000195    0.00000123    0.00000110
     atom   66 type  1   force =     0.00000390   -0.00000738   -0.00001873
     atom   67 type  1   force =     0.00000042   -0.00000475   -0.00001858
     atom   68 type  2   force =     0.00000312    0.00000139   -0.00000025
     atom   69 type  2   force =    -0.00000229   -0.00000254   -0.00000470
     atom   70 type  2   force =     0.00000513    0.00000170   -0.00001161
     atom   71 type  1   force =     0.00000304   -0.00001026    0.00003076
     atom   72 type  1   force =    -0.00000222    0.00000311    0.00003095
     atom   73 type  2   force =    -0.00000051   -0.00000087    0.00001196
     atom   74 type  2   force =    -0.00000090   -0.00000111    0.00000595
     atom   75 type  2   force =    -0.00000123   -0.00000038    0.00000543
     atom   76 type  1   force =     0.00001021   -0.00000484   -0.00002052
     atom   77 type  1   force =     0.00000065    0.00001114   -0.00002243
     atom   78 type  2   force =    -0.00000021   -0.00000223   -0.00000314
     atom   79 type  2   force =     0.00000121    0.00000196   -0.00000638
     atom   80 type  2   force =    -0.00000376   -0.00000192   -0.00001227

     Total force =     0.210699     Total SCF correction =     0.000154


     Computing stress (Cartesian axis) and pressure


     negative rho (up, down):  3.317E-03 0.000E+00
          total   stress  (Ry/bohr**3)                   (kbar)     P=       -5.17
  -0.00002924   0.00000789  -0.00000184           -4.30        1.16       -0.27
   0.00000789  -0.00007246   0.00000002            1.16      -10.66        0.00
  -0.00000184   0.00000002  -0.00000367           -0.27        0.00       -0.54

     kinetic stress (kbar)   4915.09      2.32     -0.60
                                2.32   4909.08     -4.93
                               -0.60     -4.93   4909.28

     local   stress (kbar)-444498.56    106.90     14.16
                              106.90-441701.80  -1509.60
                               14.16  -1509.60 442286.92

     nonloc. stress (kbar)   -238.38      6.82     -1.93
                                6.82   -284.82     13.28
                               -1.93     13.28   -109.01

     hartree stress (kbar) 224405.38    -21.92    -11.45
                              -21.92 222955.77    687.52
                              -11.45    687.52-215113.29

     exc-cor stress (kbar)    595.29     -0.39      0.10
                               -0.39    597.49     -0.46
                                0.10     -0.46    586.42

     corecor stress (kbar)  -2382.54      0.02     -0.01
                                0.02  -2382.73      0.16
                               -0.01      0.16  -2381.73

     ewald   stress (kbar) 217199.41    -92.59     -0.54
                              -92.59 215896.35    814.03
                               -0.54    814.03-230179.15

     hubbard stress (kbar)      0.00      0.00      0.00
                                0.00      0.00      0.00
                                0.00      0.00      0.00

     DFT-D   stress (kbar)      0.00      0.00      0.00
                                0.00      0.00      0.00
                                0.00      0.00      0.00

     XDM     stress (kbar)      0.00      0.00      0.00
                                0.00      0.00      0.00
                                0.00      0.00      0.00

     dft-nl  stress (kbar)      0.00      0.00      0.00
                                0.00      0.00      0.00
                                0.00      0.00      0.00

     TS-vdW  stress (kbar)      0.00      0.00      0.00
                                0.00      0.00      0.00
                                0.00      0.00      0.00


                                0.00      0.00      0.00
                                0.00      0.00      0.00


                                0.00      0.00      0.00


     Entering Dynamics:    iteration =     6
                           time      =   0.0058 pico-seconds


     Canonical sampling velocity rescaling

ATOMIC_POSITIONS (crystal)
Ga            0.2009490368        0.3550867833        0.4082013029
Ga            0.1236490726        0.1551199103        0.3858161263
O             0.0887263084        0.2901110483        0.4296717339
O             0.1302000004        0.0040988699        0.3973837081
O             0.2289674072        0.2189275526        0.3645163663
Ga            0.2011042537        0.3540421040        0.6143820220
Ga            0.1225746977        0.1535563183        0.5917379222
O             0.0913529781        0.2894899671        0.6364813029
O             0.1306019112        0.0043936292        0.6008106859
O             0.2302320602        0.2220834828        0.5695163514
Ga            0.2022121748        0.8551747528        0.4078120032
Ga            0.1242460271        0.6538335417        0.3848585231
O             0.0939290054        0.7876921235        0.4294471335
O             0.1282194651        0.5041393278        0.3964073055
O             0.2295009728        0.7200318509        0.3637807458
Ga            0.2019145261        0.8542659231        0.6143169001
Ga            0.1229184069        0.6557968082        0.5909105864
O             0.0892260510        0.7888339306        0.6366587434
O             0.1292665267        0.5061247246        0.6027538886
O             0.2308105836        0.7212627194        0.5710578170
Ga            0.4515724079        0.3542224328        0.4083885936
Ga            0.3725085097        0.1547086963        0.3862858970
O             0.3396059344        0.2882625118        0.4302525748
O             0.3813394683        0.0002377357        0.3971073781
O             0.4806123593        0.2185199297        0.3631857418
Ga            0.4516297149        0.3552432189        0.6146424787
Ga            0.3712172133        0.1554896831        0.5919080638
O             0.3401624683        0.2889844179        0.6367219581
O             0.3782144719        0.0080075339        0.6033059685
O             0.4808044945        0.2194843390        0.5714942842
Ga            0.4522696780        0.8555883627        0.4081909520
Ga            0.3720601963        0.6560717133        0.3854806798
O             0.3387488408        0.7883877679        0.4289663302
O             0.3782827416        0.5037809908        0.3980976099
O             0.4777101908        0.7228661003        0.3648353456
Ga            0.4509349238        0.8551108091        0.6145877922
Ga            0.3710594905        0.6542433772        0.5911848152
O             0.3414598923        0.7867369487        0.6366284867
O             0.3826827012        0.5028785105        0.6038964880
O             0.4805918764        0.7247330183        0.5704600000
Ga            0.7009031654        0.3548272147        0.4079526078
Ga            0.6214207045        0.1558580382        0.3860460645
O             0.5895759196        0.2868376096        0.4288476205
O             0.6312506491        0.0021204481        0.3973048000
O             0.7315381172        0.2213159384        0.3624127526
Ga            0.6995688587        0.3560295809        0.6148442149
Ga            0.6214382207        0.1559031218        0.5914750196
O             0.5866676752        0.2912452167        0.6364469651
O             0.6314609029        0.0011785950        0.6037891853
O             0.7309655958        0.2199047934        0.5707981705
Ga            0.7018368517        0.8547959736        0.4085474825
Ga            0.6227538144        0.6540570282        0.3858827079
O             0.5922883404        0.7857088116        0.4295324861
O             0.6306094318        0.5029204387        0.3976671825
O             0.7320026639        0.7235711484        0.3630083948
Ga            0.7008664683        0.8558674522        0.6143690234
Ga            0.6219431577        0.6547885316        0.5917373740
O             0.5889121637        0.7861741299        0.6364223671
O             0.6295585388        0.5021514681        0.6032675546
O             0.7291790596        0.7221920850        0.5707934357
Ga            0.9496787741        0.3568493665        0.4079179122
Ga            0.8721382138        0.1570311919        0.3856415738
O             0.8381305409        0.2909307667        0.4287133904
O             0.8805310689        0.0034011422        0.3957902549
O             0.9809084409        0.2195100839        0.3631144843
Ga            0.9517648687        0.3546116753        0.6149899349
Ga            0.8709097094        0.1558114599        0.5924112859
O             0.8395054379        0.2873610597        0.6356871928
O             0.8825213183        0.0009377586        0.6023253639
O             0.9833571045        0.2228495154        0.5697557891
Ga            0.9508686378        0.8526201231        0.4085508988
Ga            0.8713707702        0.6541058515        0.3852951514
O             0.8409004788        0.7854619898        0.4304925214
O             0.8814686163        0.5026792108        0.3959338557
O             0.9835646608        0.7198283226        0.3644057423
Ga            0.9525315166        0.8555671778        0.6144465232
Ga            0.8713626310        0.6561783463        0.5918498145
O             0.8414026624        0.7854594186        0.6352937898
O             0.8804891113        0.5057938662        0.6042147807
O             0.9792263499        0.7212377931        0.5709074572


     kinetic energy (Ekin) =           0.19473371 Ry
     temperature           =         259.46009858 K 
     Ekin + Etot (const)   =      -10895.83792985 Ry
     Ions kinetic stress =            0.64 (kbar)
                                      0.58          -0.06          -0.11
                                     -0.06           0.58          -0.01
                                     -0.11          -0.01           0.76



     Linear momentum :    0.0000000000    0.0000000000   -0.0000000000

     Writing config-only to output data dir ./tmp/md/Ga2O3-BL-001-4x2x1-300K.save/

     second order wave-functions extrapolation
     second order charge density extrapolation

     negative rho (up, down):  3.307E-03 0.000E+00

     total cpu time spent up to now is    23515.1 secs

     Self-consistent Calculation

     iteration #  1     ecut=    80.00 Ry     beta= 0.20
     Davidson diagonalization with overlap

---- Real-time Memory Report at c_bands before calling an iterative solver
          1660 MiB given to the printing process from OS
             0 MiB allocation reported by mallinfo(arena+hblkhd)
        348198 MiB available memory on the node where the printing process lives
------------------
     ethr =  1.00E-06,  avg # of iterations =  2.0

     Threshold (ethr) on eigenvalues was too large:
     Diagonalizing with lowered threshold

     Davidson diagonalization with overlap

---- Real-time Memory Report at c_bands before calling an iterative solver
          1660 MiB given to the printing process from OS
             0 MiB allocation reported by mallinfo(arena+hblkhd)
        348317 MiB available memory on the node where the printing process lives
------------------
     ethr =  1.71E-10,  avg # of iterations = 14.2

     negative rho (up, down):  3.308E-03 0.000E+00

     total cpu time spent up to now is    23786.1 secs

     total energy              =  -10896.02148376 Ry
     estimated scf accuracy    <       0.00000277 Ry

     iteration #  2     ecut=    80.00 Ry     beta= 0.20
     Davidson diagonalization with overlap

---- Real-time Memory Report at c_bands before calling an iterative solver
          1660 MiB given to the printing process from OS
             0 MiB allocation reported by mallinfo(arena+hblkhd)
        348030 MiB available memory on the node where the printing process lives
------------------
     ethr =  3.93E-10,  avg # of iterations =  1.0

     negative rho (up, down):  3.308E-03 0.000E+00

     total cpu time spent up to now is    23843.0 secs

     total energy              =  -10896.02148187 Ry
     estimated scf accuracy    <       0.00000154 Ry

     iteration #  3     ecut=    80.00 Ry     beta= 0.20
     Davidson diagonalization with overlap

---- Real-time Memory Report at c_bands before calling an iterative solver
          1660 MiB given to the printing process from OS
             0 MiB allocation reported by mallinfo(arena+hblkhd)
        347917 MiB available memory on the node where the printing process lives
------------------
     ethr =  2.19E-10,  avg # of iterations =  7.8

     negative rho (up, down):  3.308E-03 0.000E+00

     total cpu time spent up to now is    23980.0 secs

     total energy              =  -10896.02148351 Ry
     estimated scf accuracy    <       0.00000166 Ry

     iteration #  4     ecut=    80.00 Ry     beta= 0.20
     Davidson diagonalization with overlap

---- Real-time Memory Report at c_bands before calling an iterative solver
          1660 MiB given to the printing process from OS
             0 MiB allocation reported by mallinfo(arena+hblkhd)
        347766 MiB available memory on the node where the printing process lives
------------------
     ethr =  2.19E-10,  avg # of iterations =  2.0

     negative rho (up, down):  3.308E-03 0.000E+00

     total cpu time spent up to now is    24051.3 secs

     total energy              =  -10896.02148377 Ry
     estimated scf accuracy    <       0.00000314 Ry

     iteration #  5     ecut=    80.00 Ry     beta= 0.20
     Davidson diagonalization with overlap

---- Real-time Memory Report at c_bands before calling an iterative solver
          1660 MiB given to the printing process from OS
             0 MiB allocation reported by mallinfo(arena+hblkhd)
        347802 MiB available memory on the node where the printing process lives
------------------
     ethr =  2.19E-10,  avg # of iterations =  2.0

     negative rho (up, down):  3.309E-03 0.000E+00

     total cpu time spent up to now is    24118.0 secs

     total energy              =  -10896.02148276 Ry
     estimated scf accuracy    <       0.00000383 Ry

     iteration #  6     ecut=    80.00 Ry     beta= 0.20
     Davidson diagonalization with overlap

---- Real-time Memory Report at c_bands before calling an iterative solver
          1660 MiB given to the printing process from OS
             0 MiB allocation reported by mallinfo(arena+hblkhd)
        347678 MiB available memory on the node where the printing process lives
------------------
     ethr =  2.19E-10,  avg # of iterations =  2.0

     negative rho (up, down):  3.309E-03 0.000E+00

     total cpu time spent up to now is    24188.5 secs

     total energy              =  -10896.02148208 Ry
     estimated scf accuracy    <       0.00000193 Ry

     iteration #  7     ecut=    80.00 Ry     beta= 0.20
     Davidson diagonalization with overlap

---- Real-time Memory Report at c_bands before calling an iterative solver
          1660 MiB given to the printing process from OS
             0 MiB allocation reported by mallinfo(arena+hblkhd)
        347573 MiB available memory on the node where the printing process lives
------------------
     ethr =  2.19E-10,  avg # of iterations =  9.5

     negative rho (up, down):  3.309E-03 0.000E+00

     total cpu time spent up to now is    24300.6 secs

     total energy              =  -10896.02148301 Ry
     estimated scf accuracy    <       0.00000068 Ry

     iteration #  8     ecut=    80.00 Ry     beta= 0.20
     Davidson diagonalization with overlap

---- Real-time Memory Report at c_bands before calling an iterative solver
          1660 MiB given to the printing process from OS
             0 MiB allocation reported by mallinfo(arena+hblkhd)
        347429 MiB available memory on the node where the printing process lives
------------------
     ethr =  9.62E-11,  avg # of iterations =  2.0

     negative rho (up, down):  3.309E-03 0.000E+00

     total cpu time spent up to now is    24368.1 secs

     total energy              =  -10896.02148305 Ry
     estimated scf accuracy    <       0.00000087 Ry

     iteration #  9     ecut=    80.00 Ry     beta= 0.20
     Davidson diagonalization with overlap

---- Real-time Memory Report at c_bands before calling an iterative solver
          1660 MiB given to the printing process from OS
             0 MiB allocation reported by mallinfo(arena+hblkhd)
        347348 MiB available memory on the node where the printing process lives
------------------
     ethr =  9.62E-11,  avg # of iterations =  2.0

     negative rho (up, down):  3.309E-03 0.000E+00

     total cpu time spent up to now is    24431.7 secs

     total energy              =  -10896.02148308 Ry
     estimated scf accuracy    <       0.00000093 Ry

     iteration # 10     ecut=    80.00 Ry     beta= 0.20
     Davidson diagonalization with overlap

---- Real-time Memory Report at c_bands before calling an iterative solver
          1660 MiB given to the printing process from OS
             0 MiB allocation reported by mallinfo(arena+hblkhd)
        347274 MiB available memory on the node where the printing process lives
------------------
     ethr =  9.62E-11,  avg # of iterations =  1.8

     negative rho (up, down):  3.309E-03 0.000E+00

     total cpu time spent up to now is    24494.5 secs

     total energy              =  -10896.02148310 Ry
     estimated scf accuracy    <       0.00000104 Ry

     iteration # 11     ecut=    80.00 Ry     beta= 0.20
     Davidson diagonalization with overlap

---- Real-time Memory Report at c_bands before calling an iterative solver
          1660 MiB given to the printing process from OS
             0 MiB allocation reported by mallinfo(arena+hblkhd)
        347250 MiB available memory on the node where the printing process lives
------------------
     ethr =  9.62E-11,  avg # of iterations =  1.0

     negative rho (up, down):  3.309E-03 0.000E+00

     total cpu time spent up to now is    24552.2 secs

     total energy              =  -10896.02148315 Ry
     estimated scf accuracy    <       0.00000105 Ry

     iteration # 12     ecut=    80.00 Ry     beta= 0.20
     Davidson diagonalization with overlap

---- Real-time Memory Report at c_bands before calling an iterative solver
          1660 MiB given to the printing process from OS
             0 MiB allocation reported by mallinfo(arena+hblkhd)
        347247 MiB available memory on the node where the printing process lives
------------------
     ethr =  9.62E-11,  avg # of iterations =  1.5

     negative rho (up, down):  3.309E-03 0.000E+00

     total cpu time spent up to now is    24612.9 secs

     total energy              =  -10896.02148291 Ry
     estimated scf accuracy    <       0.00000123 Ry

     iteration # 13     ecut=    80.00 Ry     beta= 0.20
     Davidson diagonalization with overlap

---- Real-time Memory Report at c_bands before calling an iterative solver
          1660 MiB given to the printing process from OS
             0 MiB allocation reported by mallinfo(arena+hblkhd)
        347283 MiB available memory on the node where the printing process lives
------------------
     ethr =  9.62E-11,  avg # of iterations =  2.0

     negative rho (up, down):  3.309E-03 0.000E+00

     total cpu time spent up to now is    24678.0 secs

     total energy              =  -10896.02148289 Ry
     estimated scf accuracy    <       0.00000056 Ry

     iteration # 14     ecut=    80.00 Ry     beta= 0.20
     Davidson diagonalization with overlap

---- Real-time Memory Report at c_bands before calling an iterative solver
          1660 MiB given to the printing process from OS
             0 MiB allocation reported by mallinfo(arena+hblkhd)
        347268 MiB available memory on the node where the printing process lives
------------------
     ethr =  8.02E-11,  avg # of iterations =  5.5

     negative rho (up, down):  3.309E-03 0.000E+00

     total cpu time spent up to now is    24752.5 secs

     total energy              =  -10896.02148286 Ry
     estimated scf accuracy    <       0.00000016 Ry

     iteration # 15     ecut=    80.00 Ry     beta= 0.20
     Davidson diagonalization with overlap

---- Real-time Memory Report at c_bands before calling an iterative solver
          1660 MiB given to the printing process from OS
             0 MiB allocation reported by mallinfo(arena+hblkhd)
        347270 MiB available memory on the node where the printing process lives
------------------
     ethr =  2.31E-11,  avg # of iterations =  8.0

     negative rho (up, down):  3.309E-03 0.000E+00

     total cpu time spent up to now is    24864.6 secs

     total energy              =  -10896.02148295 Ry
     estimated scf accuracy    <       0.00000005 Ry

     iteration # 16     ecut=    80.00 Ry     beta= 0.20
     Davidson diagonalization with overlap

---- Real-time Memory Report at c_bands before calling an iterative solver
          1660 MiB given to the printing process from OS
             0 MiB allocation reported by mallinfo(arena+hblkhd)
        347257 MiB available memory on the node where the printing process lives
------------------
     ethr =  6.50E-12,  avg # of iterations =  2.0

     negative rho (up, down):  3.309E-03 0.000E+00

     total cpu time spent up to now is    24931.9 secs

     total energy              =  -10896.02148297 Ry
     estimated scf accuracy    <       0.00000004 Ry

     iteration # 17     ecut=    80.00 Ry     beta= 0.20
     Davidson diagonalization with overlap

---- Real-time Memory Report at c_bands before calling an iterative solver
          1660 MiB given to the printing process from OS
             0 MiB allocation reported by mallinfo(arena+hblkhd)
        347235 MiB available memory on the node where the printing process lives
------------------
     ethr =  5.08E-12,  avg # of iterations = 12.5

     negative rho (up, down):  3.309E-03 0.000E+00

     total cpu time spent up to now is    25090.6 secs

     total energy              =  -10896.02148300 Ry
     estimated scf accuracy    <       0.00000035 Ry

     iteration # 18     ecut=    80.00 Ry     beta= 0.20
     Davidson diagonalization with overlap

---- Real-time Memory Report at c_bands before calling an iterative solver
          1660 MiB given to the printing process from OS
             0 MiB allocation reported by mallinfo(arena+hblkhd)
        347228 MiB available memory on the node where the printing process lives
------------------
     ethr =  5.08E-12,  avg # of iterations =  7.2

     negative rho (up, down):  3.309E-03 0.000E+00

     total cpu time spent up to now is    25182.3 secs

     total energy              =  -10896.02148300 Ry
     estimated scf accuracy    <       0.00000017 Ry

     iteration # 19     ecut=    80.00 Ry     beta= 0.20
     Davidson diagonalization with overlap

---- Real-time Memory Report at c_bands before calling an iterative solver
          1660 MiB given to the printing process from OS
             0 MiB allocation reported by mallinfo(arena+hblkhd)
        347272 MiB available memory on the node where the printing process lives
------------------
     ethr =  5.08E-12,  avg # of iterations =  1.8

     negative rho (up, down):  3.309E-03 0.000E+00

     total cpu time spent up to now is    25245.6 secs

     total energy              =  -10896.02148300 Ry
     estimated scf accuracy    <       0.00000014 Ry

     iteration # 20     ecut=    80.00 Ry     beta= 0.20
     Davidson diagonalization with overlap

---- Real-time Memory Report at c_bands before calling an iterative solver
          1660 MiB given to the printing process from OS
             0 MiB allocation reported by mallinfo(arena+hblkhd)
        347256 MiB available memory on the node where the printing process lives
------------------
     ethr =  5.08E-12,  avg # of iterations =  1.8

     negative rho (up, down):  3.309E-03 0.000E+00

     total cpu time spent up to now is    25308.5 secs

     total energy              =  -10896.02148301 Ry
     estimated scf accuracy    <       0.00000012 Ry

     iteration # 21     ecut=    80.00 Ry     beta= 0.20
     Davidson diagonalization with overlap

---- Real-time Memory Report at c_bands before calling an iterative solver
          1660 MiB given to the printing process from OS
             0 MiB allocation reported by mallinfo(arena+hblkhd)
        347259 MiB available memory on the node where the printing process lives
------------------
     ethr =  5.08E-12,  avg # of iterations =  3.0

     negative rho (up, down):  3.309E-03 0.000E+00

     total cpu time spent up to now is    25377.4 secs

     total energy              =  -10896.02148296 Ry
     estimated scf accuracy    <       0.00000008 Ry

     iteration # 22     ecut=    80.00 Ry     beta= 0.20
     Davidson diagonalization with overlap

---- Real-time Memory Report at c_bands before calling an iterative solver
          1660 MiB given to the printing process from OS
             0 MiB allocation reported by mallinfo(arena+hblkhd)
        347231 MiB available memory on the node where the printing process lives
------------------
     ethr =  5.08E-12,  avg # of iterations =  9.5

     negative rho (up, down):  3.309E-03 0.000E+00

     total cpu time spent up to now is    25493.2 secs

     total energy              =  -10896.02148299 Ry
     estimated scf accuracy    <       0.00000001 Ry

     iteration # 23     ecut=    80.00 Ry     beta= 0.20
     Davidson diagonalization with overlap

---- Real-time Memory Report at c_bands before calling an iterative solver
          1660 MiB given to the printing process from OS
             0 MiB allocation reported by mallinfo(arena+hblkhd)
        347244 MiB available memory on the node where the printing process lives
------------------
     ethr =  1.65E-12,  avg # of iterations =  9.5

     negative rho (up, down):  3.309E-03 0.000E+00

     total cpu time spent up to now is    25619.0 secs

     total energy              =  -10896.02148299 Ry
     estimated scf accuracy    <       0.00000005 Ry

     iteration # 24     ecut=    80.00 Ry     beta= 0.20
     Davidson diagonalization with overlap

---- Real-time Memory Report at c_bands before calling an iterative solver
          1660 MiB given to the printing process from OS
             0 MiB allocation reported by mallinfo(arena+hblkhd)
        347241 MiB available memory on the node where the printing process lives
------------------
     ethr =  1.65E-12,  avg # of iterations =  6.5

     negative rho (up, down):  3.309E-03 0.000E+00

     total cpu time spent up to now is    25724.2 secs

     total energy              =  -10896.02148298 Ry
     estimated scf accuracy    <       0.00000001 Ry

     iteration # 25     ecut=    80.00 Ry     beta= 0.20
     Davidson diagonalization with overlap

---- Real-time Memory Report at c_bands before calling an iterative solver
          1660 MiB given to the printing process from OS
             0 MiB allocation reported by mallinfo(arena+hblkhd)
        347228 MiB available memory on the node where the printing process lives
------------------
     ethr =  1.65E-12,  avg # of iterations = 11.5

     negative rho (up, down):  3.309E-03 0.000E+00

     total cpu time spent up to now is    25845.5 secs

     End of self-consistent calculation

          k = 0.0000 0.0000 0.0000 (360677 PWs)   bands (ev):

   -25.1875 -25.1696 -25.0989 -25.0594 -24.9148 -24.8732 -24.8694 -24.8478
   -24.7868 -24.7848 -24.7427 -24.7296 -24.4800 -24.4017 -24.3953 -24.3450
   -24.3381 -24.3084 -24.2743 -24.2654 -24.2624 -24.2159 -24.1828 -24.1668
   -24.1242 -24.0970 -24.0830 -24.0807 -24.0511 -24.0376 -24.0275 -24.0195
   -23.9946 -23.9664 -23.9480 -23.9196 -23.9102 -23.8968 -23.8748 -23.8662
   -23.8385 -23.8124 -23.7807 -23.7546 -23.6910 -23.6717 -23.6533 -23.5178
   -20.2368 -20.1913 -20.1814 -20.1523 -20.1462 -20.1275 -20.1271 -20.1231
   -20.1173 -20.1077 -20.1007 -20.0821 -20.0766 -20.0750 -20.0696 -20.0624
   -20.0591 -20.0505 -20.0471 -20.0420 -20.0279 -20.0252 -20.0249 -20.0224
   -20.0219 -20.0175 -20.0138 -20.0122 -20.0040 -20.0036 -20.0001 -19.9940
   -19.9907 -19.9820 -19.9817 -19.9786 -19.9760 -19.9710 -19.9699 -19.9697
   -19.9578 -19.9556 -19.9521 -19.9487 -19.9453 -19.9409 -19.9298 -19.9279
   -19.9239 -19.9235 -19.9194 -19.9153 -19.9100 -19.9058 -19.9031 -19.8996
   -19.8881 -19.8865 -19.8830 -19.8825 -19.8776 -19.8757 -19.8754 -19.8711
   -19.8686 -19.8681 -19.8630 -19.8574 -19.8542 -19.8523 -19.8494 -19.8481
   -19.8423 -19.8417 -19.8381 -19.8358 -19.8346 -19.8296 -19.8246 -19.8197
   -19.8187 -19.8148 -19.8093 -19.8036 -19.8024 -19.8008 -19.7986 -19.7941
   -19.7903 -19.7878 -19.7812 -19.7799 -19.7628 -19.7619 -19.7548 -19.7509
   -19.7491 -19.7426 -19.7393 -19.7371 -19.7324 -19.7251 -19.7161 -19.7125
   -19.7093 -19.7057 -19.6979 -19.6948 -19.6870 -19.6775 -19.6771 -19.6635
   -19.6501 -19.6329 -19.6277 -19.6177 -19.6062 -19.5994 -19.5907 -19.5816
   -19.5696 -19.5615 -19.5230 -19.5067 -19.4822 -19.4727 -19.4405 -19.4310
   -19.4205 -19.4127 -19.3911 -19.3679 -19.3586 -19.3143 -19.3101 -19.3091
   -19.2898 -19.2788 -19.2284 -19.2210 -19.1819 -19.1762 -19.1605 -19.1557
   -19.1323 -19.1240 -19.0880 -19.0875 -19.0672 -19.0446 -19.0351 -19.0222
   -18.9996 -18.9842 -18.9802 -18.9622 -18.9527 -18.9419 -18.9342 -18.8757
   -13.1581 -13.1350 -13.0864 -13.0790 -12.9669 -12.9329 -12.8410 -12.8256
   -12.8233 -12.7850 -12.5396 -12.5300 -12.4680 -12.4549 -12.2922 -12.2813
   -12.2591 -12.2527 -11.7276 -11.7205 -11.6302 -11.6005 -11.5692 -11.5594
   -11.2988 -11.2853 -11.2836 -11.2517 -10.9143 -10.8960 -10.8753 -10.8691
   -10.8036 -10.7158 -10.6990 -10.6621 -10.6503 -10.6202 -10.6015 -10.5835
   -10.5640 -10.5335 -10.5114 -10.5069 -10.4658 -10.4183 -10.0510 -10.0354
   -10.0151  -9.9799  -9.9507  -9.9304  -9.8759  -9.8489  -9.7762  -9.7714
    -9.7381  -9.7167  -9.4433  -9.4166  -9.3964  -9.3897  -9.3265  -9.2818
    -9.2614  -9.2541  -9.2454  -9.2329  -9.2075  -9.1784  -9.0130  -9.0035
    -8.9895  -8.9779  -8.7922  -8.7754  -8.6714  -8.6595  -8.6236  -8.6185
    -8.6148  -8.6020  -8.5823  -8.5749  -8.5314  -8.5253  -8.5088  -8.5060
    -8.5020  -8.4883  -8.4764  -8.4669  -8.3372  -8.3056  -8.2805  -8.2509
    -8.2328  -8.2114  -8.2021  -8.1773  -8.1727  -8.1633  -7.9230  -7.8838
    -7.8676  -7.8294  -7.8216  -7.8163  -7.8043  -7.7825  -7.7799  -7.7715
    -7.7066  -7.7042  -7.6936  -7.6705  -7.6635  -7.6464  -7.6070  -7.5940
    -7.5801  -7.5623  -7.5487  -7.5388  -7.5337  -7.5286  -7.5047  -7.4968
    -7.4904  -7.4749  -7.4403  -7.4358  -7.4243  -7.4084  -7.4020  -7.3886
    -7.3723  -7.3205  -7.3145  -7.2734  -7.1640  -7.1267  -7.0524  -7.0070

     occupation numbers 
     1.0000   1.0000   1.0000   1.0000   1.0000   1.0000   1.0000   1.0000
     1.0000   1.0000   1.0000   1.0000   1.0000   1.0000   1.0000   1.0000
     1.0000   1.0000   1.0000   1.0000   1.0000   1.0000   1.0000   1.0000
     1.0000   1.0000   1.0000   1.0000   1.0000   1.0000   1.0000   1.0000
     1.0000   1.0000   1.0000   1.0000   1.0000   1.0000   1.0000   1.0000
     1.0000   1.0000   1.0000   1.0000   1.0000   1.0000   1.0000   1.0000
     1.0000   1.0000   1.0000   1.0000   1.0000   1.0000   1.0000   1.0000
     1.0000   1.0000   1.0000   1.0000   1.0000   1.0000   1.0000   1.0000
     1.0000   1.0000   1.0000   1.0000   1.0000   1.0000   1.0000   1.0000
     1.0000   1.0000   1.0000   1.0000   1.0000   1.0000   1.0000   1.0000
     1.0000   1.0000   1.0000   1.0000   1.0000   1.0000   1.0000   1.0000
     1.0000   1.0000   1.0000   1.0000   1.0000   1.0000   1.0000   1.0000
     1.0000   1.0000   1.0000   1.0000   1.0000   1.0000   1.0000   1.0000
     1.0000   1.0000   1.0000   1.0000   1.0000   1.0000   1.0000   1.0000
     1.0000   1.0000   1.0000   1.0000   1.0000   1.0000   1.0000   1.0000
     1.0000   1.0000   1.0000   1.0000   1.0000   1.0000   1.0000   1.0000
     1.0000   1.0000   1.0000   1.0000   1.0000   1.0000   1.0000   1.0000
     1.0000   1.0000   1.0000   1.0000   1.0000   1.0000   1.0000   1.0000
     1.0000   1.0000   1.0000   1.0000   1.0000   1.0000   1.0000   1.0000
     1.0000   1.0000   1.0000   1.0000   1.0000   1.0000   1.0000   1.0000
     1.0000   1.0000   1.0000   1.0000   1.0000   1.0000   1.0000   1.0000
     1.0000   1.0000   1.0000   1.0000   1.0000   1.0000   1.0000   1.0000
     1.0000   1.0000   1.0000   1.0000   1.0000   1.0000   1.0000   1.0000
     1.0000   1.0000   1.0000   1.0000   1.0000   1.0000   1.0000   1.0000
     1.0000   1.0000   1.0000   1.0000   1.0000   1.0000   1.0000   1.0000
     1.0000   1.0000   1.0000   1.0000   1.0000   1.0000   1.0000   1.0000
     1.0000   1.0000   1.0000   1.0000   1.0000   1.0000   1.0000   1.0000
     1.0000   1.0000   1.0000   1.0000   1.0000   1.0000   1.0000   1.0000
     1.0000   1.0000   1.0000   1.0000   1.0000   1.0000   1.0000   1.0000
     1.0000   1.0000   1.0000   1.0000   1.0000   1.0000   1.0000   1.0000
     1.0000   1.0000   1.0000   1.0000   1.0000   1.0000   1.0000   1.0000
     1.0000   1.0000   1.0000   1.0000   1.0000   1.0000   1.0000   1.0000
     1.0000   1.0000   1.0000   1.0000   1.0000   1.0000   1.0000   1.0000
     1.0000   1.0000   1.0000   1.0000   1.0000   1.0000   1.0000   1.0000
     1.0000   1.0000   1.0000   1.0000   1.0000   1.0000   1.0000   1.0000
     1.0000   1.0000   1.0000   1.0000   1.0000   1.0000   1.0000   1.0000
     1.0000   1.0000   1.0000   1.0000   1.0000   1.0000   1.0000   1.0000
     1.0000   1.0000   1.0000   1.0000   1.0000   1.0000   1.0000   1.0000
     1.0000   1.0000   1.0000   1.0000   1.0000   1.0000   1.0000   1.0000
     1.0000   1.0000   1.0000   1.0000   1.0000   1.0000   1.0000   1.0000
     1.0000   1.0000   1.0000   1.0000   1.0000   1.0000   1.0000   1.0000
     1.0000   1.0000   1.0000   1.0000   1.0000   1.0000   1.0000   1.0000
     1.0000   1.0000   1.0000   1.0000   1.0000   1.0000   1.0000   1.0000
     1.0000   1.0000   1.0000   1.0000   1.0000   1.0000   1.0000   1.0000

          k = 0.0247-0.5725 0.0000 (360514 PWs)   bands (ev):

   -25.1729 -25.1436 -25.1252 -25.0793 -24.9136 -24.8773 -24.8722 -24.8414
   -24.7927 -24.7852 -24.7437 -24.7275 -24.4803 -24.4024 -24.3938 -24.3424
   -24.3396 -24.3051 -24.2698 -24.2596 -24.2561 -24.2174 -24.1863 -24.1599
   -24.1166 -24.1067 -24.0780 -24.0670 -24.0597 -24.0502 -24.0218 -24.0216
   -23.9978 -23.9652 -23.9503 -23.9296 -23.9152 -23.8908 -23.8735 -23.8640
   -23.8397 -23.8126 -23.7799 -23.7541 -23.6918 -23.6731 -23.6533 -23.5177
   -20.2304 -20.1894 -20.1667 -20.1596 -20.1495 -20.1372 -20.1286 -20.1204
   -20.1185 -20.1025 -20.0994 -20.0836 -20.0748 -20.0746 -20.0728 -20.0643
   -20.0543 -20.0511 -20.0477 -20.0391 -20.0345 -20.0332 -20.0291 -20.0211
   -20.0210 -20.0187 -20.0149 -20.0087 -20.0085 -20.0053 -20.0027 -19.9927
   -19.9895 -19.9825 -19.9790 -19.9756 -19.9750 -19.9737 -19.9676 -19.9603
   -19.9603 -19.9552 -19.9550 -19.9518 -19.9469 -19.9423 -19.9344 -19.9316
   -19.9284 -19.9228 -19.9204 -19.9160 -19.9104 -19.9062 -19.8963 -19.8939
   -19.8894 -19.8869 -19.8830 -19.8804 -19.8791 -19.8786 -19.8759 -19.8743
   -19.8711 -19.8696 -19.8651 -19.8606 -19.8572 -19.8506 -19.8491 -19.8468
   -19.8415 -19.8413 -19.8406 -19.8370 -19.8359 -19.8291 -19.8239 -19.8224
   -19.8224 -19.8168 -19.8103 -19.8020 -19.7995 -19.7968 -19.7960 -19.7930
   -19.7903 -19.7879 -19.7795 -19.7794 -19.7592 -19.7591 -19.7558 -19.7487
   -19.7458 -19.7441 -19.7417 -19.7362 -19.7308 -19.7257 -19.7210 -19.7146
   -19.7065 -19.7053 -19.6989 -19.6939 -19.6868 -19.6804 -19.6766 -19.6583
   -19.6523 -19.6331 -19.6261 -19.6162 -19.6059 -19.6007 -19.5967 -19.5893
   -19.5725 -19.5657 -19.5299 -19.5077 -19.4834 -19.4318 -19.4258 -19.4200
   -19.4021 -19.3659 -19.3611 -19.3417 -19.3289 -19.3225 -19.3127 -19.3063
   -19.2933 -19.2875 -19.2874 -19.2736 -19.2005 -19.1957 -19.1935 -19.1769
   -19.1517 -19.1048 -19.0892 -19.0816 -19.0576 -19.0331 -19.0198 -19.0114
   -18.9932 -18.9823 -18.9782 -18.9715 -18.9569 -18.9389 -18.9386 -18.8761
   -13.1571 -13.1327 -13.0877 -13.0801 -12.8766 -12.8602 -12.8400 -12.8226
   -12.5369 -12.5253 -12.5138 -12.4914 -12.4631 -12.4606 -12.4414 -12.4286
   -12.2652 -12.2570 -12.2381 -12.2263 -11.6352 -11.6319 -11.6114 -11.5881
   -11.2825 -11.2818 -11.2694 -11.2568 -10.8834 -10.8711 -10.8579 -10.8237
   -10.7468 -10.7270 -10.6797 -10.6704 -10.6429 -10.6415 -10.5985 -10.5750
   -10.4692 -10.4502 -10.4221 -10.3695 -10.1073 -10.0602 -10.0591 -10.0459
   -10.0330 -10.0014  -9.9863  -9.9803  -9.9072  -9.8966  -9.8677  -9.8107
    -9.5205  -9.5035  -9.4850  -9.4759  -9.4193  -9.3921  -9.3784  -9.3455
    -9.3227  -9.2593  -9.2426  -9.2281  -9.1955  -9.1936  -9.1874  -9.1588
    -9.0351  -9.0170  -9.0012  -8.9976  -8.7417  -8.6995  -8.6420  -8.6276
    -8.6172  -8.6143  -8.5848  -8.5831  -8.5316  -8.5184  -8.5060  -8.4883
    -8.3942  -8.3377  -8.3108  -8.3034  -8.2899  -8.2721  -8.2626  -8.2529
    -8.2476  -8.2229  -8.2156  -8.2043  -7.9854  -7.9473  -7.9372  -7.9273
    -7.8917  -7.8670  -7.8613  -7.8504  -7.8108  -7.8104  -7.7942  -7.7881
    -7.7206  -7.6932  -7.6803  -7.6711  -7.6655  -7.6303  -7.6216  -7.6110
    -7.6085  -7.5701  -7.5681  -7.5495  -7.5464  -7.5324  -7.5246  -7.5072
    -7.4966  -7.4868  -7.4728  -7.4611  -7.4441  -7.4334  -7.4173  -7.4059
    -7.3927  -7.3678  -7.3201  -7.2838  -7.1574  -7.1193  -7.0499  -7.0042

     occupation numbers 
     1.0000   1.0000   1.0000   1.0000   1.0000   1.0000   1.0000   1.0000
     1.0000   1.0000   1.0000   1.0000   1.0000   1.0000   1.0000   1.0000
     1.0000   1.0000   1.0000   1.0000   1.0000   1.0000   1.0000   1.0000
     1.0000   1.0000   1.0000   1.0000   1.0000   1.0000   1.0000   1.0000
     1.0000   1.0000   1.0000   1.0000   1.0000   1.0000   1.0000   1.0000
     1.0000   1.0000   1.0000   1.0000   1.0000   1.0000   1.0000   1.0000
     1.0000   1.0000   1.0000   1.0000   1.0000   1.0000   1.0000   1.0000
     1.0000   1.0000   1.0000   1.0000   1.0000   1.0000   1.0000   1.0000
     1.0000   1.0000   1.0000   1.0000   1.0000   1.0000   1.0000   1.0000
     1.0000   1.0000   1.0000   1.0000   1.0000   1.0000   1.0000   1.0000
     1.0000   1.0000   1.0000   1.0000   1.0000   1.0000   1.0000   1.0000
     1.0000   1.0000   1.0000   1.0000   1.0000   1.0000   1.0000   1.0000
     1.0000   1.0000   1.0000   1.0000   1.0000   1.0000   1.0000   1.0000
     1.0000   1.0000   1.0000   1.0000   1.0000   1.0000   1.0000   1.0000
     1.0000   1.0000   1.0000   1.0000   1.0000   1.0000   1.0000   1.0000
     1.0000   1.0000   1.0000   1.0000   1.0000   1.0000   1.0000   1.0000
     1.0000   1.0000   1.0000   1.0000   1.0000   1.0000   1.0000   1.0000
     1.0000   1.0000   1.0000   1.0000   1.0000   1.0000   1.0000   1.0000
     1.0000   1.0000   1.0000   1.0000   1.0000   1.0000   1.0000   1.0000
     1.0000   1.0000   1.0000   1.0000   1.0000   1.0000   1.0000   1.0000
     1.0000   1.0000   1.0000   1.0000   1.0000   1.0000   1.0000   1.0000
     1.0000   1.0000   1.0000   1.0000   1.0000   1.0000   1.0000   1.0000
     1.0000   1.0000   1.0000   1.0000   1.0000   1.0000   1.0000   1.0000
     1.0000   1.0000   1.0000   1.0000   1.0000   1.0000   1.0000   1.0000
     1.0000   1.0000   1.0000   1.0000   1.0000   1.0000   1.0000   1.0000
     1.0000   1.0000   1.0000   1.0000   1.0000   1.0000   1.0000   1.0000
     1.0000   1.0000   1.0000   1.0000   1.0000   1.0000   1.0000   1.0000
     1.0000   1.0000   1.0000   1.0000   1.0000   1.0000   1.0000   1.0000
     1.0000   1.0000   1.0000   1.0000   1.0000   1.0000   1.0000   1.0000
     1.0000   1.0000   1.0000   1.0000   1.0000   1.0000   1.0000   1.0000
     1.0000   1.0000   1.0000   1.0000   1.0000   1.0000   1.0000   1.0000
     1.0000   1.0000   1.0000   1.0000   1.0000   1.0000   1.0000   1.0000
     1.0000   1.0000   1.0000   1.0000   1.0000   1.0000   1.0000   1.0000
     1.0000   1.0000   1.0000   1.0000   1.0000   1.0000   1.0000   1.0000
     1.0000   1.0000   1.0000   1.0000   1.0000   1.0000   1.0000   1.0000
     1.0000   1.0000   1.0000   1.0000   1.0000   1.0000   1.0000   1.0000
     1.0000   1.0000   1.0000   1.0000   1.0000   1.0000   1.0000   1.0000
     1.0000   1.0000   1.0000   1.0000   1.0000   1.0000   1.0000   1.0000
     1.0000   1.0000   1.0000   1.0000   1.0000   1.0000   1.0000   1.0000
     1.0000   1.0000   1.0000   1.0000   1.0000   1.0000   1.0000   1.0000
     1.0000   1.0000   1.0000   1.0000   1.0000   1.0000   1.0000   1.0000
     1.0000   1.0000   1.0000   1.0000   1.0000   1.0000   1.0000   1.0000
     1.0000   1.0000   1.0000   1.0000   1.0000   1.0000   1.0000   1.0000
     1.0000   1.0000   1.0000   1.0000   1.0000   1.0000   1.0000   1.0000

          k =-0.5052 0.1105 0.0000 (360696 PWs)   bands (ev):

   -25.1593 -25.1321 -25.1092 -25.0397 -25.0292 -24.9538 -24.9233 -24.8973
   -24.7372 -24.6364 -24.6027 -24.5528 -24.5511 -24.5262 -24.4985 -24.4933
   -24.3144 -24.2866 -24.2658 -24.2310 -24.2192 -24.2102 -24.1614 -24.1315
   -24.1146 -24.1082 -24.0991 -24.0913 -24.0594 -24.0453 -24.0264 -24.0210
   -23.9898 -23.9668 -23.9418 -23.9232 -23.9112 -23.8917 -23.8788 -23.8658
   -23.8374 -23.8126 -23.7795 -23.7564 -23.6905 -23.6718 -23.6546 -23.5180
   -20.2368 -20.1921 -20.1800 -20.1529 -20.1511 -20.1284 -20.1277 -20.1210
   -20.1204 -20.1059 -20.0989 -20.0808 -20.0778 -20.0765 -20.0703 -20.0627
   -20.0603 -20.0523 -20.0473 -20.0427 -20.0286 -20.0274 -20.0261 -20.0229
   -20.0207 -20.0181 -20.0142 -20.0138 -20.0039 -20.0028 -20.0022 -19.9940
   -19.9887 -19.9857 -19.9856 -19.9755 -19.9737 -19.9688 -19.9658 -19.9589
   -19.9566 -19.9564 -19.9543 -19.9458 -19.9456 -19.9408 -19.9340 -19.9328
   -19.9259 -19.9232 -19.9175 -19.9095 -19.9065 -19.9037 -19.9015 -19.8960
   -19.8880 -19.8876 -19.8827 -19.8787 -19.8784 -19.8735 -19.8705 -19.8676
   -19.8668 -19.8633 -19.8629 -19.8572 -19.8568 -19.8502 -19.8500 -19.8440
   -19.8418 -19.8406 -19.8373 -19.8339 -19.8297 -19.8290 -19.8256 -19.8187
   -19.8162 -19.8160 -19.8095 -19.8066 -19.8029 -19.8017 -19.7950 -19.7946
   -19.7917 -19.7876 -19.7858 -19.7759 -19.7704 -19.7605 -19.7549 -19.7537
   -19.7436 -19.7432 -19.7427 -19.7406 -19.7326 -19.7285 -19.7275 -19.7119
   -19.7038 -19.7027 -19.7014 -19.6948 -19.6898 -19.6844 -19.6764 -19.6645
   -19.6642 -19.6261 -19.6196 -19.6183 -19.6120 -19.5993 -19.5724 -19.5562
   -19.5557 -19.5460 -19.5345 -19.5285 -19.4888 -19.4886 -19.4737 -19.4692
   -19.4440 -19.4196 -19.4046 -19.3992 -19.3245 -19.3026 -19.2996 -19.2971
   -19.2520 -19.2414 -19.2145 -19.2141 -19.2077 -19.1729 -19.1608 -19.1505
   -19.1351 -19.1231 -19.1032 -19.0882 -19.0823 -19.0401 -19.0301 -19.0207
   -18.9941 -18.9840 -18.9774 -18.9672 -18.9488 -18.9407 -18.9402 -18.8750
   -13.1042 -13.0420 -13.0284 -13.0107 -12.9236 -12.9178 -12.9074 -12.9009
   -12.8314 -12.8032 -12.7949 -12.7663 -12.2710 -12.2380 -12.2009 -12.1926
   -12.1119 -12.0958 -12.0614 -12.0344 -11.8881 -11.8644 -11.8116 -11.7761
   -10.9640 -10.9605 -10.9276 -10.9215 -10.8351 -10.7805 -10.7596 -10.7467
   -10.7311 -10.7207 -10.7093 -10.6930 -10.6537 -10.6317 -10.6076 -10.5814
   -10.5639 -10.5397 -10.5266 -10.5088 -10.4380 -10.3980 -10.3521 -10.3108
   -10.1221 -10.0866 -10.0750 -10.0383  -9.8980  -9.8392  -9.7700  -9.7413
    -9.6718  -9.6551  -9.5872  -9.5225  -9.2474  -9.2187  -9.1935  -9.1586
    -9.1172  -9.1151  -9.0933  -9.0804  -9.0725  -9.0413  -8.9903  -8.9862
    -8.9432  -8.9428  -8.9169  -8.8869  -8.8719  -8.8333  -8.8087  -8.7945
    -8.7741  -8.7709  -8.7628  -8.7541  -8.7094  -8.6707  -8.6658  -8.6596
    -8.4397  -8.4213  -8.3977  -8.3668  -8.3211  -8.3172  -8.2958  -8.2196
    -8.0462  -8.0264  -8.0021  -7.9919  -7.9872  -7.9639  -7.9620  -7.9536
    -7.9501  -7.9476  -7.9349  -7.9154  -7.7985  -7.7555  -7.7450  -7.7393
    -7.7272  -7.7243  -7.7089  -7.6900  -7.6698  -7.6516  -7.6137  -7.5984
    -7.5840  -7.5509  -7.5355  -7.5214  -7.5142  -7.5128  -7.4921  -7.4714
    -7.4563  -7.4508  -7.4153  -7.4136  -7.3860  -7.3744  -7.3349  -7.3203
    -7.3067  -7.2931  -7.2872  -7.2830  -7.2769  -7.2563  -7.1795  -7.1125

     occupation numbers 
     1.0000   1.0000   1.0000   1.0000   1.0000   1.0000   1.0000   1.0000
     1.0000   1.0000   1.0000   1.0000   1.0000   1.0000   1.0000   1.0000
     1.0000   1.0000   1.0000   1.0000   1.0000   1.0000   1.0000   1.0000
     1.0000   1.0000   1.0000   1.0000   1.0000   1.0000   1.0000   1.0000
     1.0000   1.0000   1.0000   1.0000   1.0000   1.0000   1.0000   1.0000
     1.0000   1.0000   1.0000   1.0000   1.0000   1.0000   1.0000   1.0000
     1.0000   1.0000   1.0000   1.0000   1.0000   1.0000   1.0000   1.0000
     1.0000   1.0000   1.0000   1.0000   1.0000   1.0000   1.0000   1.0000
     1.0000   1.0000   1.0000   1.0000   1.0000   1.0000   1.0000   1.0000
     1.0000   1.0000   1.0000   1.0000   1.0000   1.0000   1.0000   1.0000
     1.0000   1.0000   1.0000   1.0000   1.0000   1.0000   1.0000   1.0000
     1.0000   1.0000   1.0000   1.0000   1.0000   1.0000   1.0000   1.0000
     1.0000   1.0000   1.0000   1.0000   1.0000   1.0000   1.0000   1.0000
     1.0000   1.0000   1.0000   1.0000   1.0000   1.0000   1.0000   1.0000
     1.0000   1.0000   1.0000   1.0000   1.0000   1.0000   1.0000   1.0000
     1.0000   1.0000   1.0000   1.0000   1.0000   1.0000   1.0000   1.0000
     1.0000   1.0000   1.0000   1.0000   1.0000   1.0000   1.0000   1.0000
     1.0000   1.0000   1.0000   1.0000   1.0000   1.0000   1.0000   1.0000
     1.0000   1.0000   1.0000   1.0000   1.0000   1.0000   1.0000   1.0000
     1.0000   1.0000   1.0000   1.0000   1.0000   1.0000   1.0000   1.0000
     1.0000   1.0000   1.0000   1.0000   1.0000   1.0000   1.0000   1.0000
     1.0000   1.0000   1.0000   1.0000   1.0000   1.0000   1.0000   1.0000
     1.0000   1.0000   1.0000   1.0000   1.0000   1.0000   1.0000   1.0000
     1.0000   1.0000   1.0000   1.0000   1.0000   1.0000   1.0000   1.0000
     1.0000   1.0000   1.0000   1.0000   1.0000   1.0000   1.0000   1.0000
     1.0000   1.0000   1.0000   1.0000   1.0000   1.0000   1.0000   1.0000
     1.0000   1.0000   1.0000   1.0000   1.0000   1.0000   1.0000   1.0000
     1.0000   1.0000   1.0000   1.0000   1.0000   1.0000   1.0000   1.0000
     1.0000   1.0000   1.0000   1.0000   1.0000   1.0000   1.0000   1.0000
     1.0000   1.0000   1.0000   1.0000   1.0000   1.0000   1.0000   1.0000
     1.0000   1.0000   1.0000   1.0000   1.0000   1.0000   1.0000   1.0000
     1.0000   1.0000   1.0000   1.0000   1.0000   1.0000   1.0000   1.0000
     1.0000   1.0000   1.0000   1.0000   1.0000   1.0000   1.0000   1.0000
     1.0000   1.0000   1.0000   1.0000   1.0000   1.0000   1.0000   1.0000
     1.0000   1.0000   1.0000   1.0000   1.0000   1.0000   1.0000   1.0000
     1.0000   1.0000   1.0000   1.0000   1.0000   1.0000   1.0000   1.0000
     1.0000   1.0000   1.0000   1.0000   1.0000   1.0000   1.0000   1.0000
     1.0000   1.0000   1.0000   1.0000   1.0000   1.0000   1.0000   1.0000
     1.0000   1.0000   1.0000   1.0000   1.0000   1.0000   1.0000   1.0000
     1.0000   1.0000   1.0000   1.0000   1.0000   1.0000   1.0000   1.0000
     1.0000   1.0000   1.0000   1.0000   1.0000   1.0000   1.0000   1.0000
     1.0000   1.0000   1.0000   1.0000   1.0000   1.0000   1.0000   1.0000
     1.0000   1.0000   1.0000   1.0000   1.0000   1.0000   1.0000   1.0000
     1.0000   1.0000   1.0000   1.0000   1.0000   1.0000   1.0000   1.0000

          k =-0.4805-0.4620 0.0000 (360682 PWs)   bands (ev):

   -25.1475 -25.1305 -25.0981 -25.0629 -25.0111 -24.9677 -24.9284 -24.9100
   -24.7379 -24.6402 -24.6025 -24.5733 -24.5280 -24.5276 -24.4992 -24.4870
   -24.3100 -24.2811 -24.2607 -24.2295 -24.2143 -24.2141 -24.1487 -24.1299
   -24.1194 -24.1144 -24.0854 -24.0763 -24.0568 -24.0485 -24.0373 -24.0331
   -23.9999 -23.9601 -23.9486 -23.9304 -23.9153 -23.8899 -23.8757 -23.8619
   -23.8398 -23.8148 -23.7802 -23.7546 -23.6916 -23.6730 -23.6528 -23.5176
   -20.2308 -20.1896 -20.1684 -20.1604 -20.1483 -20.1352 -20.1280 -20.1235
   -20.1174 -20.1081 -20.0989 -20.0814 -20.0759 -20.0754 -20.0743 -20.0641
   -20.0546 -20.0523 -20.0483 -20.0402 -20.0361 -20.0330 -20.0299 -20.0211
   -20.0205 -20.0159 -20.0130 -20.0112 -20.0096 -20.0086 -20.0052 -19.9934
   -19.9893 -19.9825 -19.9792 -19.9752 -19.9730 -19.9699 -19.9656 -19.9616
   -19.9572 -19.9552 -19.9549 -19.9499 -19.9484 -19.9409 -19.9317 -19.9287
   -19.9283 -19.9226 -19.9202 -19.9136 -19.9068 -19.9065 -19.9012 -19.8924
   -19.8899 -19.8871 -19.8821 -19.8790 -19.8780 -19.8731 -19.8722 -19.8699
   -19.8685 -19.8665 -19.8656 -19.8597 -19.8558 -19.8541 -19.8479 -19.8454
   -19.8450 -19.8412 -19.8369 -19.8324 -19.8311 -19.8296 -19.8240 -19.8195
   -19.8152 -19.8107 -19.8087 -19.8039 -19.8017 -19.7973 -19.7957 -19.7932
   -19.7898 -19.7848 -19.7833 -19.7808 -19.7642 -19.7596 -19.7570 -19.7558
   -19.7487 -19.7470 -19.7399 -19.7393 -19.7326 -19.7277 -19.7274 -19.7122
   -19.7056 -19.7033 -19.6989 -19.6952 -19.6909 -19.6807 -19.6757 -19.6709
   -19.6679 -19.6286 -19.6258 -19.6180 -19.6142 -19.6003 -19.5746 -19.5641
   -19.5594 -19.5425 -19.5354 -19.5294 -19.4853 -19.4759 -19.4489 -19.4417
   -19.4071 -19.3871 -19.3658 -19.3461 -19.3321 -19.3222 -19.3211 -19.3193
   -19.2789 -19.2783 -19.2568 -19.2351 -19.2002 -19.1966 -19.1860 -19.1706
   -19.1359 -19.0988 -19.0776 -19.0718 -19.0661 -19.0435 -19.0211 -19.0161
   -19.0064 -18.9866 -18.9772 -18.9752 -18.9497 -18.9405 -18.9363 -18.8755
   -13.1686 -13.1631 -13.1163 -13.1144 -12.7343 -12.7326 -12.6934 -12.6695
   -12.6528 -12.6231 -12.6004 -12.5790 -12.4046 -12.4021 -12.3776 -12.3285
   -12.2852 -12.2772 -12.2224 -12.1883 -12.0272 -12.0108 -11.9870 -11.9740
   -10.8754 -10.8637 -10.8519 -10.8378 -10.8348 -10.8160 -10.7946 -10.7729
   -10.7607 -10.7267 -10.6965 -10.6512 -10.5641 -10.5247 -10.5107 -10.4804
   -10.4368 -10.4358 -10.4210 -10.3991 -10.3924 -10.3806 -10.3319 -10.3265
   -10.0577 -10.0384 -10.0042  -9.9991  -9.8311  -9.8034  -9.7891  -9.7831
    -9.6163  -9.5720  -9.5570  -9.5561  -9.4083  -9.3661  -9.3472  -9.3413
    -9.2925  -9.2633  -9.2585  -9.2393  -9.0218  -9.0119  -8.9853  -8.9554
    -8.9420  -8.9359  -8.9319  -8.9126  -8.8978  -8.8728  -8.8423  -8.8087
    -8.7966  -8.7905  -8.7633  -8.7544  -8.6204  -8.6124  -8.5901  -8.5795
    -8.4145  -8.3628  -8.3511  -8.3222  -8.2892  -8.2488  -8.2346  -8.1818
    -8.0278  -8.0010  -7.9936  -7.9581  -7.9528  -7.9338  -7.9127  -7.9054
    -7.8913  -7.8876  -7.8428  -7.8397  -7.8232  -7.8114  -7.7922  -7.7623
    -7.7557  -7.7287  -7.7195  -7.7138  -7.6976  -7.6851  -7.6665  -7.6528
    -7.6375  -7.6023  -7.5838  -7.5471  -7.5378  -7.5210  -7.5097  -7.4981
    -7.4811  -7.4575  -7.4527  -7.4347  -7.4098  -7.3797  -7.3635  -7.3236
    -7.2953  -7.2889  -7.2848  -7.2767  -7.2724  -7.2711  -7.1743  -7.1089

     occupation numbers 
     1.0000   1.0000   1.0000   1.0000   1.0000   1.0000   1.0000   1.0000
     1.0000   1.0000   1.0000   1.0000   1.0000   1.0000   1.0000   1.0000
     1.0000   1.0000   1.0000   1.0000   1.0000   1.0000   1.0000   1.0000
     1.0000   1.0000   1.0000   1.0000   1.0000   1.0000   1.0000   1.0000
     1.0000   1.0000   1.0000   1.0000   1.0000   1.0000   1.0000   1.0000
     1.0000   1.0000   1.0000   1.0000   1.0000   1.0000   1.0000   1.0000
     1.0000   1.0000   1.0000   1.0000   1.0000   1.0000   1.0000   1.0000
     1.0000   1.0000   1.0000   1.0000   1.0000   1.0000   1.0000   1.0000
     1.0000   1.0000   1.0000   1.0000   1.0000   1.0000   1.0000   1.0000
     1.0000   1.0000   1.0000   1.0000   1.0000   1.0000   1.0000   1.0000
     1.0000   1.0000   1.0000   1.0000   1.0000   1.0000   1.0000   1.0000
     1.0000   1.0000   1.0000   1.0000   1.0000   1.0000   1.0000   1.0000
     1.0000   1.0000   1.0000   1.0000   1.0000   1.0000   1.0000   1.0000
     1.0000   1.0000   1.0000   1.0000   1.0000   1.0000   1.0000   1.0000
     1.0000   1.0000   1.0000   1.0000   1.0000   1.0000   1.0000   1.0000
     1.0000   1.0000   1.0000   1.0000   1.0000   1.0000   1.0000   1.0000
     1.0000   1.0000   1.0000   1.0000   1.0000   1.0000   1.0000   1.0000
     1.0000   1.0000   1.0000   1.0000   1.0000   1.0000   1.0000   1.0000
     1.0000   1.0000   1.0000   1.0000   1.0000   1.0000   1.0000   1.0000
     1.0000   1.0000   1.0000   1.0000   1.0000   1.0000   1.0000   1.0000
     1.0000   1.0000   1.0000   1.0000   1.0000   1.0000   1.0000   1.0000
     1.0000   1.0000   1.0000   1.0000   1.0000   1.0000   1.0000   1.0000
     1.0000   1.0000   1.0000   1.0000   1.0000   1.0000   1.0000   1.0000
     1.0000   1.0000   1.0000   1.0000   1.0000   1.0000   1.0000   1.0000
     1.0000   1.0000   1.0000   1.0000   1.0000   1.0000   1.0000   1.0000
     1.0000   1.0000   1.0000   1.0000   1.0000   1.0000   1.0000   1.0000
     1.0000   1.0000   1.0000   1.0000   1.0000   1.0000   1.0000   1.0000
     1.0000   1.0000   1.0000   1.0000   1.0000   1.0000   1.0000   1.0000
     1.0000   1.0000   1.0000   1.0000   1.0000   1.0000   1.0000   1.0000
     1.0000   1.0000   1.0000   1.0000   1.0000   1.0000   1.0000   1.0000
     1.0000   1.0000   1.0000   1.0000   1.0000   1.0000   1.0000   1.0000
     1.0000   1.0000   1.0000   1.0000   1.0000   1.0000   1.0000   1.0000
     1.0000   1.0000   1.0000   1.0000   1.0000   1.0000   1.0000   1.0000
     1.0000   1.0000   1.0000   1.0000   1.0000   1.0000   1.0000   1.0000
     1.0000   1.0000   1.0000   1.0000   1.0000   1.0000   1.0000   1.0000
     1.0000   1.0000   1.0000   1.0000   1.0000   1.0000   1.0000   1.0000
     1.0000   1.0000   1.0000   1.0000   1.0000   1.0000   1.0000   1.0000
     1.0000   1.0000   1.0000   1.0000   1.0000   1.0000   1.0000   1.0000
     1.0000   1.0000   1.0000   1.0000   1.0000   1.0000   1.0000   1.0000
     1.0000   1.0000   1.0000   1.0000   1.0000   1.0000   1.0000   1.0000
     1.0000   1.0000   1.0000   1.0000   1.0000   1.0000   1.0000   1.0000
     1.0000   1.0000   1.0000   1.0000   1.0000   1.0000   1.0000   1.0000
     1.0000   1.0000   1.0000   1.0000   1.0000   1.0000   1.0000   1.0000
     1.0000   1.0000   1.0000   1.0000   1.0000   1.0000   1.0000   1.0000

     highest occupied level (ev):    -7.0042

!    total energy              =  -10896.02148297 Ry
     estimated scf accuracy    <          3.3E-09 Ry

     convergence has been achieved in  25 iterations

     negative rho (up, down):  3.309E-03 0.000E+00

     Forces acting on atoms (cartesian axes, Ry/au):

     atom    1 type  1   force =    -0.00946916    0.01242518   -0.00054619
     atom    2 type  1   force =    -0.03770119   -0.01316869    0.00514407
     atom    3 type  2   force =    -0.00383243   -0.00298397   -0.00253903
     atom    4 type  2   force =     0.00359397    0.00386628   -0.00060636
     atom    5 type  2   force =     0.03889110    0.01202114   -0.00211139
     atom    6 type  1   force =     0.00078058    0.02788837   -0.00473053
     atom    7 type  1   force =     0.01293541    0.03576595   -0.00816442
     atom    8 type  2   force =    -0.01179503   -0.00961523   -0.00097313
     atom    9 type  2   force =     0.00234172   -0.05044458    0.01090551
     atom   10 type  2   force =     0.00129009    0.00095641    0.00941083
     atom   11 type  1   force =    -0.01340570    0.00899903   -0.00169396
     atom   12 type  1   force =    -0.00801007    0.00304130    0.01070230
     atom   13 type  2   force =    -0.02818715   -0.00103100    0.00083163
     atom   14 type  2   force =     0.00582123   -0.01982023    0.00326120
     atom   15 type  2   force =     0.02726286    0.00342948   -0.00993298
     atom   16 type  1   force =    -0.00709817    0.01842611    0.01088586
     atom   17 type  1   force =    -0.02535702   -0.00204358    0.00986847
     atom   18 type  2   force =     0.01657639   -0.00008538   -0.00988069
     atom   19 type  2   force =     0.00930352   -0.03121786    0.00417505
     atom   20 type  2   force =     0.00529743    0.00579686   -0.01332274
     atom   21 type  1   force =    -0.01774684    0.01398144   -0.00825266
     atom   22 type  1   force =    -0.01153122   -0.01965170   -0.00251713
     atom   23 type  2   force =     0.00293268   -0.00580882   -0.00791494
     atom   24 type  2   force =    -0.00537503    0.05742250   -0.00956907
     atom   25 type  2   force =    -0.00134850    0.00741973    0.01247712
     atom   26 type  1   force =    -0.01912584   -0.00581985    0.00464229
     atom   27 type  1   force =    -0.00132904    0.02926520   -0.00053386
     atom   28 type  2   force =    -0.00572131   -0.00125915   -0.01070126
     atom   29 type  2   force =     0.00416346   -0.06687988    0.01285610
     atom   30 type  2   force =     0.00348583    0.00644014   -0.01231323
     atom   31 type  1   force =     0.00394007   -0.03409152    0.01149364
     atom   32 type  1   force =    -0.02233052   -0.01954578    0.00565457
     atom   33 type  2   force =     0.01558309   -0.00124090    0.00896718
     atom   34 type  2   force =     0.00793903    0.00281221   -0.00212056
     atom   35 type  2   force =     0.03632070   -0.00701941   -0.00828803
     atom   36 type  1   force =    -0.00705045    0.02540971    0.00089929
     atom   37 type  1   force =     0.02506724    0.00443964    0.00838620
     atom   38 type  2   force =    -0.01322231    0.00509242   -0.00994186
     atom   39 type  2   force =    -0.00589862    0.02228740   -0.00929735
     atom   40 type  2   force =    -0.01298892   -0.01721410   -0.00518447
     atom   41 type  1   force =    -0.00306224   -0.00724969   -0.01203225
     atom   42 type  1   force =     0.01400502   -0.02419979   -0.01740296
     atom   43 type  2   force =     0.00665267    0.00251048    0.00990530
     atom   44 type  2   force =    -0.00308953    0.02721136   -0.00243264
     atom   45 type  2   force =    -0.01509661    0.00105245    0.02063537
     atom   46 type  1   force =     0.00625605   -0.01827240    0.00619777
     atom   47 type  1   force =    -0.00396854   -0.02902415    0.01451425
     atom   48 type  2   force =     0.02898809   -0.01636472   -0.00151828
     atom   49 type  2   force =    -0.00674204    0.06123001   -0.01280311
     atom   50 type  2   force =    -0.00800727    0.00590422   -0.00060809
     atom   51 type  1   force =     0.01148487   -0.00945770   -0.00054790
     atom   52 type  1   force =     0.00177030    0.01257689   -0.01030235
     atom   53 type  2   force =    -0.01003874    0.00106583   -0.00029496
     atom   54 type  2   force =    -0.00434152    0.01560052   -0.00346733
     atom   55 type  2   force =    -0.01607214   -0.01179183    0.01036005
     atom   56 type  1   force =     0.01038633   -0.04220632    0.01536793
     atom   57 type  1   force =    -0.00473028   -0.00397435    0.00653862
     atom   58 type  2   force =     0.00927530    0.00800097   -0.00189750
     atom   59 type  2   force =    -0.00275603    0.03200535   -0.00978237
     atom   60 type  2   force =     0.00261785   -0.00332737   -0.00659231
     atom   61 type  1   force =     0.02125513   -0.03122426   -0.00308743
     atom   62 type  1   force =    -0.00241931   -0.02727577   -0.01010184
     atom   63 type  2   force =     0.00696317   -0.00766733    0.01133094
     atom   64 type  2   force =     0.00375445   -0.00623501    0.00573140
     atom   65 type  2   force =     0.00908122    0.01094226    0.01570462
     atom   66 type  1   force =     0.00021964    0.01798537   -0.00865452
     atom   67 type  1   force =     0.02375510   -0.01648615   -0.00714244
     atom   68 type  2   force =     0.00042476    0.00301501    0.00175715
     atom   69 type  2   force =    -0.00627957    0.04665156   -0.00824951
     atom   70 type  2   force =    -0.02811249   -0.00464112    0.01559878
     atom   71 type  1   force =     0.01853522    0.01602663   -0.00192558
     atom   72 type  1   force =     0.01964264    0.01201022   -0.00563253
     atom   73 type  2   force =    -0.00572896    0.00049759   -0.00544347
     atom   74 type  2   force =    -0.01135224    0.02276819   -0.00486620
     atom   75 type  2   force =    -0.02523129    0.00048290    0.00317064
     atom   76 type  1   force =    -0.00604521   -0.02718945    0.00562689
     atom   77 type  1   force =    -0.00028173   -0.00521426    0.00197832
     atom   78 type  2   force =    -0.01021365    0.01816157    0.00756664
     atom   79 type  2   force =     0.00039499   -0.02673206    0.00357394
     atom   80 type  2   force =     0.02310469    0.00458948   -0.01019846
     The non-local contrib.  to forces
     atom    1 type  1   force =     0.17506187   -0.10623023    0.04096700
     atom    2 type  1   force =     0.05948468    0.11887226   -0.02730108
     atom    3 type  2   force =    -0.08133644    0.29426730   -1.03096814
     atom    4 type  2   force =     0.86936120    0.08650589   -0.03585680
     atom    5 type  2   force =    -0.06654967   -0.31481567    1.05453094
     atom    6 type  1   force =     0.12346887   -0.04714865    0.03331470
     atom    7 type  1   force =     0.08335967    0.10146585    0.02167634
     atom    8 type  2   force =    -0.08941672    0.31361070   -1.02963842
     atom    9 type  2   force =     0.81419771    0.13916355    0.11167873
     atom   10 type  2   force =    -0.01199938   -0.30104279    1.08875381
     atom   11 type  1   force =     0.16103016   -0.05267025   -0.01973661
     atom   12 type  1   force =     0.06561369    0.04959868   -0.05665714
     atom   13 type  2   force =    -0.09026503    0.30603526   -0.99505368
     atom   14 type  2   force =     0.89292252    0.06307781   -0.00489454
     atom   15 type  2   force =    -0.04772885   -0.35228436    1.01030929
     atom   16 type  1   force =     0.11990797   -0.04279744    0.03012198
     atom   17 type  1   force =     0.11392589    0.16754022   -0.10565677
     atom   18 type  2   force =    -0.08545925    0.35497381   -1.07810085
     atom   19 type  2   force =     0.84968531    0.11123123   -0.04545497
     atom   20 type  2   force =    -0.03867735   -0.32802473    1.01434744
     atom   21 type  1   force =     0.14063371   -0.12117182    0.04305732
     atom   22 type  1   force =     0.03608000    0.08108550   -0.02131659
     atom   23 type  2   force =    -0.07653547    0.25486162   -1.07685827
     atom   24 type  2   force =     0.85549807    0.04622024    0.03977442
     atom   25 type  2   force =    -0.05440966   -0.31110417    1.10307298
     atom   26 type  1   force =     0.08963959   -0.06980521   -0.01129077
     atom   27 type  1   force =     0.07097363    0.13944103   -0.08102576
     atom   28 type  2   force =    -0.10760966    0.29446396   -1.07579057
     atom   29 type  2   force =     0.81483767    0.12562608   -0.03396087
     atom   30 type  2   force =     0.01070590   -0.31188098    0.97609979
     atom   31 type  1   force =     0.16641791   -0.08093215    0.09897200
     atom   32 type  1   force =     0.06914388    0.02664593   -0.07688131
     atom   33 type  2   force =    -0.12279244    0.27226372   -1.01427410
     atom   34 type  2   force =     0.87396345    0.03562036   -0.06806939
     atom   35 type  2   force =    -0.06387043   -0.33584540    1.01226485
     atom   36 type  1   force =     0.08768310    0.03356772    0.03222523
     atom   37 type  1   force =     0.04645417    0.08507696   -0.11860454
     atom   38 type  2   force =    -0.11076540    0.34642319   -1.07203537
     atom   39 type  2   force =     0.76692287    0.06979978   -0.09578891
     atom   40 type  2   force =    -0.04538636   -0.33164500    1.00651966
     atom   41 type  1   force =     0.04080014   -0.08104666    0.08407753
     atom   42 type  1   force =     0.05377407    0.08844954   -0.01680354
     atom   43 type  2   force =    -0.11965204    0.25894153   -1.03821129
     atom   44 type  2   force =     0.79489450    0.05160295    0.03467367
     atom   45 type  2   force =    -0.04503076   -0.28155086    1.12140839
     atom   46 type  1   force =     0.13649591   -0.12738884    0.05702201
     atom   47 type  1   force =     0.09039826    0.08150442   -0.04971102
     atom   48 type  2   force =    -0.09412216    0.30955642   -1.05709490
     atom   49 type  2   force =     0.81477262    0.00633299   -0.02513958
     atom   50 type  2   force =    -0.07387764   -0.33489864    1.02993220
     atom   51 type  1   force =     0.11541059   -0.07708303    0.07226000
     atom   52 type  1   force =     0.06215527    0.05643495   -0.10569198
     atom   53 type  2   force =    -0.07973467    0.27628822   -1.04719603
     atom   54 type  2   force =     0.81091749    0.06706809   -0.04804530
     atom   55 type  2   force =    -0.00159633   -0.36550490    1.08164815
     atom   56 type  1   force =     0.09774894   -0.06934081    0.06683901
     atom   57 type  1   force =     0.04606197    0.00301070   -0.07817417
     atom   58 type  2   force =    -0.12344339    0.30880905   -1.04206606
     atom   59 type  2   force =     0.84118145    0.03642835   -0.01456334
     atom   60 type  2   force =    -0.06449165   -0.32450522    1.01125422
     atom   61 type  1   force =     0.07195489   -0.09131631    0.07409930
     atom   62 type  1   force =     0.02503229    0.11686972    0.03682596
     atom   63 type  2   force =    -0.12658057    0.27666810   -1.01430835
     atom   64 type  2   force =     0.77556774    0.08340013    0.10139919
     atom   65 type  2   force =    -0.08789160   -0.28760761    1.08210766
     atom   66 type  1   force =     0.06739518   -0.09020106    0.09844065
     atom   67 type  1   force =     0.07961357    0.07945334   -0.05687611
     atom   68 type  2   force =    -0.08527967    0.25219664   -1.03077819
     atom   69 type  2   force =     0.79397162    0.07188092    0.08293162
     atom   70 type  2   force =    -0.02003198   -0.30608180    1.08652860
     atom   71 type  1   force =     0.07363545   -0.06848261    0.09406182
     atom   72 type  1   force =     0.05234822    0.07358311   -0.04541687
     atom   73 type  2   force =    -0.07687976    0.32352930   -1.06987747
     atom   74 type  2   force =     0.76122769    0.06864519    0.04477472
     atom   75 type  2   force =    -0.04816300   -0.28835994    1.02338494
     atom   76 type  1   force =     0.10549429   -0.03955596    0.06148361
     atom   77 type  1   force =     0.01566509    0.05494249   -0.13695464
     atom   78 type  2   force =    -0.11694889    0.29184392   -1.01088556
     atom   79 type  2   force =     0.77111886    0.06398001   -0.06623784
     atom   80 type  2   force =    -0.01155279   -0.30085323    0.97642672
     The ionic contribution  to forces
     atom    1 type  1   force =     1.64746753   11.30091874  -89.43242931
     atom    2 type  1   force =     0.68635131  -11.00588234 -128.26213330
     atom    3 type  2   force =    -0.08135615   -0.54776758  -15.30068684
     atom    4 type  2   force =    -3.86410861   -0.09911186  -49.77699445
     atom    5 type  2   force =     1.00856792    0.75357005  -85.43121048
     atom    6 type  1   force =     1.32856704   11.83136051  128.75186173
     atom    7 type  1   force =     1.62957195  -10.23013674   89.82132924
     atom    8 type  2   force =    -0.10972131   -0.97009742   85.91620077
     atom    9 type  2   force =    -3.48385971   -1.32899110   48.16538395
     atom   10 type  2   force =     0.00090122    0.75326505   14.58180337
     atom   11 type  1   force =     0.87086205   11.84395567  -90.28275956
     atom   12 type  1   force =     1.44092324  -10.89790157 -130.01379028
     atom   13 type  2   force =    -0.50848058   -0.48311457  -15.47010000
     atom   14 type  2   force =    -3.66165565   -0.57352535  -50.64513693
     atom   15 type  2   force =     0.58553254    0.87011024  -85.99036989
     atom   16 type  1   force =     1.27482770   11.71783231  129.56793729
     atom   17 type  1   force =     1.31356718  -10.87123336   87.43985583
     atom   18 type  2   force =     0.51091285   -0.97236363   86.27911558
     atom   19 type  2   force =    -3.40227311   -0.98655085   50.28137449
     atom   20 type  2   force =     0.20961428    0.64244043   15.67352311
     atom   21 type  1   force =     1.07348509   11.38817085  -89.44933758
     atom   22 type  1   force =     1.51753867  -10.99582263 -127.80850990
     atom   23 type  2   force =     0.22286711   -0.48649215  -14.93421066
     atom   24 type  2   force =    -3.61777524    1.18764097  -50.63223519
     atom   25 type  2   force =     0.04106125    0.75194505  -86.35930938
     atom   26 type  1   force =     0.52982731   10.85392056  128.86956688
     atom   27 type  1   force =     1.82744263  -10.34120043   89.18857615
     atom   28 type  2   force =     0.10535234   -0.69347274   86.15376737
     atom   29 type  2   force =    -3.32068394   -1.76102880   50.91565076
     atom   30 type  2   force =     0.01902280    0.33275376   16.04971644
     atom   31 type  1   force =     2.02405563   10.65871090  -88.66093788
     atom   32 type  1   force =     1.86111899  -11.96690299 -129.56242143
     atom   33 type  2   force =     0.69562352   -0.47704976  -15.46505804
     atom   34 type  2   force =    -3.42010149   -0.00334150  -49.18521771
     atom   35 type  2   force =     0.99764057    0.53366409  -85.26694685
     atom   36 type  1   force =     1.07656216   12.10957454  129.33157356
     atom   37 type  1   force =     2.39964293  -10.87097692   87.61358308
     atom   38 type  2   force =     0.09852069   -0.96611239   86.17366015
     atom   39 type  2   force =    -3.43487572    0.39308212   51.02603250
     atom   40 type  2   force =    -0.11468711    0.53141003   15.27441360
     atom   41 type  1   force =     0.73440221   10.77186509  -89.63347035
     atom   42 type  1   force =     2.29996110  -11.50039096 -128.41475693
     atom   43 type  2   force =     0.51836132   -0.41255983  -15.56934070
     atom   44 type  2   force =    -3.29057069    0.52536482  -50.24902978
     atom   45 type  2   force =    -0.23758549    0.48656055  -86.74975252
     atom   46 type  1   force =     2.11936028   10.36231802  129.71221771
     atom   47 type  1   force =     2.11651221  -11.60069995   88.62480405
     atom   48 type  2   force =     0.90545174   -1.17740601   86.00361275
     atom   49 type  2   force =    -3.47052131    1.38390676   50.72262611
     atom   50 type  2   force =     0.26554625    0.55091011   15.59619685
     atom   51 type  1   force =     1.70675937   11.21440019  -88.53803354
     atom   52 type  1   force =     1.69889129  -10.79803222 -129.36596114
     atom   53 type  2   force =    -0.00886729   -0.68327968  -15.28918029
     atom   54 type  2   force =    -3.68247496    0.24767945  -49.65497831
     atom   55 type  2   force =    -0.46466101    1.03111384  -86.51229865
     atom   56 type  1   force =     1.50054905   10.64977372  129.49930583
     atom   57 type  1   force =     1.70418506  -11.55214693   88.84483174
     atom   58 type  2   force =     0.59738091   -0.80625423   86.08997687
     atom   59 type  2   force =    -3.41225617    0.73006907   50.03838708
     atom   60 type  2   force =     0.20986676    0.47131671   15.49567346
     atom   61 type  1   force =     1.78197292   10.04479213  -89.48122000
     atom   62 type  1   force =     1.63567124  -11.72717876 -128.18409475
     atom   63 type  2   force =     0.45953627   -0.60643168  -15.63167074
     atom   64 type  2   force =    -3.16863249   -0.37978374  -51.50438920
     atom   65 type  2   force =     0.57857142    0.55070417  -86.01078648
     atom   66 type  1   force =     0.86711285   11.03542518  129.92040907
     atom   67 type  1   force =     2.43028370  -11.07858327   90.11959592
     atom   68 type  2   force =     0.28865761   -0.54319061   85.32389360
     atom   69 type  2   force =    -3.50168094    0.91832619   49.06026783
     atom   70 type  2   force =    -0.73740431    0.66603835   14.92708944
     atom   71 type  1   force =     1.51298742   11.73430560  -88.15334837
     atom   72 type  1   force =     1.99527337  -10.30053522 -129.72813173
     atom   73 type  2   force =     0.19882356   -0.78477730  -14.59441914
     atom   74 type  2   force =    -3.48855536    0.26477898  -51.42153726
     atom   75 type  2   force =    -0.38926853    0.69589218  -85.15794559
     atom   76 type  1   force =     1.12911069   11.01540981  129.52177074
     atom   77 type  1   force =     1.46906080  -11.57049526   88.58759777
     atom   78 type  2   force =     0.14581808   -0.41508202   85.46962250
     atom   79 type  2   force =    -3.33881354   -0.73355563   51.45648528
     atom   80 type  2   force =     0.34333471    0.39418317   15.68485071
     The local contribution  to forces
     atom    1 type  1   force =    -1.83175609  -11.18493210   89.39134820
     atom    2 type  1   force =    -0.78618556   10.87664589  128.29450659
     atom    3 type  2   force =     0.15800935    0.25328763   16.32085034
     atom    4 type  2   force =     3.00634046    0.01731086   49.81191332
     atom    5 type  2   force =    -0.90342799   -0.42958710   84.38298641
     atom    6 type  1   force =    -1.45111276  -11.75721032 -128.78980245
     atom    7 type  1   force =    -1.69967175   10.16916030  -89.85138210
     atom    8 type  2   force =     0.18638840    0.64973649  -84.89578119
     atom    9 type  2   force =     2.67950639    1.14020925  -48.26506011
     atom   10 type  2   force =     0.01224585   -0.45407322  -15.65231150
     atom   11 type  1   force =    -1.04554578  -11.78453472   90.30019814
     atom   12 type  1   force =    -1.51576331   10.85403364  130.08111534
     atom   13 type  2   force =     0.56944554    0.17893088   16.45806391
     atom   14 type  2   force =     2.78279526    0.49107318   50.65326261
     atom   15 type  2   force =    -0.51079263   -0.51764790   84.97809479
     atom   16 type  1   force =    -1.40209029  -11.65802330 -129.58652386
     atom   17 type  1   force =    -1.45417855   10.70547819  -87.32500359
     atom   18 type  2   force =    -0.40956884    0.62060308  -85.21963255
     atom   19 type  2   force =     2.56980706    0.84483199  -50.23211424
     atom   20 type  2   force =    -0.16597628   -0.31162460  -16.69325114
     atom   21 type  1   force =    -1.23248470  -11.25575465   89.39812915
     atom   22 type  1   force =    -1.56665800   10.89671580  127.82680641
     atom   23 type  2   force =    -0.14413166    0.22820631   15.99443705
     atom   24 type  2   force =     2.76470116   -1.17546967   50.58316582
     atom   25 type  2   force =     0.01146751   -0.43629258   85.27769430
     atom   26 type  1   force =    -0.64002517  -10.79293637 -128.85364809
     atom   27 type  1   force =    -1.90021964   10.23592690  -89.10911208
     atom   28 type  2   force =    -0.00451931    0.40052372  -85.09741390
     atom   29 type  2   force =     2.51753754    1.56906260  -50.86900663
     atom   30 type  2   force =    -0.02616474   -0.01733071  -17.03048978
     atom   31 type  1   force =    -2.18605681  -10.61653217   88.57521275
     atom   32 type  1   force =    -1.95428797   11.92200367  129.64441752
     atom   33 type  2   force =    -0.55826691    0.20610075   16.48032268
     atom   34 type  2   force =     2.56220118   -0.02905351   49.25052081
     atom   35 type  2   force =    -0.89776180   -0.20802796   84.25438558
     atom   36 type  1   force =    -1.17188584  -12.11786171 -129.36261036
     atom   37 type  1   force =    -2.42056278   10.79327146  -87.48750240
     atom   38 type  2   force =    -0.00212454    0.62803141  -85.12025384
     atom   39 type  2   force =     2.66905361   -0.43975633  -50.94049032
     atom   40 type  2   force =     0.14653150   -0.22020269  -16.27813007
     atom   41 type  1   force =    -0.77954707  -10.70115801   89.53778167
     atom   42 type  1   force =    -2.33966784   11.38928568  128.41294786
     atom   43 type  2   force =    -0.39311028    0.15859625   16.60927044
     atom   44 type  2   force =     2.49989536   -0.54900137   50.21220984
     atom   45 type  2   force =     0.26695929   -0.20663154   85.65821110
     atom   46 type  1   force =    -2.24918430  -10.25751885 -129.76203940
     atom   47 type  1   force =    -2.21123708   11.49127167  -88.56018339
     atom   48 type  2   force =    -0.78299979    0.85425205  -84.95649517
     atom   49 type  2   force =     2.65643953   -1.32836822  -50.71061774
     atom   50 type  2   force =    -0.20042502   -0.21320303  -16.61851491
     atom   51 type  1   force =    -1.81024767  -11.15001076   88.46593643
     atom   52 type  1   force =    -1.75982519   10.75718128  129.45936292
     atom   53 type  2   force =     0.07769969    0.41064082   16.32771320
     atom   54 type  2   force =     2.87461083   -0.29837944   49.69907926
     atom   55 type  2   force =     0.44998982   -0.68087920   85.44979610
     atom   56 type  1   force =    -1.58785985  -10.62748076 -129.54918084
     atom   57 type  1   force =    -1.75594788   11.54675054  -88.76063733
     atom   58 type  2   force =    -0.46574673    0.50838304  -85.05815808
     atom   59 type  2   force =     2.57601198   -0.73381866  -50.03384305
     atom   60 type  2   force =    -0.14334528   -0.15319281  -16.50551554
     atom   61 type  1   force =    -1.83249480   -9.98896438   89.40471572
     atom   62 type  1   force =    -1.66427590   11.58486278  128.13710619
     atom   63 type  2   force =    -0.32710778    0.32464987   16.64934827
     atom   64 type  2   force =     2.40404844    0.29088497   51.40969331
     atom   65 type  2   force =    -0.48231042   -0.25479772   84.95325255
     atom   66 type  1   force =    -0.93483530  -10.92916434 -130.02665896
     atom   67 type  1   force =    -2.48523680   10.98443366  -90.07116738
     atom   68 type  2   force =    -0.20377567    0.29644070  -84.29957543
     atom   69 type  2   force =     2.70868386   -0.94247015  -49.15078038
     atom   70 type  2   force =     0.72887087   -0.36750299  -15.98913694
     atom   71 type  1   force =    -1.56745322  -11.65157326   88.05833553
     atom   72 type  1   force =    -2.02738509   10.24192934  129.76711005
     atom   73 type  2   force =    -0.12845765    0.46475219   15.65023066
     atom   74 type  2   force =     2.72284673   -0.30981492   51.37223930
     atom   75 type  2   force =     0.41153830   -0.40978387   84.14594694
     atom   76 type  1   force =    -1.24143348  -11.00683710 -129.57679035
     atom   77 type  1   force =    -1.48614638   11.51266185  -88.45020667
     atom   78 type  2   force =    -0.04025609    0.14428660  -84.45913844
     atom   79 type  2   force =     2.57521042    0.64322639  -51.38723891
     atom   80 type  2   force =    -0.30864236   -0.09156332  -16.66380833
     The core correction contribution to forces
     atom    1 type  1   force =    -0.00024127    0.00267267   -0.00043411
     atom    2 type  1   force =     0.00264553   -0.00280467    0.00007606
     atom    3 type  2   force =     0.00084664   -0.00276904    0.00826575
     atom    4 type  2   force =    -0.00800214   -0.00083689    0.00033192
     atom    5 type  2   force =     0.00029853    0.00285933   -0.00841979
     atom    6 type  1   force =    -0.00014292    0.00088006   -0.00008536
     atom    7 type  1   force =    -0.00032334   -0.00470666    0.00021976
     atom    8 type  2   force =     0.00095230   -0.00286309    0.00825296
     atom    9 type  2   force =    -0.00750444   -0.00082363   -0.00108977
     atom   10 type  2   force =     0.00013909    0.00280867   -0.00882973
     atom   11 type  1   force =     0.00024331    0.00224560    0.00060158
     atom   12 type  1   force =     0.00122632   -0.00270617    0.00001868
     atom   13 type  2   force =     0.00110949   -0.00288425    0.00792070
     atom   14 type  2   force =    -0.00824057   -0.00043965    0.00002971
     atom   15 type  2   force =     0.00025071    0.00324859   -0.00796622
     atom   16 type  1   force =     0.00026001    0.00140217   -0.00062843
     atom   17 type  1   force =     0.00132652   -0.00383904    0.00068048
     atom   18 type  2   force =     0.00069177   -0.00330175    0.00874338
     atom   19 type  2   force =    -0.00791834   -0.00072482    0.00037790
     atom   20 type  2   force =     0.00033480    0.00300513   -0.00793230
     atom   21 type  1   force =     0.00060696    0.00275117   -0.00010689
     atom   22 type  1   force =     0.00150771   -0.00163499    0.00048982
     atom   23 type  2   force =     0.00073042   -0.00237812    0.00871677
     atom   24 type  2   force =    -0.00780152   -0.00096876   -0.00027332
     atom   25 type  2   force =     0.00053221    0.00287561   -0.00898613
     atom   26 type  1   force =     0.00143700    0.00300777    0.00003053
     atom   27 type  1   force =     0.00046677   -0.00490150    0.00104518
     atom   28 type  2   force =     0.00105407   -0.00277197    0.00874406
     atom   29 type  2   force =    -0.00753149   -0.00053940    0.00018186
     atom   30 type  2   force =    -0.00007960    0.00289937   -0.00763420
     atom   31 type  1   force =    -0.00045756    0.00466159   -0.00175612
     atom   32 type  1   force =     0.00169124   -0.00129333    0.00054040
     atom   33 type  2   force =     0.00101852   -0.00255831    0.00797965
     atom   34 type  2   force =    -0.00812612   -0.00041073    0.00064597
     atom   35 type  2   force =     0.00031031    0.00318654   -0.00798899
     atom   36 type  1   force =     0.00059016    0.00013546   -0.00027930
     atom   37 type  1   force =    -0.00047773   -0.00294153    0.00093943
     atom   38 type  2   force =     0.00114313   -0.00325274    0.00869546
     atom   39 type  2   force =    -0.00700283   -0.00083418    0.00095780
     atom   40 type  2   force =     0.00055251    0.00322355   -0.00797925
     atom   41 type  1   force =     0.00128290    0.00308972   -0.00042645
     atom   42 type  1   force =    -0.00005515   -0.00154216    0.00119185
     atom   43 type  2   force =     0.00105504   -0.00246159    0.00818054
     atom   44 type  2   force =    -0.00730850   -0.00075510   -0.00028676
     atom   45 type  2   force =     0.00056115    0.00267520   -0.00923683
     atom   46 type  1   force =    -0.00041845    0.00431222   -0.00098445
     atom   47 type  1   force =     0.00036702   -0.00109436   -0.00037854
     atom   48 type  2   force =     0.00065833   -0.00276589    0.00846638
     atom   49 type  2   force =    -0.00743553   -0.00064152    0.00033447
     atom   50 type  2   force =     0.00074885    0.00309671   -0.00821678
     atom   51 type  1   force =    -0.00043675    0.00323928   -0.00070646
     atom   52 type  1   force =     0.00054525   -0.00300883    0.00198951
     atom   53 type  2   force =     0.00086161   -0.00258630    0.00837166
     atom   54 type  2   force =    -0.00739625   -0.00076704    0.00047672
     atom   55 type  2   force =     0.00019626    0.00347851   -0.00878409
     atom   56 type  1   force =    -0.00004586    0.00483621   -0.00158952
     atom   57 type  1   force =     0.00097396   -0.00159532    0.00053006
     atom   58 type  2   force =     0.00108018   -0.00293674    0.00835625
     atom   59 type  2   force =    -0.00769538   -0.00067184    0.00024374
     atom   60 type  2   force =     0.00058715    0.00305441   -0.00800075
     atom   61 type  1   force =    -0.00017790    0.00426518   -0.00068223
     atom   62 type  1   force =     0.00115140   -0.00181993    0.00005313
     atom   63 type  2   force =     0.00111804   -0.00255338    0.00795973
     atom   64 type  2   force =    -0.00722919   -0.00073454   -0.00097267
     atom   65 type  2   force =     0.00070892    0.00264426   -0.00886893
     atom   66 type  1   force =     0.00054902    0.00192090   -0.00083071
     atom   67 type  1   force =    -0.00090772   -0.00180504    0.00131193
     atom   68 type  2   force =     0.00082137   -0.00243029    0.00822368
     atom   69 type  2   force =    -0.00725640   -0.00108380   -0.00066188
     atom   70 type  2   force =     0.00045398    0.00290921   -0.00887837
     atom   71 type  1   force =    -0.00062324    0.00176582   -0.00097525
     atom   72 type  1   force =    -0.00059722   -0.00297736    0.00081674
     atom   73 type  2   force =     0.00078627   -0.00300878    0.00862515
     atom   74 type  2   force =    -0.00687229   -0.00084160   -0.00034076
     atom   75 type  2   force =     0.00066187    0.00273413   -0.00821311
     atom   76 type  1   force =     0.00079579    0.00379578   -0.00083285
     atom   77 type  1   force =     0.00113614   -0.00232144    0.00155355
     atom   78 type  2   force =     0.00117346   -0.00288680    0.00797464
     atom   79 type  2   force =    -0.00712127   -0.00038066    0.00057219
     atom   80 type  2   force =    -0.00003492    0.00282116   -0.00766022
     The Hubbard contrib.    to forces
     atom    1 type  1   force =     0.00000000    0.00000000    0.00000000
     atom    2 type  1   force =     0.00000000    0.00000000    0.00000000
     atom    3 type  2   force =     0.00000000    0.00000000    0.00000000
     atom    4 type  2   force =     0.00000000    0.00000000    0.00000000
     atom    5 type  2   force =     0.00000000    0.00000000    0.00000000
     atom    6 type  1   force =     0.00000000    0.00000000    0.00000000
     atom    7 type  1   force =     0.00000000    0.00000000    0.00000000
     atom    8 type  2   force =     0.00000000    0.00000000    0.00000000
     atom    9 type  2   force =     0.00000000    0.00000000    0.00000000
     atom   10 type  2   force =     0.00000000    0.00000000    0.00000000
     atom   11 type  1   force =     0.00000000    0.00000000    0.00000000
     atom   12 type  1   force =     0.00000000    0.00000000    0.00000000
     atom   13 type  2   force =     0.00000000    0.00000000    0.00000000
     atom   14 type  2   force =     0.00000000    0.00000000    0.00000000
     atom   15 type  2   force =     0.00000000    0.00000000    0.00000000
     atom   16 type  1   force =     0.00000000    0.00000000    0.00000000
     atom   17 type  1   force =     0.00000000    0.00000000    0.00000000
     atom   18 type  2   force =     0.00000000    0.00000000    0.00000000
     atom   19 type  2   force =     0.00000000    0.00000000    0.00000000
     atom   20 type  2   force =     0.00000000    0.00000000    0.00000000
     atom   21 type  1   force =     0.00000000    0.00000000    0.00000000
     atom   22 type  1   force =     0.00000000    0.00000000    0.00000000
     atom   23 type  2   force =     0.00000000    0.00000000    0.00000000
     atom   24 type  2   force =     0.00000000    0.00000000    0.00000000
     atom   25 type  2   force =     0.00000000    0.00000000    0.00000000
     atom   26 type  1   force =     0.00000000    0.00000000    0.00000000
     atom   27 type  1   force =     0.00000000    0.00000000    0.00000000
     atom   28 type  2   force =     0.00000000    0.00000000    0.00000000
     atom   29 type  2   force =     0.00000000    0.00000000    0.00000000
     atom   30 type  2   force =     0.00000000    0.00000000    0.00000000
     atom   31 type  1   force =     0.00000000    0.00000000    0.00000000
     atom   32 type  1   force =     0.00000000    0.00000000    0.00000000
     atom   33 type  2   force =     0.00000000    0.00000000    0.00000000
     atom   34 type  2   force =     0.00000000    0.00000000    0.00000000
     atom   35 type  2   force =     0.00000000    0.00000000    0.00000000
     atom   36 type  1   force =     0.00000000    0.00000000    0.00000000
     atom   37 type  1   force =     0.00000000    0.00000000    0.00000000
     atom   38 type  2   force =     0.00000000    0.00000000    0.00000000
     atom   39 type  2   force =     0.00000000    0.00000000    0.00000000
     atom   40 type  2   force =     0.00000000    0.00000000    0.00000000
     atom   41 type  1   force =     0.00000000    0.00000000    0.00000000
     atom   42 type  1   force =     0.00000000    0.00000000    0.00000000
     atom   43 type  2   force =     0.00000000    0.00000000    0.00000000
     atom   44 type  2   force =     0.00000000    0.00000000    0.00000000
     atom   45 type  2   force =     0.00000000    0.00000000    0.00000000
     atom   46 type  1   force =     0.00000000    0.00000000    0.00000000
     atom   47 type  1   force =     0.00000000    0.00000000    0.00000000
     atom   48 type  2   force =     0.00000000    0.00000000    0.00000000
     atom   49 type  2   force =     0.00000000    0.00000000    0.00000000
     atom   50 type  2   force =     0.00000000    0.00000000    0.00000000
     atom   51 type  1   force =     0.00000000    0.00000000    0.00000000
     atom   52 type  1   force =     0.00000000    0.00000000    0.00000000
     atom   53 type  2   force =     0.00000000    0.00000000    0.00000000
     atom   54 type  2   force =     0.00000000    0.00000000    0.00000000
     atom   55 type  2   force =     0.00000000    0.00000000    0.00000000
     atom   56 type  1   force =     0.00000000    0.00000000    0.00000000
     atom   57 type  1   force =     0.00000000    0.00000000    0.00000000
     atom   58 type  2   force =     0.00000000    0.00000000    0.00000000
     atom   59 type  2   force =     0.00000000    0.00000000    0.00000000
     atom   60 type  2   force =     0.00000000    0.00000000    0.00000000
     atom   61 type  1   force =     0.00000000    0.00000000    0.00000000
     atom   62 type  1   force =     0.00000000    0.00000000    0.00000000
     atom   63 type  2   force =     0.00000000    0.00000000    0.00000000
     atom   64 type  2   force =     0.00000000    0.00000000    0.00000000
     atom   65 type  2   force =     0.00000000    0.00000000    0.00000000
     atom   66 type  1   force =     0.00000000    0.00000000    0.00000000
     atom   67 type  1   force =     0.00000000    0.00000000    0.00000000
     atom   68 type  2   force =     0.00000000    0.00000000    0.00000000
     atom   69 type  2   force =     0.00000000    0.00000000    0.00000000
     atom   70 type  2   force =     0.00000000    0.00000000    0.00000000
     atom   71 type  1   force =     0.00000000    0.00000000    0.00000000
     atom   72 type  1   force =     0.00000000    0.00000000    0.00000000
     atom   73 type  2   force =     0.00000000    0.00000000    0.00000000
     atom   74 type  2   force =     0.00000000    0.00000000    0.00000000
     atom   75 type  2   force =     0.00000000    0.00000000    0.00000000
     atom   76 type  1   force =     0.00000000    0.00000000    0.00000000
     atom   77 type  1   force =     0.00000000    0.00000000    0.00000000
     atom   78 type  2   force =     0.00000000    0.00000000    0.00000000
     atom   79 type  2   force =     0.00000000    0.00000000    0.00000000
     atom   80 type  2   force =     0.00000000    0.00000000    0.00000000
     The SCF correction term to forces
     atom    1 type  1   force =    -0.00000259   -0.00000289    0.00000113
     atom    2 type  1   force =     0.00000147    0.00000117   -0.00000511
     atom    3 type  2   force =     0.00000278   -0.00000128   -0.00000105
     atom    4 type  2   force =     0.00000168   -0.00000071   -0.00000126
     atom    5 type  2   force =     0.00000093   -0.00000446    0.00000064
     atom    6 type  1   force =    -0.00000104    0.00000780   -0.00002005
     atom    7 type  1   force =    -0.00000251   -0.00001578   -0.00000854
     atom    8 type  2   force =     0.00000092   -0.00000090   -0.00000816
     atom    9 type  2   force =     0.00000038   -0.00000164   -0.00000819
     atom   10 type  2   force =     0.00000191   -0.00000029   -0.00000602
     atom   11 type  1   force =     0.00000316    0.00000374    0.00000159
     atom   12 type  1   force =    -0.00001140    0.00001774    0.00001480
     atom   13 type  2   force =     0.00000204    0.00000269   -0.00000019
     atom   14 type  2   force =    -0.00000172   -0.00000521   -0.00000056
     atom   15 type  2   force =    -0.00000030    0.00000393   -0.00000185
     atom   16 type  1   force =    -0.00000494    0.00001338   -0.00002202
     atom   17 type  1   force =     0.00000055    0.00001142   -0.00000839
     atom   18 type  2   force =    -0.00000153    0.00000412   -0.00000716
     atom   19 type  2   force =     0.00000121   -0.00000439   -0.00000903
     atom   20 type  2   force =     0.00000059    0.00000164   -0.00001074
     atom   21 type  1   force =     0.00001071   -0.00001310    0.00000443
     atom   22 type  1   force =    -0.00000098    0.00000563    0.00001223
     atom   23 type  2   force =     0.00000090   -0.00000548   -0.00000073
     atom   24 type  2   force =     0.00000111    0.00000074   -0.00000170
     atom   25 type  2   force =    -0.00000120   -0.00000317    0.00000444
     atom   26 type  1   force =    -0.00000596   -0.00000559   -0.00001716
     atom   27 type  1   force =     0.00000619    0.00000021   -0.00001825
     atom   28 type  2   force =    -0.00000013   -0.00000110   -0.00000912
     atom   29 type  2   force =     0.00000230    0.00000065   -0.00000992
     atom   30 type  2   force =     0.00000008   -0.00000028   -0.00000638
     atom   31 type  1   force =    -0.00002049    0.00000132    0.00000200
     atom   32 type  1   force =     0.00000196    0.00000195   -0.00000151
     atom   33 type  2   force =    -0.00000099    0.00000371   -0.00000392
     atom   34 type  2   force =     0.00000062   -0.00000139   -0.00000115
     atom   35 type  2   force =     0.00000066    0.00000433   -0.00000352
     atom   36 type  1   force =    -0.00000142   -0.00000529   -0.00001074
     atom   37 type  1   force =     0.00000926    0.00001068   -0.00003027
     atom   38 type  2   force =     0.00000244    0.00000396   -0.00000916
     atom   39 type  2   force =     0.00000206   -0.00000297   -0.00000931
     atom   40 type  2   force =    -0.00000084    0.00000101   -0.00000932
     atom   41 type  1   force =    -0.00000181    0.00000118    0.00000445
     atom   42 type  1   force =    -0.00000854   -0.00000089    0.00001689
     atom   43 type  2   force =    -0.00000276   -0.00000486    0.00000540
     atom   44 type  2   force =    -0.00000159    0.00000108   -0.00000051
     atom   45 type  2   force =    -0.00000218    0.00000011    0.00000432
     atom   46 type  1   force =     0.00000122    0.00000607   -0.00001900
     atom   47 type  1   force =    -0.00001033   -0.00000492   -0.00001775
     atom   48 type  2   force =    -0.00000142   -0.00000027   -0.00000824
     atom   49 type  2   force =     0.00000127    0.00000101   -0.00000727
     atom   50 type  2   force =    -0.00000110    0.00000008   -0.00000636
     atom   51 type  1   force =    -0.00000205   -0.00000236   -0.00000523
     atom   52 type  1   force =     0.00000229    0.00000272   -0.00000256
     atom   53 type  2   force =     0.00000055    0.00000378   -0.00000440
     atom   54 type  2   force =    -0.00000002    0.00000048   -0.00000060
     atom   55 type  2   force =    -0.00000228    0.00000093   -0.00000236
     atom   56 type  1   force =    -0.00000733    0.00000633   -0.00000745
     atom   57 type  1   force =    -0.00000478    0.00000768   -0.00001259
     atom   58 type  2   force =     0.00000294    0.00000087   -0.00000739
     atom   59 type  2   force =     0.00000071   -0.00000054   -0.00000770
     atom   60 type  2   force =    -0.00000052    0.00000055   -0.00000460
     atom   61 type  1   force =    -0.00000137    0.00000012   -0.00000112
     atom   62 type  1   force =     0.00000028   -0.00000855    0.00000673
     atom   63 type  2   force =    -0.00000419    0.00000077    0.00000114
     atom   64 type  2   force =    -0.00000142   -0.00000082   -0.00000014
     atom   65 type  2   force =     0.00000153    0.00000016   -0.00000109
     atom   66 type  1   force =    -0.00000349    0.00000571   -0.00001546
     atom   67 type  1   force =     0.00000096    0.00001618   -0.00000771
     atom   68 type  2   force =    -0.00000026   -0.00000042   -0.00000740
     atom   69 type  2   force =     0.00000090   -0.00000057   -0.00000760
     atom   70 type  2   force =    -0.00000244   -0.00000288   -0.00000485
     atom   71 type  1   force =    -0.00001257    0.00001210   -0.00000022
     atom   72 type  1   force =     0.00000197    0.00001135   -0.00001162
     atom   73 type  2   force =    -0.00000276    0.00000318   -0.00000357
     atom   74 type  2   force =    -0.00000040    0.00000155   -0.00000311
     atom   75 type  2   force =    -0.00000132    0.00000140   -0.00000344
     atom   76 type  1   force =    -0.00001389   -0.00000097   -0.00000517
     atom   77 type  1   force =     0.00000123   -0.00000089   -0.00001259
     atom   78 type  2   force =    -0.00000160    0.00000089   -0.00000740
     atom   79 type  2   force =    -0.00000087   -0.00000116   -0.00000768
     atom   80 type  2   force =    -0.00000132    0.00000272   -0.00000824

     Total force =     0.244465     Total SCF correction =     0.000104


     Computing stress (Cartesian axis) and pressure


     negative rho (up, down):  3.309E-03 0.000E+00
          total   stress  (Ry/bohr**3)                   (kbar)     P=       -5.14
  -0.00002885   0.00000740  -0.00000220           -4.24        1.09       -0.32
   0.00000740  -0.00007200  -0.00000007            1.09      -10.59       -0.01
  -0.00000220  -0.00000007  -0.00000387           -0.32       -0.01       -0.57

     kinetic stress (kbar)   4914.88      2.25     -0.61
                                2.25   4908.94     -4.92
                               -0.61     -4.92   4909.17

     local   stress (kbar)-444471.80    109.24     13.03
                              109.24-441670.70  -1509.64
                               13.03  -1509.64 442255.20

     nonloc. stress (kbar)   -238.17      6.91     -1.98
                                6.91   -284.53     13.23
                               -1.98     13.23   -108.94

     hartree stress (kbar) 224390.82    -22.70    -11.00
                              -22.70 222939.63    687.45
                              -11.00    687.45-215096.95

     exc-cor stress (kbar)    595.30     -0.39      0.10
                               -0.39    597.51     -0.46
                                0.10     -0.46    586.45

     corecor stress (kbar)  -2382.54      0.02     -0.01
                                0.02  -2382.73      0.16
                               -0.01      0.16  -2381.73

     ewald   stress (kbar) 217187.27    -94.25      0.15
                              -94.25 215881.29    814.17
                                0.15    814.17-230163.76

     hubbard stress (kbar)      0.00      0.00      0.00
                                0.00      0.00      0.00
                                0.00      0.00      0.00

     DFT-D   stress (kbar)      0.00      0.00      0.00
                                0.00      0.00      0.00
                                0.00      0.00      0.00

     XDM     stress (kbar)      0.00      0.00      0.00
                                0.00      0.00      0.00
                                0.00      0.00      0.00

     dft-nl  stress (kbar)      0.00      0.00      0.00
                                0.00      0.00      0.00
                                0.00      0.00      0.00

     TS-vdW  stress (kbar)      0.00      0.00      0.00
                                0.00      0.00      0.00
                                0.00      0.00      0.00


                                0.00      0.00      0.00
                                0.00      0.00      0.00


                                0.00      0.00      0.00


     Entering Dynamics:    iteration =     7
                           time      =   0.0068 pico-seconds


     Canonical sampling velocity rescaling

ATOMIC_POSITIONS (crystal)
Ga            0.2009364170        0.3551285890        0.4081861595
Ga            0.1238390092        0.1551429821        0.3858789594
O             0.0885242671        0.2904612931        0.4296736887
O             0.1301134144        0.0041878718        0.3974822707
O             0.2287505812        0.2185882106        0.3645812326
Ga            0.2011282892        0.3538852140        0.6143425181
Ga            0.1226236212        0.1533192322        0.5917299134
O             0.0915769262        0.2896749050        0.6365539697
O             0.1306164918        0.0043398552        0.6004952887
O             0.2301320484        0.2221987316        0.5693635307
Ga            0.2024070932        0.8552281102        0.4077320645
Ga            0.1245522478        0.6536550814        0.3847642781
O             0.0945165405        0.7876520553        0.4294159357
O             0.1278269615        0.5041528756        0.3963491845
O             0.2293441685        0.7198495890        0.3637137643
Ga            0.2020688275        0.8541393284        0.6142710667
Ga            0.1230040638        0.6559038593        0.5907706515
O             0.0891743719        0.7889374697        0.6367496957
O             0.1290675856        0.5064207370        0.6027519938
O             0.2308156077        0.7212569170        0.5711324151
Ga            0.4516577169        0.3541220008        0.4084022817
Ga            0.3725274450        0.1546570138        0.3864245210
O             0.3395717255        0.2882955096        0.4303439821
O             0.3813813708       -0.0001313565        0.3971485647
O             0.4805538917        0.2181053403        0.3630478151
Ga            0.4517331139        0.3552598810        0.6146489357
Ga            0.3710323853        0.1555685755        0.5919304619
O             0.3402012732        0.2891119713        0.6368225258
O             0.3778501797        0.0084961478        0.6034065213
O             0.4808034550        0.2191855394        0.5716422544
Ga            0.4524917952        0.8556771380        0.4081775824
Ga            0.3719977207        0.6562472219        0.3854881237
O             0.3386062177        0.7884551442        0.4288655210
O             0.3778915763        0.5038127073        0.3983127471
O             0.4772906138        0.7231181051        0.3649453887
Ga            0.4509258770        0.8551301112        0.6145839056
Ga            0.3708697860        0.6540956588        0.5910898643
O             0.3416876681        0.7865142692        0.6367144605
O             0.3829701818        0.5028205405        0.6040666579
O             0.4805207092        0.7252291441        0.5704456369
Ga            0.7008906127        0.3548103166        0.4078930476
Ga            0.6212773766        0.1559932629        0.3861407606
O             0.5895421446        0.2866605690        0.4287281397
O             0.6313035405        0.0019617565        0.3973877748
O             0.7315962809        0.2213454700        0.3621568447
Ga            0.6993490943        0.3561665098        0.6148844890
Ga            0.6212966306        0.1560054745        0.5914300078
O             0.5862370458        0.2916928558        0.6365129110
O             0.6315182576        0.0009716879        0.6039368290
O             0.7309573429        0.2196757011        0.5708454455
Ga            0.7019888396        0.8547718167        0.4085897580
Ga            0.6228176635        0.6539221726        0.3859522150
O             0.5926561936        0.7853426358        0.4295139619
O             0.6305601180        0.5028544869        0.3978090669
O             0.7321430442        0.7239316359        0.3628384481
Ga            0.7008681994        0.8559590839        0.6143332221
Ga            0.6218815331        0.6547254688        0.5917335183
O             0.5887817478        0.7858641200        0.6364842439
O             0.6293309472        0.5020054059        0.6033328814
O             0.7289107640        0.7223105342        0.5708324081
Ga            0.9494826351        0.3571489273        0.4078550455
Ga            0.8721031844        0.1573591535        0.3856712482
O             0.8378636215        0.2914000335        0.4285737112
O             0.8805067812        0.0033394682        0.3956326732
O             0.9809280483        0.2192698612        0.3629690271
Ga            0.9518996207        0.3545416133        0.6150500574
Ga            0.8706977609        0.1559078023        0.5925152071
O             0.8394507074        0.2872318151        0.6356314931
O             0.8827651914        0.0006411828        0.6022362484
O             0.9836908211        0.2230761534        0.5696505651
Ga            0.9508611362        0.8522546416        0.4085933512
Ga            0.8712176974        0.6539777015        0.3852686619
O             0.8410514278        0.7850530441        0.4306269195
O             0.8815371840        0.5025973122        0.3957869807
O             0.9839301824        0.7196104334        0.3644586310
Ga            0.9527958961        0.8556208725        0.6144207319
Ga            0.8712076578        0.6563455902        0.5918633438
O             0.8416215562        0.7850658328        0.6351799303
O             0.8804635224        0.5060519023        0.6044541472
O             0.9790212302        0.7212212756        0.5709609081


     kinetic energy (Ekin) =           0.18137672 Ry
     temperature           =         241.66345021 K 
     Ekin + Etot (const)   =      -10895.84010625 Ry
     Ions kinetic stress =            0.60 (kbar)
                                      0.54          -0.05          -0.10
                                     -0.05           0.53           0.00
                                     -0.10           0.00           0.72



     Linear momentum :    0.0000000000    0.0000000000   -0.0000000000

     Writing config-only to output data dir ./tmp/md/Ga2O3-BL-001-4x2x1-300K.save/

     second order wave-functions extrapolation
     second order charge density extrapolation

     negative rho (up, down):  3.301E-03 0.000E+00

     total cpu time spent up to now is    26129.1 secs

     Self-consistent Calculation

     iteration #  1     ecut=    80.00 Ry     beta= 0.20
     Davidson diagonalization with overlap

---- Real-time Memory Report at c_bands before calling an iterative solver
          1660 MiB given to the printing process from OS
             0 MiB allocation reported by mallinfo(arena+hblkhd)
        348223 MiB available memory on the node where the printing process lives
------------------
     ethr =  1.00E-06,  avg # of iterations =  2.0

     Threshold (ethr) on eigenvalues was too large:
     Diagonalizing with lowered threshold

     Davidson diagonalization with overlap

---- Real-time Memory Report at c_bands before calling an iterative solver
          1660 MiB given to the printing process from OS
             0 MiB allocation reported by mallinfo(arena+hblkhd)
        348260 MiB available memory on the node where the printing process lives
------------------
     ethr =  6.76E-11,  avg # of iterations = 15.8

     negative rho (up, down):  3.302E-03 0.000E+00

     total cpu time spent up to now is    26431.5 secs

     total energy              =  -10896.00992004 Ry
     estimated scf accuracy    <       0.00000104 Ry

     iteration #  2     ecut=    80.00 Ry     beta= 0.20
     Davidson diagonalization with overlap

---- Real-time Memory Report at c_bands before calling an iterative solver
          1660 MiB given to the printing process from OS
             0 MiB allocation reported by mallinfo(arena+hblkhd)
        347944 MiB available memory on the node where the printing process lives
------------------
     ethr =  1.47E-10,  avg # of iterations =  2.0

     negative rho (up, down):  3.302E-03 0.000E+00

     total cpu time spent up to now is    26495.7 secs

     total energy              =  -10896.00991930 Ry
     estimated scf accuracy    <       0.00000048 Ry

     iteration #  3     ecut=    80.00 Ry     beta= 0.20
     Davidson diagonalization with overlap

---- Real-time Memory Report at c_bands before calling an iterative solver
          1660 MiB given to the printing process from OS
             0 MiB allocation reported by mallinfo(arena+hblkhd)
        347859 MiB available memory on the node where the printing process lives
------------------
     ethr =  6.89E-11,  avg # of iterations = 13.8

     negative rho (up, down):  3.302E-03 0.000E+00

     total cpu time spent up to now is    26655.1 secs

     total energy              =  -10896.00992015 Ry
     estimated scf accuracy    <       0.00000128 Ry

     iteration #  4     ecut=    80.00 Ry     beta= 0.20
     Davidson diagonalization with overlap

---- Real-time Memory Report at c_bands before calling an iterative solver
          1660 MiB given to the printing process from OS
             0 MiB allocation reported by mallinfo(arena+hblkhd)
        347767 MiB available memory on the node where the printing process lives
------------------
     ethr =  6.89E-11,  avg # of iterations =  2.0

     negative rho (up, down):  3.302E-03 0.000E+00

     total cpu time spent up to now is    26720.7 secs

     total energy              =  -10896.00992005 Ry
     estimated scf accuracy    <       0.00000151 Ry

     iteration #  5     ecut=    80.00 Ry     beta= 0.20
     Davidson diagonalization with overlap

---- Real-time Memory Report at c_bands before calling an iterative solver
          1660 MiB given to the printing process from OS
             0 MiB allocation reported by mallinfo(arena+hblkhd)
        347714 MiB available memory on the node where the printing process lives
------------------
     ethr =  6.89E-11,  avg # of iterations =  1.2

     negative rho (up, down):  3.302E-03 0.000E+00

     total cpu time spent up to now is    26779.1 secs

     total energy              =  -10896.00992007 Ry
     estimated scf accuracy    <       0.00000119 Ry

     iteration #  6     ecut=    80.00 Ry     beta= 0.20
     Davidson diagonalization with overlap

---- Real-time Memory Report at c_bands before calling an iterative solver
          1660 MiB given to the printing process from OS
             0 MiB allocation reported by mallinfo(arena+hblkhd)
        347623 MiB available memory on the node where the printing process lives
------------------
     ethr =  6.89E-11,  avg # of iterations =  1.0

     negative rho (up, down):  3.303E-03 0.000E+00

     total cpu time spent up to now is    26836.2 secs

     total energy              =  -10896.00991995 Ry
     estimated scf accuracy    <       0.00000117 Ry

     iteration #  7     ecut=    80.00 Ry     beta= 0.20
     Davidson diagonalization with overlap

---- Real-time Memory Report at c_bands before calling an iterative solver
          1660 MiB given to the printing process from OS
             0 MiB allocation reported by mallinfo(arena+hblkhd)
        347573 MiB available memory on the node where the printing process lives
------------------
     ethr =  6.89E-11,  avg # of iterations =  2.0

     negative rho (up, down):  3.303E-03 0.000E+00

     total cpu time spent up to now is    26900.5 secs

     total energy              =  -10896.00991975 Ry
     estimated scf accuracy    <       0.00000099 Ry

     iteration #  8     ecut=    80.00 Ry     beta= 0.20
     Davidson diagonalization with overlap

---- Real-time Memory Report at c_bands before calling an iterative solver
          1660 MiB given to the printing process from OS
             0 MiB allocation reported by mallinfo(arena+hblkhd)
        347457 MiB available memory on the node where the printing process lives
------------------
     ethr =  6.89E-11,  avg # of iterations =  9.5

     negative rho (up, down):  3.303E-03 0.000E+00

     total cpu time spent up to now is    27006.7 secs

     total energy              =  -10896.00992007 Ry
     estimated scf accuracy    <       0.00000068 Ry

     iteration #  9     ecut=    80.00 Ry     beta= 0.20
     Davidson diagonalization with overlap

---- Real-time Memory Report at c_bands before calling an iterative solver
          1660 MiB given to the printing process from OS
             0 MiB allocation reported by mallinfo(arena+hblkhd)
        347322 MiB available memory on the node where the printing process lives
------------------
     ethr =  6.89E-11,  avg # of iterations =  2.0

     negative rho (up, down):  3.303E-03 0.000E+00

     total cpu time spent up to now is    27079.3 secs

     total energy              =  -10896.00992013 Ry
     estimated scf accuracy    <       0.00000098 Ry

     iteration # 10     ecut=    80.00 Ry     beta= 0.20
     Davidson diagonalization with overlap

---- Real-time Memory Report at c_bands before calling an iterative solver
          1660 MiB given to the printing process from OS
             0 MiB allocation reported by mallinfo(arena+hblkhd)
        347232 MiB available memory on the node where the printing process lives
------------------
     ethr =  6.89E-11,  avg # of iterations =  2.0

     negative rho (up, down):  3.303E-03 0.000E+00

     total cpu time spent up to now is    27144.1 secs

     total energy              =  -10896.00992018 Ry
     estimated scf accuracy    <       0.00000107 Ry

     iteration # 11     ecut=    80.00 Ry     beta= 0.20
     Davidson diagonalization with overlap

---- Real-time Memory Report at c_bands before calling an iterative solver
          1660 MiB given to the printing process from OS
             0 MiB allocation reported by mallinfo(arena+hblkhd)
        347193 MiB available memory on the node where the printing process lives
------------------
     ethr =  6.89E-11,  avg # of iterations =  2.0

     negative rho (up, down):  3.303E-03 0.000E+00

     total cpu time spent up to now is    27208.8 secs

     total energy              =  -10896.00992032 Ry
     estimated scf accuracy    <       0.00000125 Ry

     iteration # 12     ecut=    80.00 Ry     beta= 0.20
     Davidson diagonalization with overlap

---- Real-time Memory Report at c_bands before calling an iterative solver
          1660 MiB given to the printing process from OS
             0 MiB allocation reported by mallinfo(arena+hblkhd)
        347215 MiB available memory on the node where the printing process lives
------------------
     ethr =  6.89E-11,  avg # of iterations =  7.8

     negative rho (up, down):  3.303E-03 0.000E+00

     total cpu time spent up to now is    27286.4 secs

     total energy              =  -10896.00992006 Ry
     estimated scf accuracy    <       0.00000180 Ry

     iteration # 13     ecut=    80.00 Ry     beta= 0.20
     Davidson diagonalization with overlap

---- Real-time Memory Report at c_bands before calling an iterative solver
          1660 MiB given to the printing process from OS
             0 MiB allocation reported by mallinfo(arena+hblkhd)
        347217 MiB available memory on the node where the printing process lives
------------------
     ethr =  6.89E-11,  avg # of iterations =  4.8

     negative rho (up, down):  3.303E-03 0.000E+00

     total cpu time spent up to now is    27363.1 secs

     total energy              =  -10896.00992010 Ry
     estimated scf accuracy    <       0.00000093 Ry

     iteration # 14     ecut=    80.00 Ry     beta= 0.20
     Davidson diagonalization with overlap

---- Real-time Memory Report at c_bands before calling an iterative solver
          1660 MiB given to the printing process from OS
             0 MiB allocation reported by mallinfo(arena+hblkhd)
        347205 MiB available memory on the node where the printing process lives
------------------
     ethr =  6.89E-11,  avg # of iterations =  2.0

     negative rho (up, down):  3.303E-03 0.000E+00

     total cpu time spent up to now is    27426.7 secs

     total energy              =  -10896.00992012 Ry
     estimated scf accuracy    <       0.00000083 Ry

     iteration # 15     ecut=    80.00 Ry     beta= 0.20
     Davidson diagonalization with overlap

---- Real-time Memory Report at c_bands before calling an iterative solver
          1660 MiB given to the printing process from OS
             0 MiB allocation reported by mallinfo(arena+hblkhd)
        347225 MiB available memory on the node where the printing process lives
------------------
     ethr =  6.89E-11,  avg # of iterations =  1.8

     negative rho (up, down):  3.303E-03 0.000E+00

     total cpu time spent up to now is    27489.2 secs

     total energy              =  -10896.00992009 Ry
     estimated scf accuracy    <       0.00000084 Ry

     iteration # 16     ecut=    80.00 Ry     beta= 0.20
     Davidson diagonalization with overlap

---- Real-time Memory Report at c_bands before calling an iterative solver
          1660 MiB given to the printing process from OS
             0 MiB allocation reported by mallinfo(arena+hblkhd)
        347225 MiB available memory on the node where the printing process lives
------------------
     ethr =  6.89E-11,  avg # of iterations =  1.0

     negative rho (up, down):  3.303E-03 0.000E+00

     total cpu time spent up to now is    27546.6 secs

     total energy              =  -10896.00992006 Ry
     estimated scf accuracy    <       0.00000070 Ry

     iteration # 17     ecut=    80.00 Ry     beta= 0.20
     Davidson diagonalization with overlap

---- Real-time Memory Report at c_bands before calling an iterative solver
          1660 MiB given to the printing process from OS
             0 MiB allocation reported by mallinfo(arena+hblkhd)
        347203 MiB available memory on the node where the printing process lives
------------------
     ethr =  6.89E-11,  avg # of iterations =  2.0

     negative rho (up, down):  3.303E-03 0.000E+00

     total cpu time spent up to now is    27613.2 secs

     total energy              =  -10896.00992005 Ry
     estimated scf accuracy    <       0.00000048 Ry

     iteration # 18     ecut=    80.00 Ry     beta= 0.20
     Davidson diagonalization with overlap

---- Real-time Memory Report at c_bands before calling an iterative solver
          1660 MiB given to the printing process from OS
             0 MiB allocation reported by mallinfo(arena+hblkhd)
        347192 MiB available memory on the node where the printing process lives
------------------
     ethr =  6.75E-11,  avg # of iterations =  1.0

     negative rho (up, down):  3.303E-03 0.000E+00

     total cpu time spent up to now is    27670.0 secs

     total energy              =  -10896.00991994 Ry
     estimated scf accuracy    <       0.00000034 Ry

     iteration # 19     ecut=    80.00 Ry     beta= 0.20
     Davidson diagonalization with overlap

---- Real-time Memory Report at c_bands before calling an iterative solver
          1660 MiB given to the printing process from OS
             0 MiB allocation reported by mallinfo(arena+hblkhd)
        347194 MiB available memory on the node where the printing process lives
------------------
     ethr =  4.78E-11,  avg # of iterations =  7.0

     negative rho (up, down):  3.303E-03 0.000E+00

     total cpu time spent up to now is    27769.0 secs

     total energy              =  -10896.00992008 Ry
     estimated scf accuracy    <       0.00000042 Ry

     iteration # 20     ecut=    80.00 Ry     beta= 0.20
     Davidson diagonalization with overlap

---- Real-time Memory Report at c_bands before calling an iterative solver
          1660 MiB given to the printing process from OS
             0 MiB allocation reported by mallinfo(arena+hblkhd)
        347189 MiB available memory on the node where the printing process lives
------------------
     ethr =  4.78E-11,  avg # of iterations =  1.0

     negative rho (up, down):  3.303E-03 0.000E+00

     total cpu time spent up to now is    27825.9 secs

     total energy              =  -10896.00992003 Ry
     estimated scf accuracy    <       0.00000030 Ry

     iteration # 21     ecut=    80.00 Ry     beta= 0.20
     Davidson diagonalization with overlap

---- Real-time Memory Report at c_bands before calling an iterative solver
          1660 MiB given to the printing process from OS
             0 MiB allocation reported by mallinfo(arena+hblkhd)
        347199 MiB available memory on the node where the printing process lives
------------------
     ethr =  4.28E-11,  avg # of iterations =  7.2

     negative rho (up, down):  3.303E-03 0.000E+00

     total cpu time spent up to now is    27904.7 secs

     total energy              =  -10896.00992006 Ry
     estimated scf accuracy    <       0.00000012 Ry

     iteration # 22     ecut=    80.00 Ry     beta= 0.20
     Davidson diagonalization with overlap

---- Real-time Memory Report at c_bands before calling an iterative solver
          1660 MiB given to the printing process from OS
             0 MiB allocation reported by mallinfo(arena+hblkhd)
        347199 MiB available memory on the node where the printing process lives
------------------
     ethr =  1.67E-11,  avg # of iterations =  7.0

     negative rho (up, down):  3.303E-03 0.000E+00

     total cpu time spent up to now is    27982.1 secs

     total energy              =  -10896.00992005 Ry
     estimated scf accuracy    <       0.00000009 Ry

     iteration # 23     ecut=    80.00 Ry     beta= 0.20
     Davidson diagonalization with overlap

---- Real-time Memory Report at c_bands before calling an iterative solver
          1660 MiB given to the printing process from OS
             0 MiB allocation reported by mallinfo(arena+hblkhd)
        347217 MiB available memory on the node where the printing process lives
------------------
     ethr =  1.32E-11,  avg # of iterations = 10.8

     negative rho (up, down):  3.303E-03 0.000E+00

     total cpu time spent up to now is    28105.8 secs

     total energy              =  -10896.00992008 Ry
     estimated scf accuracy    <       0.00000007 Ry

     iteration # 24     ecut=    80.00 Ry     beta= 0.20
     Davidson diagonalization with overlap

---- Real-time Memory Report at c_bands before calling an iterative solver
          1660 MiB given to the printing process from OS
             0 MiB allocation reported by mallinfo(arena+hblkhd)
        347216 MiB available memory on the node where the printing process lives
------------------
     ethr =  9.40E-12,  avg # of iterations =  2.0

     negative rho (up, down):  3.303E-03 0.000E+00

     total cpu time spent up to now is    28175.0 secs

     total energy              =  -10896.00992009 Ry
     estimated scf accuracy    <       0.00000003 Ry

     iteration # 25     ecut=    80.00 Ry     beta= 0.20
     Davidson diagonalization with overlap

---- Real-time Memory Report at c_bands before calling an iterative solver
          1660 MiB given to the printing process from OS
             0 MiB allocation reported by mallinfo(arena+hblkhd)
        347181 MiB available memory on the node where the printing process lives
------------------
     ethr =  4.45E-12,  avg # of iterations = 10.8

     negative rho (up, down):  3.303E-03 0.000E+00

     total cpu time spent up to now is    28286.2 secs

     total energy              =  -10896.00992009 Ry
     estimated scf accuracy    <       0.00000002 Ry

     iteration # 26     ecut=    80.00 Ry     beta= 0.20
     Davidson diagonalization with overlap

---- Real-time Memory Report at c_bands before calling an iterative solver
          1660 MiB given to the printing process from OS
             0 MiB allocation reported by mallinfo(arena+hblkhd)
        347190 MiB available memory on the node where the printing process lives
------------------
     ethr =  3.54E-12,  avg # of iterations =  2.0

     negative rho (up, down):  3.303E-03 0.000E+00

     total cpu time spent up to now is    28357.3 secs

     total energy              =  -10896.00992010 Ry
     estimated scf accuracy    <       0.00000001 Ry

     iteration # 27     ecut=    80.00 Ry     beta= 0.20
     Davidson diagonalization with overlap

---- Real-time Memory Report at c_bands before calling an iterative solver
          1660 MiB given to the printing process from OS
             0 MiB allocation reported by mallinfo(arena+hblkhd)
        347190 MiB available memory on the node where the printing process lives
------------------
     ethr =  1.47E-12,  avg # of iterations = 10.0

     negative rho (up, down):  3.303E-03 0.000E+00

     total cpu time spent up to now is    28468.7 secs

     End of self-consistent calculation

          k = 0.0000 0.0000 0.0000 (360677 PWs)   bands (ev):

   -25.2196 -25.1935 -25.1298 -25.0797 -24.9418 -24.9006 -24.8894 -24.8609
   -24.7958 -24.7892 -24.7472 -24.7277 -24.5089 -24.4200 -24.4147 -24.3648
   -24.3569 -24.3208 -24.2912 -24.2701 -24.2693 -24.2109 -24.2004 -24.1714
   -24.1319 -24.1057 -24.0869 -24.0792 -24.0636 -24.0520 -24.0391 -24.0141
   -24.0006 -23.9859 -23.9672 -23.9347 -23.9098 -23.8930 -23.8855 -23.8737
   -23.8470 -23.8172 -23.7795 -23.7538 -23.6764 -23.6594 -23.6365 -23.4798
   -20.2662 -20.2161 -20.1990 -20.1782 -20.1639 -20.1471 -20.1445 -20.1382
   -20.1364 -20.1323 -20.1160 -20.1099 -20.1024 -20.0975 -20.0922 -20.0857
   -20.0771 -20.0726 -20.0708 -20.0685 -20.0542 -20.0508 -20.0463 -20.0443
   -20.0417 -20.0388 -20.0348 -20.0265 -20.0262 -20.0191 -20.0147 -20.0131
   -20.0064 -20.0050 -19.9977 -19.9939 -19.9909 -19.9904 -19.9856 -19.9822
   -19.9712 -19.9707 -19.9694 -19.9631 -19.9579 -19.9510 -19.9474 -19.9408
   -19.9394 -19.9366 -19.9365 -19.9296 -19.9215 -19.9179 -19.9152 -19.9053
   -19.9035 -19.8995 -19.8991 -19.8929 -19.8904 -19.8870 -19.8864 -19.8839
   -19.8763 -19.8735 -19.8725 -19.8679 -19.8608 -19.8560 -19.8560 -19.8554
   -19.8496 -19.8476 -19.8452 -19.8417 -19.8389 -19.8373 -19.8360 -19.8288
   -19.8244 -19.8215 -19.8203 -19.8114 -19.8067 -19.8053 -19.8034 -19.7975
   -19.7931 -19.7930 -19.7849 -19.7806 -19.7662 -19.7645 -19.7586 -19.7544
   -19.7525 -19.7474 -19.7422 -19.7376 -19.7355 -19.7244 -19.7237 -19.7178
   -19.7111 -19.7095 -19.6996 -19.6983 -19.6815 -19.6784 -19.6771 -19.6651
   -19.6483 -19.6412 -19.6332 -19.6097 -19.5983 -19.5920 -19.5875 -19.5830
   -19.5741 -19.5669 -19.5207 -19.5123 -19.4989 -19.4799 -19.4495 -19.4383
   -19.4276 -19.4200 -19.4043 -19.3770 -19.3656 -19.3260 -19.3160 -19.3118
   -19.2993 -19.2819 -19.2500 -19.2344 -19.1907 -19.1847 -19.1696 -19.1628
   -19.1466 -19.1284 -19.1026 -19.0980 -19.0725 -19.0521 -19.0415 -19.0273
   -19.0065 -18.9879 -18.9850 -18.9638 -18.9555 -18.9413 -18.9320 -18.8675
   -13.1803 -13.1488 -13.0956 -13.0883 -12.9874 -12.9441 -12.8468 -12.8311
   -12.8292 -12.7845 -12.5555 -12.5465 -12.4752 -12.4585 -12.2973 -12.2881
   -12.2647 -12.2538 -11.7344 -11.7290 -11.6458 -11.6132 -11.5753 -11.5639
   -11.3122 -11.2969 -11.2930 -11.2573 -10.9295 -10.9143 -10.8869 -10.8790
   -10.8308 -10.7271 -10.7125 -10.6725 -10.6648 -10.6262 -10.6111 -10.5852
   -10.5707 -10.5345 -10.5162 -10.5127 -10.4678 -10.4162 -10.0669 -10.0539
   -10.0269  -9.9844  -9.9633  -9.9361  -9.8799  -9.8515  -9.7874  -9.7754
    -9.7395  -9.7222  -9.4594  -9.4307  -9.4114  -9.3975  -9.3365  -9.2854
    -9.2709  -9.2622  -9.2554  -9.2450  -9.2137  -9.1817  -9.0237  -9.0140
    -9.0005  -8.9860  -8.8022  -8.7835  -8.6894  -8.6722  -8.6390  -8.6298
    -8.6264  -8.6064  -8.5899  -8.5871  -8.5443  -8.5335  -8.5171  -8.5138
    -8.5076  -8.4910  -8.4786  -8.4689  -8.3400  -8.3057  -8.2907  -8.2611
    -8.2381  -8.2228  -8.2099  -8.1821  -8.1804  -8.1692  -7.9398  -7.9042
    -7.8861  -7.8459  -7.8358  -7.8296  -7.8147  -7.7952  -7.7890  -7.7794
    -7.7214  -7.7177  -7.7008  -7.6777  -7.6756  -7.6597  -7.6222  -7.6044
    -7.5914  -7.5722  -7.5553  -7.5468  -7.5386  -7.5322  -7.5163  -7.5064
    -7.4989  -7.4834  -7.4455  -7.4415  -7.4233  -7.4080  -7.4039  -7.3803
    -7.3691  -7.3120  -7.3068  -7.2611  -7.1819  -7.1368  -7.0521  -6.9995

     occupation numbers 
     1.0000   1.0000   1.0000   1.0000   1.0000   1.0000   1.0000   1.0000
     1.0000   1.0000   1.0000   1.0000   1.0000   1.0000   1.0000   1.0000
     1.0000   1.0000   1.0000   1.0000   1.0000   1.0000   1.0000   1.0000
     1.0000   1.0000   1.0000   1.0000   1.0000   1.0000   1.0000   1.0000
     1.0000   1.0000   1.0000   1.0000   1.0000   1.0000   1.0000   1.0000
     1.0000   1.0000   1.0000   1.0000   1.0000   1.0000   1.0000   1.0000
     1.0000   1.0000   1.0000   1.0000   1.0000   1.0000   1.0000   1.0000
     1.0000   1.0000   1.0000   1.0000   1.0000   1.0000   1.0000   1.0000
     1.0000   1.0000   1.0000   1.0000   1.0000   1.0000   1.0000   1.0000
     1.0000   1.0000   1.0000   1.0000   1.0000   1.0000   1.0000   1.0000
     1.0000   1.0000   1.0000   1.0000   1.0000   1.0000   1.0000   1.0000
     1.0000   1.0000   1.0000   1.0000   1.0000   1.0000   1.0000   1.0000
     1.0000   1.0000   1.0000   1.0000   1.0000   1.0000   1.0000   1.0000
     1.0000   1.0000   1.0000   1.0000   1.0000   1.0000   1.0000   1.0000
     1.0000   1.0000   1.0000   1.0000   1.0000   1.0000   1.0000   1.0000
     1.0000   1.0000   1.0000   1.0000   1.0000   1.0000   1.0000   1.0000
     1.0000   1.0000   1.0000   1.0000   1.0000   1.0000   1.0000   1.0000
     1.0000   1.0000   1.0000   1.0000   1.0000   1.0000   1.0000   1.0000
     1.0000   1.0000   1.0000   1.0000   1.0000   1.0000   1.0000   1.0000
     1.0000   1.0000   1.0000   1.0000   1.0000   1.0000   1.0000   1.0000
     1.0000   1.0000   1.0000   1.0000   1.0000   1.0000   1.0000   1.0000
     1.0000   1.0000   1.0000   1.0000   1.0000   1.0000   1.0000   1.0000
     1.0000   1.0000   1.0000   1.0000   1.0000   1.0000   1.0000   1.0000
     1.0000   1.0000   1.0000   1.0000   1.0000   1.0000   1.0000   1.0000
     1.0000   1.0000   1.0000   1.0000   1.0000   1.0000   1.0000   1.0000
     1.0000   1.0000   1.0000   1.0000   1.0000   1.0000   1.0000   1.0000
     1.0000   1.0000   1.0000   1.0000   1.0000   1.0000   1.0000   1.0000
     1.0000   1.0000   1.0000   1.0000   1.0000   1.0000   1.0000   1.0000
     1.0000   1.0000   1.0000   1.0000   1.0000   1.0000   1.0000   1.0000
     1.0000   1.0000   1.0000   1.0000   1.0000   1.0000   1.0000   1.0000
     1.0000   1.0000   1.0000   1.0000   1.0000   1.0000   1.0000   1.0000
     1.0000   1.0000   1.0000   1.0000   1.0000   1.0000   1.0000   1.0000
     1.0000   1.0000   1.0000   1.0000   1.0000   1.0000   1.0000   1.0000
     1.0000   1.0000   1.0000   1.0000   1.0000   1.0000   1.0000   1.0000
     1.0000   1.0000   1.0000   1.0000   1.0000   1.0000   1.0000   1.0000
     1.0000   1.0000   1.0000   1.0000   1.0000   1.0000   1.0000   1.0000
     1.0000   1.0000   1.0000   1.0000   1.0000   1.0000   1.0000   1.0000
     1.0000   1.0000   1.0000   1.0000   1.0000   1.0000   1.0000   1.0000
     1.0000   1.0000   1.0000   1.0000   1.0000   1.0000   1.0000   1.0000
     1.0000   1.0000   1.0000   1.0000   1.0000   1.0000   1.0000   1.0000
     1.0000   1.0000   1.0000   1.0000   1.0000   1.0000   1.0000   1.0000
     1.0000   1.0000   1.0000   1.0000   1.0000   1.0000   1.0000   1.0000
     1.0000   1.0000   1.0000   1.0000   1.0000   1.0000   1.0000   1.0000
     1.0000   1.0000   1.0000   1.0000   1.0000   1.0000   1.0000   1.0000

          k = 0.0247-0.5725 0.0000 (360514 PWs)   bands (ev):

   -25.2076 -25.1679 -25.1551 -25.0968 -24.9409 -24.8996 -24.8953 -24.8579
   -24.7961 -24.7945 -24.7481 -24.7255 -24.5092 -24.4209 -24.4127 -24.3616
   -24.3583 -24.3168 -24.2814 -24.2711 -24.2658 -24.2126 -24.2048 -24.1639
   -24.1214 -24.1136 -24.0769 -24.0698 -24.0675 -24.0628 -24.0441 -24.0174
   -24.0030 -23.9840 -23.9687 -23.9453 -23.9038 -23.8968 -23.8844 -23.8716
   -23.8484 -23.8171 -23.7787 -23.7535 -23.6772 -23.6607 -23.6364 -23.4798
   -20.2610 -20.2134 -20.1858 -20.1845 -20.1670 -20.1536 -20.1469 -20.1421
   -20.1357 -20.1244 -20.1143 -20.1115 -20.1003 -20.0953 -20.0940 -20.0887
   -20.0770 -20.0739 -20.0698 -20.0619 -20.0591 -20.0549 -20.0536 -20.0473
   -20.0414 -20.0360 -20.0333 -20.0316 -20.0297 -20.0208 -20.0152 -20.0140
   -20.0058 -20.0025 -19.9950 -19.9948 -19.9900 -19.9896 -19.9806 -19.9797
   -19.9752 -19.9686 -19.9682 -19.9650 -19.9579 -19.9514 -19.9498 -19.9473
   -19.9432 -19.9391 -19.9359 -19.9320 -19.9209 -19.9187 -19.9063 -19.9049
   -19.9024 -19.8991 -19.8981 -19.8938 -19.8914 -19.8863 -19.8856 -19.8855
   -19.8788 -19.8785 -19.8772 -19.8708 -19.8619 -19.8570 -19.8565 -19.8534
   -19.8493 -19.8478 -19.8473 -19.8416 -19.8414 -19.8364 -19.8357 -19.8295
   -19.8276 -19.8217 -19.8212 -19.8098 -19.8052 -19.8011 -19.8007 -19.7961
   -19.7938 -19.7934 -19.7840 -19.7794 -19.7651 -19.7607 -19.7569 -19.7534
   -19.7523 -19.7465 -19.7432 -19.7374 -19.7336 -19.7318 -19.7243 -19.7195
   -19.7113 -19.7071 -19.6984 -19.6977 -19.6846 -19.6810 -19.6747 -19.6605
   -19.6517 -19.6391 -19.6325 -19.6120 -19.5974 -19.5961 -19.5938 -19.5877
   -19.5755 -19.5692 -19.5267 -19.5056 -19.4977 -19.4401 -19.4356 -19.4324
   -19.4175 -19.3798 -19.3724 -19.3514 -19.3409 -19.3305 -19.3199 -19.3163
   -19.3044 -19.2920 -19.2910 -19.2755 -19.2075 -19.2031 -19.1996 -19.1892
   -19.1643 -19.1193 -19.0980 -19.0886 -19.0698 -19.0422 -19.0283 -19.0172
   -18.9999 -18.9873 -18.9830 -18.9705 -18.9592 -18.9387 -18.9357 -18.8676
   -13.1786 -13.1470 -13.0959 -13.0899 -12.8894 -12.8748 -12.8466 -12.8278
   -12.5554 -12.5389 -12.5287 -12.5009 -12.4700 -12.4669 -12.4416 -12.4332
   -12.2707 -12.2642 -12.2407 -12.2233 -11.6474 -11.6439 -11.6213 -11.5915
   -11.2962 -11.2934 -11.2788 -11.2656 -10.8997 -10.8863 -10.8682 -10.8279
   -10.7681 -10.7454 -10.6932 -10.6803 -10.6534 -10.6493 -10.5984 -10.5760
   -10.4780 -10.4568 -10.4246 -10.3665 -10.1270 -10.0826 -10.0685 -10.0514
   -10.0441 -10.0112  -9.9935  -9.9883  -9.9164  -9.9065  -9.8712  -9.8117
    -9.5387  -9.5184  -9.4941  -9.4891  -9.4284  -9.4019  -9.3815  -9.3467
    -9.3360  -9.2652  -9.2543  -9.2333  -9.2032  -9.1991  -9.1945  -9.1586
    -9.0454  -9.0246  -9.0081  -9.0044  -8.7575  -8.7087  -8.6517  -8.6393
    -8.6291  -8.6156  -8.5912  -8.5886  -8.5422  -8.5277  -8.5119  -8.4920
    -8.4172  -8.3484  -8.3223  -8.3134  -8.3005  -8.2820  -8.2733  -8.2602
    -8.2552  -8.2267  -8.2181  -8.2050  -7.9996  -7.9651  -7.9543  -7.9354
    -7.9024  -7.8784  -7.8718  -7.8569  -7.8267  -7.8226  -7.8069  -7.7968
    -7.7391  -7.7089  -7.6879  -7.6870  -7.6763  -7.6410  -7.6318  -7.6271
    -7.6182  -7.5795  -7.5765  -7.5592  -7.5530  -7.5412  -7.5316  -7.5120
    -7.5042  -7.4948  -7.4783  -7.4631  -7.4418  -7.4322  -7.4193  -7.4041
    -7.3887  -7.3578  -7.3111  -7.2698  -7.1755  -7.1298  -7.0492  -6.9967

     occupation numbers 
     1.0000   1.0000   1.0000   1.0000   1.0000   1.0000   1.0000   1.0000
     1.0000   1.0000   1.0000   1.0000   1.0000   1.0000   1.0000   1.0000
     1.0000   1.0000   1.0000   1.0000   1.0000   1.0000   1.0000   1.0000
     1.0000   1.0000   1.0000   1.0000   1.0000   1.0000   1.0000   1.0000
     1.0000   1.0000   1.0000   1.0000   1.0000   1.0000   1.0000   1.0000
     1.0000   1.0000   1.0000   1.0000   1.0000   1.0000   1.0000   1.0000
     1.0000   1.0000   1.0000   1.0000   1.0000   1.0000   1.0000   1.0000
     1.0000   1.0000   1.0000   1.0000   1.0000   1.0000   1.0000   1.0000
     1.0000   1.0000   1.0000   1.0000   1.0000   1.0000   1.0000   1.0000
     1.0000   1.0000   1.0000   1.0000   1.0000   1.0000   1.0000   1.0000
     1.0000   1.0000   1.0000   1.0000   1.0000   1.0000   1.0000   1.0000
     1.0000   1.0000   1.0000   1.0000   1.0000   1.0000   1.0000   1.0000
     1.0000   1.0000   1.0000   1.0000   1.0000   1.0000   1.0000   1.0000
     1.0000   1.0000   1.0000   1.0000   1.0000   1.0000   1.0000   1.0000
     1.0000   1.0000   1.0000   1.0000   1.0000   1.0000   1.0000   1.0000
     1.0000   1.0000   1.0000   1.0000   1.0000   1.0000   1.0000   1.0000
     1.0000   1.0000   1.0000   1.0000   1.0000   1.0000   1.0000   1.0000
     1.0000   1.0000   1.0000   1.0000   1.0000   1.0000   1.0000   1.0000
     1.0000   1.0000   1.0000   1.0000   1.0000   1.0000   1.0000   1.0000
     1.0000   1.0000   1.0000   1.0000   1.0000   1.0000   1.0000   1.0000
     1.0000   1.0000   1.0000   1.0000   1.0000   1.0000   1.0000   1.0000
     1.0000   1.0000   1.0000   1.0000   1.0000   1.0000   1.0000   1.0000
     1.0000   1.0000   1.0000   1.0000   1.0000   1.0000   1.0000   1.0000
     1.0000   1.0000   1.0000   1.0000   1.0000   1.0000   1.0000   1.0000
     1.0000   1.0000   1.0000   1.0000   1.0000   1.0000   1.0000   1.0000
     1.0000   1.0000   1.0000   1.0000   1.0000   1.0000   1.0000   1.0000
     1.0000   1.0000   1.0000   1.0000   1.0000   1.0000   1.0000   1.0000
     1.0000   1.0000   1.0000   1.0000   1.0000   1.0000   1.0000   1.0000
     1.0000   1.0000   1.0000   1.0000   1.0000   1.0000   1.0000   1.0000
     1.0000   1.0000   1.0000   1.0000   1.0000   1.0000   1.0000   1.0000
     1.0000   1.0000   1.0000   1.0000   1.0000   1.0000   1.0000   1.0000
     1.0000   1.0000   1.0000   1.0000   1.0000   1.0000   1.0000   1.0000
     1.0000   1.0000   1.0000   1.0000   1.0000   1.0000   1.0000   1.0000
     1.0000   1.0000   1.0000   1.0000   1.0000   1.0000   1.0000   1.0000
     1.0000   1.0000   1.0000   1.0000   1.0000   1.0000   1.0000   1.0000
     1.0000   1.0000   1.0000   1.0000   1.0000   1.0000   1.0000   1.0000
     1.0000   1.0000   1.0000   1.0000   1.0000   1.0000   1.0000   1.0000
     1.0000   1.0000   1.0000   1.0000   1.0000   1.0000   1.0000   1.0000
     1.0000   1.0000   1.0000   1.0000   1.0000   1.0000   1.0000   1.0000
     1.0000   1.0000   1.0000   1.0000   1.0000   1.0000   1.0000   1.0000
     1.0000   1.0000   1.0000   1.0000   1.0000   1.0000   1.0000   1.0000
     1.0000   1.0000   1.0000   1.0000   1.0000   1.0000   1.0000   1.0000
     1.0000   1.0000   1.0000   1.0000   1.0000   1.0000   1.0000   1.0000
     1.0000   1.0000   1.0000   1.0000   1.0000   1.0000   1.0000   1.0000

          k =-0.5052 0.1105 0.0000 (360696 PWs)   bands (ev):

   -25.1963 -25.1594 -25.1414 -25.0630 -25.0465 -24.9653 -24.9248 -24.9009
   -24.7786 -24.6519 -24.6154 -24.5676 -24.5628 -24.5366 -24.5062 -24.4941
   -24.3430 -24.3055 -24.2857 -24.2396 -24.2273 -24.2265 -24.1729 -24.1381
   -24.1134 -24.1127 -24.1005 -24.0927 -24.0712 -24.0535 -24.0442 -24.0145
   -23.9969 -23.9855 -23.9618 -23.9407 -23.9036 -23.8941 -23.8898 -23.8731
   -23.8458 -23.8173 -23.7782 -23.7556 -23.6759 -23.6595 -23.6375 -23.4800
   -20.2662 -20.2166 -20.1980 -20.1788 -20.1670 -20.1459 -20.1458 -20.1434
   -20.1371 -20.1293 -20.1139 -20.1077 -20.1032 -20.0988 -20.0926 -20.0866
   -20.0782 -20.0742 -20.0709 -20.0688 -20.0544 -20.0515 -20.0468 -20.0448
   -20.0420 -20.0394 -20.0361 -20.0258 -20.0254 -20.0214 -20.0131 -20.0101
   -20.0085 -20.0077 -19.9977 -19.9971 -19.9874 -19.9873 -19.9831 -19.9750
   -19.9717 -19.9698 -19.9680 -19.9618 -19.9575 -19.9506 -19.9488 -19.9477
   -19.9393 -19.9383 -19.9355 -19.9241 -19.9210 -19.9196 -19.9131 -19.9034
   -19.9022 -19.9000 -19.8995 -19.8912 -19.8898 -19.8828 -19.8790 -19.8786
   -19.8737 -19.8729 -19.8726 -19.8666 -19.8626 -19.8586 -19.8542 -19.8529
   -19.8519 -19.8481 -19.8423 -19.8418 -19.8371 -19.8354 -19.8308 -19.8264
   -19.8228 -19.8212 -19.8194 -19.8118 -19.8074 -19.8042 -19.8022 -19.7975
   -19.7946 -19.7942 -19.7868 -19.7822 -19.7773 -19.7617 -19.7574 -19.7559
   -19.7475 -19.7472 -19.7422 -19.7411 -19.7399 -19.7321 -19.7262 -19.7148
   -19.7062 -19.7037 -19.7027 -19.6990 -19.6924 -19.6826 -19.6795 -19.6638
   -19.6625 -19.6314 -19.6274 -19.6096 -19.6045 -19.5882 -19.5706 -19.5669
   -19.5566 -19.5534 -19.5405 -19.5348 -19.5046 -19.4944 -19.4777 -19.4686
   -19.4439 -19.4279 -19.4178 -19.4066 -19.3338 -19.3111 -19.3100 -19.3034
   -19.2668 -19.2568 -19.2325 -19.2219 -19.2145 -19.1814 -19.1670 -19.1553
   -19.1491 -19.1304 -19.1097 -19.1044 -19.0856 -19.0483 -19.0391 -19.0279
   -18.9998 -18.9872 -18.9821 -18.9687 -18.9514 -18.9399 -18.9376 -18.8670
   -13.1283 -13.0545 -13.0411 -13.0245 -12.9412 -12.9304 -12.9191 -12.9142
   -12.8350 -12.8033 -12.7935 -12.7631 -12.2897 -12.2522 -12.2159 -12.1998
   -12.1184 -12.1013 -12.0645 -12.0356 -11.9015 -11.8729 -11.8121 -11.7753
   -10.9841 -10.9804 -10.9485 -10.9334 -10.8567 -10.7902 -10.7703 -10.7643
   -10.7398 -10.7326 -10.7265 -10.7052 -10.6656 -10.6381 -10.6155 -10.5889
   -10.5637 -10.5371 -10.5248 -10.5106 -10.4506 -10.4046 -10.3527 -10.3099
   -10.1360 -10.0941 -10.0809 -10.0431  -9.9180  -9.8497  -9.7711  -9.7405
    -9.6884  -9.6684  -9.5916  -9.5201  -9.2740  -9.2382  -9.2080  -9.1766
    -9.1257  -9.1243  -9.1036  -9.0873  -9.0855  -9.0497  -9.0000  -8.9866
    -8.9501  -8.9453  -8.9167  -8.9007  -8.8786  -8.8450  -8.8184  -8.8053
    -8.7851  -8.7813  -8.7733  -8.7662  -8.7179  -8.6696  -8.6646  -8.6591
    -8.4519  -8.4316  -8.4159  -8.3701  -8.3250  -8.3168  -8.2993  -8.2171
    -8.0615  -8.0425  -8.0203  -8.0074  -8.0004  -7.9754  -7.9729  -7.9651
    -7.9603  -7.9567  -7.9483  -7.9224  -7.8191  -7.7713  -7.7594  -7.7527
    -7.7411  -7.7378  -7.7201  -7.6966  -7.6780  -7.6556  -7.6173  -7.6061
    -7.5840  -7.5581  -7.5494  -7.5329  -7.5249  -7.5149  -7.4969  -7.4855
    -7.4638  -7.4529  -7.4275  -7.4195  -7.3848  -7.3778  -7.3340  -7.3163
    -7.3109  -7.2959  -7.2919  -7.2854  -7.2837  -7.2544  -7.1738  -7.0978

     occupation numbers 
     1.0000   1.0000   1.0000   1.0000   1.0000   1.0000   1.0000   1.0000
     1.0000   1.0000   1.0000   1.0000   1.0000   1.0000   1.0000   1.0000
     1.0000   1.0000   1.0000   1.0000   1.0000   1.0000   1.0000   1.0000
     1.0000   1.0000   1.0000   1.0000   1.0000   1.0000   1.0000   1.0000
     1.0000   1.0000   1.0000   1.0000   1.0000   1.0000   1.0000   1.0000
     1.0000   1.0000   1.0000   1.0000   1.0000   1.0000   1.0000   1.0000
     1.0000   1.0000   1.0000   1.0000   1.0000   1.0000   1.0000   1.0000
     1.0000   1.0000   1.0000   1.0000   1.0000   1.0000   1.0000   1.0000
     1.0000   1.0000   1.0000   1.0000   1.0000   1.0000   1.0000   1.0000
     1.0000   1.0000   1.0000   1.0000   1.0000   1.0000   1.0000   1.0000
     1.0000   1.0000   1.0000   1.0000   1.0000   1.0000   1.0000   1.0000
     1.0000   1.0000   1.0000   1.0000   1.0000   1.0000   1.0000   1.0000
     1.0000   1.0000   1.0000   1.0000   1.0000   1.0000   1.0000   1.0000
     1.0000   1.0000   1.0000   1.0000   1.0000   1.0000   1.0000   1.0000
     1.0000   1.0000   1.0000   1.0000   1.0000   1.0000   1.0000   1.0000
     1.0000   1.0000   1.0000   1.0000   1.0000   1.0000   1.0000   1.0000
     1.0000   1.0000   1.0000   1.0000   1.0000   1.0000   1.0000   1.0000
     1.0000   1.0000   1.0000   1.0000   1.0000   1.0000   1.0000   1.0000
     1.0000   1.0000   1.0000   1.0000   1.0000   1.0000   1.0000   1.0000
     1.0000   1.0000   1.0000   1.0000   1.0000   1.0000   1.0000   1.0000
     1.0000   1.0000   1.0000   1.0000   1.0000   1.0000   1.0000   1.0000
     1.0000   1.0000   1.0000   1.0000   1.0000   1.0000   1.0000   1.0000
     1.0000   1.0000   1.0000   1.0000   1.0000   1.0000   1.0000   1.0000
     1.0000   1.0000   1.0000   1.0000   1.0000   1.0000   1.0000   1.0000
     1.0000   1.0000   1.0000   1.0000   1.0000   1.0000   1.0000   1.0000
     1.0000   1.0000   1.0000   1.0000   1.0000   1.0000   1.0000   1.0000
     1.0000   1.0000   1.0000   1.0000   1.0000   1.0000   1.0000   1.0000
     1.0000   1.0000   1.0000   1.0000   1.0000   1.0000   1.0000   1.0000
     1.0000   1.0000   1.0000   1.0000   1.0000   1.0000   1.0000   1.0000
     1.0000   1.0000   1.0000   1.0000   1.0000   1.0000   1.0000   1.0000
     1.0000   1.0000   1.0000   1.0000   1.0000   1.0000   1.0000   1.0000
     1.0000   1.0000   1.0000   1.0000   1.0000   1.0000   1.0000   1.0000
     1.0000   1.0000   1.0000   1.0000   1.0000   1.0000   1.0000   1.0000
     1.0000   1.0000   1.0000   1.0000   1.0000   1.0000   1.0000   1.0000
     1.0000   1.0000   1.0000   1.0000   1.0000   1.0000   1.0000   1.0000
     1.0000   1.0000   1.0000   1.0000   1.0000   1.0000   1.0000   1.0000
     1.0000   1.0000   1.0000   1.0000   1.0000   1.0000   1.0000   1.0000
     1.0000   1.0000   1.0000   1.0000   1.0000   1.0000   1.0000   1.0000
     1.0000   1.0000   1.0000   1.0000   1.0000   1.0000   1.0000   1.0000
     1.0000   1.0000   1.0000   1.0000   1.0000   1.0000   1.0000   1.0000
     1.0000   1.0000   1.0000   1.0000   1.0000   1.0000   1.0000   1.0000
     1.0000   1.0000   1.0000   1.0000   1.0000   1.0000   1.0000   1.0000
     1.0000   1.0000   1.0000   1.0000   1.0000   1.0000   1.0000   1.0000
     1.0000   1.0000   1.0000   1.0000   1.0000   1.0000   1.0000   1.0000

          k =-0.4805-0.4620 0.0000 (360682 PWs)   bands (ev):

   -25.1866 -25.1594 -25.1310 -25.0834 -25.0302 -24.9761 -24.9302 -24.9121
   -24.7791 -24.6549 -24.6159 -24.5866 -24.5412 -24.5380 -24.5071 -24.4886
   -24.3388 -24.2988 -24.2818 -24.2397 -24.2315 -24.2204 -24.1626 -24.1387
   -24.1168 -24.1132 -24.0837 -24.0763 -24.0668 -24.0611 -24.0599 -24.0315
   -24.0031 -23.9791 -23.9686 -23.9448 -23.9013 -23.8975 -23.8874 -23.8701
   -23.8481 -23.8190 -23.7789 -23.7540 -23.6770 -23.6606 -23.6361 -23.4798
   -20.2614 -20.2135 -20.1871 -20.1852 -20.1666 -20.1522 -20.1484 -20.1373
   -20.1369 -20.1336 -20.1142 -20.1077 -20.1009 -20.0971 -20.0937 -20.0895
   -20.0777 -20.0739 -20.0707 -20.0633 -20.0587 -20.0557 -20.0541 -20.0467
   -20.0421 -20.0356 -20.0342 -20.0308 -20.0281 -20.0210 -20.0188 -20.0133
   -20.0050 -20.0050 -19.9945 -19.9941 -19.9880 -19.9872 -19.9826 -19.9764
   -19.9707 -19.9703 -19.9684 -19.9648 -19.9583 -19.9549 -19.9489 -19.9423
   -19.9417 -19.9404 -19.9326 -19.9268 -19.9237 -19.9172 -19.9161 -19.9063
   -19.9009 -19.8968 -19.8951 -19.8902 -19.8901 -19.8861 -19.8823 -19.8818
   -19.8764 -19.8755 -19.8716 -19.8701 -19.8615 -19.8590 -19.8582 -19.8539
   -19.8538 -19.8496 -19.8424 -19.8400 -19.8386 -19.8339 -19.8297 -19.8266
   -19.8240 -19.8183 -19.8170 -19.8084 -19.8033 -19.8018 -19.8003 -19.7988
   -19.7925 -19.7882 -19.7858 -19.7858 -19.7776 -19.7604 -19.7591 -19.7566
   -19.7515 -19.7464 -19.7443 -19.7420 -19.7406 -19.7311 -19.7260 -19.7152
   -19.7066 -19.7064 -19.6996 -19.6996 -19.6902 -19.6820 -19.6793 -19.6686
   -19.6661 -19.6331 -19.6324 -19.6101 -19.6075 -19.5894 -19.5722 -19.5717
   -19.5624 -19.5481 -19.5380 -19.5343 -19.4918 -19.4831 -19.4507 -19.4493
   -19.4210 -19.4028 -19.3766 -19.3547 -19.3423 -19.3311 -19.3307 -19.3274
   -19.2896 -19.2839 -19.2648 -19.2384 -19.2077 -19.2073 -19.1941 -19.1823
   -19.1477 -19.1134 -19.0862 -19.0808 -19.0766 -19.0500 -19.0304 -19.0219
   -19.0125 -18.9903 -18.9814 -18.9740 -18.9527 -18.9379 -18.9365 -18.8672
   -13.1868 -13.1765 -13.1247 -13.1227 -12.7555 -12.7538 -12.7067 -12.6844
   -12.6628 -12.6274 -12.6020 -12.5795 -12.4190 -12.4117 -12.3865 -12.3283
   -12.2958 -12.2866 -12.2239 -12.1845 -12.0373 -12.0186 -11.9926 -11.9761
   -10.9009 -10.8787 -10.8723 -10.8564 -10.8479 -10.8277 -10.8097 -10.7863
   -10.7637 -10.7387 -10.7060 -10.6525 -10.5754 -10.5360 -10.5211 -10.4928
   -10.4475 -10.4382 -10.4277 -10.4050 -10.3947 -10.3838 -10.3264 -10.3228
   -10.0768 -10.0496 -10.0153 -10.0061  -9.8420  -9.8106  -9.7962  -9.7909
    -9.6350  -9.5800  -9.5682  -9.5673  -9.4186  -9.3826  -9.3543  -9.3415
    -9.2981  -9.2681  -9.2651  -9.2419  -9.0431  -9.0309  -8.9967  -8.9663
    -8.9529  -8.9433  -8.9391  -8.9202  -8.9059  -8.8746  -8.8517  -8.8131
    -8.8013  -8.7930  -8.7665  -8.7510  -8.6329  -8.6209  -8.5996  -8.5831
    -8.4374  -8.3784  -8.3629  -8.3305  -8.2956  -8.2483  -8.2340  -8.1752
    -8.0494  -8.0132  -8.0105  -7.9760  -7.9687  -7.9555  -7.9291  -7.9149
    -7.9069  -7.8982  -7.8522  -7.8481  -7.8359  -7.8262  -7.8021  -7.7770
    -7.7655  -7.7366  -7.7315  -7.7205  -7.7040  -7.6908  -7.6743  -7.6560
    -7.6549  -7.6093  -7.5915  -7.5535  -7.5477  -7.5242  -7.5139  -7.5061
    -7.4842  -7.4607  -7.4550  -7.4387  -7.4109  -7.3876  -7.3615  -7.3188
    -7.3040  -7.2943  -7.2927  -7.2838  -7.2795  -7.2649  -7.1682  -7.0942

     occupation numbers 
     1.0000   1.0000   1.0000   1.0000   1.0000   1.0000   1.0000   1.0000
     1.0000   1.0000   1.0000   1.0000   1.0000   1.0000   1.0000   1.0000
     1.0000   1.0000   1.0000   1.0000   1.0000   1.0000   1.0000   1.0000
     1.0000   1.0000   1.0000   1.0000   1.0000   1.0000   1.0000   1.0000
     1.0000   1.0000   1.0000   1.0000   1.0000   1.0000   1.0000   1.0000
     1.0000   1.0000   1.0000   1.0000   1.0000   1.0000   1.0000   1.0000
     1.0000   1.0000   1.0000   1.0000   1.0000   1.0000   1.0000   1.0000
     1.0000   1.0000   1.0000   1.0000   1.0000   1.0000   1.0000   1.0000
     1.0000   1.0000   1.0000   1.0000   1.0000   1.0000   1.0000   1.0000
     1.0000   1.0000   1.0000   1.0000   1.0000   1.0000   1.0000   1.0000
     1.0000   1.0000   1.0000   1.0000   1.0000   1.0000   1.0000   1.0000
     1.0000   1.0000   1.0000   1.0000   1.0000   1.0000   1.0000   1.0000
     1.0000   1.0000   1.0000   1.0000   1.0000   1.0000   1.0000   1.0000
     1.0000   1.0000   1.0000   1.0000   1.0000   1.0000   1.0000   1.0000
     1.0000   1.0000   1.0000   1.0000   1.0000   1.0000   1.0000   1.0000
     1.0000   1.0000   1.0000   1.0000   1.0000   1.0000   1.0000   1.0000
     1.0000   1.0000   1.0000   1.0000   1.0000   1.0000   1.0000   1.0000
     1.0000   1.0000   1.0000   1.0000   1.0000   1.0000   1.0000   1.0000
     1.0000   1.0000   1.0000   1.0000   1.0000   1.0000   1.0000   1.0000
     1.0000   1.0000   1.0000   1.0000   1.0000   1.0000   1.0000   1.0000
     1.0000   1.0000   1.0000   1.0000   1.0000   1.0000   1.0000   1.0000
     1.0000   1.0000   1.0000   1.0000   1.0000   1.0000   1.0000   1.0000
     1.0000   1.0000   1.0000   1.0000   1.0000   1.0000   1.0000   1.0000
     1.0000   1.0000   1.0000   1.0000   1.0000   1.0000   1.0000   1.0000
     1.0000   1.0000   1.0000   1.0000   1.0000   1.0000   1.0000   1.0000
     1.0000   1.0000   1.0000   1.0000   1.0000   1.0000   1.0000   1.0000
     1.0000   1.0000   1.0000   1.0000   1.0000   1.0000   1.0000   1.0000
     1.0000   1.0000   1.0000   1.0000   1.0000   1.0000   1.0000   1.0000
     1.0000   1.0000   1.0000   1.0000   1.0000   1.0000   1.0000   1.0000
     1.0000   1.0000   1.0000   1.0000   1.0000   1.0000   1.0000   1.0000
     1.0000   1.0000   1.0000   1.0000   1.0000   1.0000   1.0000   1.0000
     1.0000   1.0000   1.0000   1.0000   1.0000   1.0000   1.0000   1.0000
     1.0000   1.0000   1.0000   1.0000   1.0000   1.0000   1.0000   1.0000
     1.0000   1.0000   1.0000   1.0000   1.0000   1.0000   1.0000   1.0000
     1.0000   1.0000   1.0000   1.0000   1.0000   1.0000   1.0000   1.0000
     1.0000   1.0000   1.0000   1.0000   1.0000   1.0000   1.0000   1.0000
     1.0000   1.0000   1.0000   1.0000   1.0000   1.0000   1.0000   1.0000
     1.0000   1.0000   1.0000   1.0000   1.0000   1.0000   1.0000   1.0000
     1.0000   1.0000   1.0000   1.0000   1.0000   1.0000   1.0000   1.0000
     1.0000   1.0000   1.0000   1.0000   1.0000   1.0000   1.0000   1.0000
     1.0000   1.0000   1.0000   1.0000   1.0000   1.0000   1.0000   1.0000
     1.0000   1.0000   1.0000   1.0000   1.0000   1.0000   1.0000   1.0000
     1.0000   1.0000   1.0000   1.0000   1.0000   1.0000   1.0000   1.0000
     1.0000   1.0000   1.0000   1.0000   1.0000   1.0000   1.0000   1.0000

     highest occupied level (ev):    -6.9967

!    total energy              =  -10896.00992012 Ry
     estimated scf accuracy    <          5.3E-09 Ry

     convergence has been achieved in  27 iterations

     negative rho (up, down):  3.303E-03 0.000E+00

     Forces acting on atoms (cartesian axes, Ry/au):

     atom    1 type  1   force =    -0.01051053    0.01359431   -0.00055270
     atom    2 type  1   force =    -0.04325732   -0.01501723    0.00600516
     atom    3 type  2   force =    -0.00423811   -0.00352142   -0.00289296
     atom    4 type  2   force =     0.00411307    0.00407719   -0.00064341
     atom    5 type  2   force =     0.04424595    0.01414253   -0.00265372
     atom    6 type  1   force =     0.00115071    0.03133445   -0.00513651
     atom    7 type  1   force =     0.01424834    0.04000022   -0.00915975
     atom    8 type  2   force =    -0.01350338   -0.01112926   -0.00108359
     atom    9 type  2   force =     0.00248866   -0.05536699    0.01196651
     atom   10 type  2   force =     0.00153629    0.00088551    0.01080344
     atom   11 type  1   force =    -0.01552092    0.01048252   -0.00193295
     atom   12 type  1   force =    -0.00963137    0.00279482    0.01241221
     atom   13 type  2   force =    -0.03185461   -0.00141547    0.00098402
     atom   14 type  2   force =     0.00668356   -0.02144120    0.00348155
     atom   15 type  2   force =     0.03108354    0.00418252   -0.01141668
     atom   16 type  1   force =    -0.00755263    0.02025990    0.01268476
     atom   17 type  1   force =    -0.02893452   -0.00314031    0.01141051
     atom   18 type  2   force =     0.01856431   -0.00024867   -0.01120171
     atom   19 type  2   force =     0.01047470   -0.03418327    0.00442709
     atom   20 type  2   force =     0.00582736    0.00651629   -0.01541912
     atom   21 type  1   force =    -0.02050841    0.01605146   -0.00937549
     atom   22 type  1   force =    -0.01264400   -0.02128933   -0.00325933
     atom   23 type  2   force =     0.00326994   -0.00646170   -0.00893218
     atom   24 type  2   force =    -0.00612383    0.06324265   -0.01038697
     atom   25 type  2   force =    -0.00136088    0.00850639    0.01434606
     atom   26 type  1   force =    -0.02222346   -0.00622949    0.00507097
     atom   27 type  1   force =    -0.00154077    0.03224771   -0.00046848
     atom   28 type  2   force =    -0.00652657   -0.00149639   -0.01226796
     atom   29 type  2   force =     0.00443802   -0.07347726    0.01410095
     atom   30 type  2   force =     0.00360161    0.00756809   -0.01409407
     atom   31 type  1   force =     0.00439663   -0.03808091    0.01291111
     atom   32 type  1   force =    -0.02525497   -0.02250192    0.00650163
     atom   33 type  2   force =     0.01772625   -0.00135822    0.01037529
     atom   34 type  2   force =     0.00918782    0.00315193   -0.00253585
     atom   35 type  2   force =     0.04108207   -0.00791417   -0.00974680
     atom   36 type  1   force =    -0.00770171    0.02745098    0.00148078
     atom   37 type  1   force =     0.02878856    0.00545184    0.00980102
     atom   38 type  2   force =    -0.01502965    0.00570473   -0.01134935
     atom   39 type  2   force =    -0.00675398    0.02465983   -0.01046228
     atom   40 type  2   force =    -0.01442108   -0.01967944   -0.00603448
     atom   41 type  1   force =    -0.00395952   -0.00783006   -0.01390322
     atom   42 type  1   force =     0.01575202   -0.02752317   -0.02045167
     atom   43 type  2   force =     0.00759386    0.00326756    0.01162533
     atom   44 type  2   force =    -0.00347621    0.02980298   -0.00248860
     atom   45 type  2   force =    -0.01672278    0.00122862    0.02369822
     atom   46 type  1   force =     0.00721964   -0.02062759    0.00696234
     atom   47 type  1   force =    -0.00387636   -0.03205629    0.01641910
     atom   48 type  2   force =     0.03315214   -0.01869017   -0.00143198
     atom   49 type  2   force =    -0.00763606    0.06728680   -0.01405811
     atom   50 type  2   force =    -0.00908879    0.00691634   -0.00079108
     atom   51 type  1   force =     0.01282023   -0.01035335   -0.00080209
     atom   52 type  1   force =     0.00207618    0.01425409   -0.01181953
     atom   53 type  2   force =    -0.01134160    0.00159168   -0.00013348
     atom   54 type  2   force =    -0.00492620    0.01719664   -0.00382707
     atom   55 type  2   force =    -0.01785677   -0.01325444    0.01192223
     atom   56 type  1   force =     0.01133604   -0.04719910    0.01723532
     atom   57 type  1   force =    -0.00567387   -0.00385891    0.00739780
     atom   58 type  2   force =     0.01055326    0.00922710   -0.00224559
     atom   59 type  2   force =    -0.00303481    0.03544828   -0.01097052
     atom   60 type  2   force =     0.00327860   -0.00378144   -0.00757210
     atom   61 type  1   force =     0.02431719   -0.03548075   -0.00335115
     atom   62 type  1   force =    -0.00292526   -0.03134246   -0.01173774
     atom   63 type  2   force =     0.00823266   -0.00888311    0.01301754
     atom   64 type  2   force =     0.00425122   -0.00680861    0.00659930
     atom   65 type  2   force =     0.01011857    0.01240422    0.01781614
     atom   66 type  1   force =     0.00025406    0.02000258   -0.00974918
     atom   67 type  1   force =     0.02669966   -0.01847729   -0.00838039
     atom   68 type  2   force =     0.00048209    0.00373901    0.00224005
     atom   69 type  2   force =    -0.00714903    0.05135615   -0.00898164
     atom   70 type  2   force =    -0.03117257   -0.00513075    0.01772713
     atom   71 type  1   force =     0.02103030    0.01835824   -0.00234226
     atom   72 type  1   force =     0.02219027    0.01413869   -0.00647034
     atom   73 type  2   force =    -0.00652081    0.00071268   -0.00626599
     atom   74 type  2   force =    -0.01302132    0.02528522   -0.00549498
     atom   75 type  2   force =    -0.02844329    0.00070647    0.00348143
     atom   76 type  1   force =    -0.00702056   -0.03018147    0.00628903
     atom   77 type  1   force =    -0.00039885   -0.00697828    0.00202790
     atom   78 type  2   force =    -0.01147861    0.02119751    0.00899958
     atom   79 type  2   force =     0.00039781   -0.02920866    0.00375477
     atom   80 type  2   force =     0.02615278    0.00519185   -0.01170125
     The non-local contrib.  to forces
     atom    1 type  1   force =     0.18419721   -0.11245785    0.03908385
     atom    2 type  1   force =     0.05907029    0.12397424   -0.02239860
     atom    3 type  2   force =    -0.08038423    0.29235137   -1.03016131
     atom    4 type  2   force =     0.87778245    0.08825235   -0.04207735
     atom    5 type  2   force =    -0.07025295   -0.31329356    1.05774064
     atom    6 type  1   force =     0.12572651   -0.04608555    0.02866645
     atom    7 type  1   force =     0.08706020    0.10249896    0.03342260
     atom    8 type  2   force =    -0.08926131    0.31409465   -1.02991995
     atom    9 type  2   force =     0.81461483    0.14710626    0.12735260
     atom   10 type  2   force =    -0.00667905   -0.29917375    1.09677200
     atom   11 type  1   force =     0.16848629   -0.05168543   -0.03194038
     atom   12 type  1   force =     0.06714631    0.04459225   -0.05640566
     atom   13 type  2   force =    -0.09006678    0.30613475   -0.98948044
     atom   14 type  2   force =     0.90559642    0.06089778   -0.00572866
     atom   15 type  2   force =    -0.04791839   -0.35735316    1.00773930
     atom   16 type  1   force =     0.12052408   -0.04080973    0.02550808
     atom   17 type  1   force =     0.12071567    0.17852322   -0.11264941
     atom   18 type  2   force =    -0.08605148    0.36184618   -1.08446522
     atom   19 type  2   force =     0.85495570    0.11487927   -0.05527257
     atom   20 type  2   force =    -0.03834590   -0.33015806    1.01032496
     atom   21 type  1   force =     0.14608729   -0.12858530    0.04077893
     atom   22 type  1   force =     0.03251478    0.08107978   -0.01487305
     atom   23 type  2   force =    -0.07429988    0.24786389   -1.08205021
     atom   24 type  2   force =     0.86202546    0.04393765    0.04515916
     atom   25 type  2   force =    -0.05515705   -0.30843403    1.11346568
     atom   26 type  1   force =     0.08666401   -0.07117982   -0.02218976
     atom   27 type  1   force =     0.07148379    0.14576340   -0.08444590
     atom   28 type  2   force =    -0.10991542    0.29209820   -1.08239708
     atom   29 type  2   force =     0.81566976    0.13091010   -0.04195529
     atom   30 type  2   force =     0.01820051   -0.31000865    0.96705282
     atom   31 type  1   force =     0.17443532   -0.08168009    0.10478517
     atom   32 type  1   force =     0.07036208    0.01840489   -0.07945911
     atom   33 type  2   force =    -0.12774425    0.26762012   -1.01163791
     atom   34 type  2   force =     0.88259322    0.03026933   -0.07938480
     atom   35 type  2   force =    -0.06614218   -0.33727236    1.00902354
     atom   36 type  1   force =     0.08591474    0.04682046    0.02826792
     atom   37 type  1   force =     0.04356747    0.08463690   -0.12830834
     atom   38 type  2   force =    -0.11430189    0.35226387   -1.07705866
     atom   39 type  2   force =     0.75906376    0.06858546   -0.11398005
     atom   40 type  2   force =    -0.04538377   -0.33306892    1.00219383
     atom   41 type  1   force =     0.03158217   -0.08359756    0.08756405
     atom   42 type  1   force =     0.05326461    0.08932478   -0.01025595
     atom   43 type  2   force =    -0.12376278    0.25222790   -1.03837410
     atom   44 type  2   force =     0.79253325    0.04884013    0.03915825
     atom   45 type  2   force =    -0.04436403   -0.27503601    1.13396015
     atom   46 type  1   force =     0.14071427   -0.13485681    0.05626562
     atom   47 type  1   force =     0.09311597    0.08264676   -0.04904060
     atom   48 type  2   force =    -0.09451790    0.31095998   -1.06063238
     atom   49 type  2   force =     0.81497399   -0.00217513   -0.03288801
     atom   50 type  2   force =    -0.07860168   -0.33630562    1.02856868
     atom   51 type  1   force =     0.11612335   -0.07821212    0.07452613
     atom   52 type  1   force =     0.06243665    0.05243521   -0.11192149
     atom   53 type  2   force =    -0.07865886    0.27279087   -1.04861200
     atom   54 type  2   force =     0.81102369    0.06611140   -0.05660638
     atom   55 type  2   force =     0.00496336   -0.37143645    1.08891228
     atom   56 type  1   force =     0.09689413   -0.06869573    0.06677140
     atom   57 type  1   force =     0.04462937   -0.00797991   -0.08202943
     atom   58 type  2   force =    -0.12693696    0.30955904   -1.04378094
     atom   59 type  2   force =     0.84622168    0.03194190   -0.01969247
     atom   60 type  2   force =    -0.06614176   -0.32484700    1.00795073
     atom   61 type  1   force =     0.06584465   -0.09444698    0.07605075
     atom   62 type  1   force =     0.01935584    0.12150204    0.05138562
     atom   63 type  2   force =    -0.13165931    0.27189847   -1.01144955
     atom   64 type  2   force =     0.76984276    0.08450401    0.11695970
     atom   65 type  2   force =    -0.09434426   -0.28221864    1.08907221
     atom   66 type  1   force =     0.06175111   -0.09432601    0.10379575
     atom   67 type  1   force =     0.08251806    0.07909994   -0.05715855
     atom   68 type  2   force =    -0.08482648    0.24409167   -1.02976492
     atom   69 type  2   force =     0.79114341    0.07241784    0.09303654
     atom   70 type  2   force =    -0.01552299   -0.30444384    1.09334827
     atom   71 type  1   force =     0.06830962   -0.06887064    0.09966341
     atom   72 type  1   force =     0.05076672    0.07272224   -0.04297390
     atom   73 type  2   force =    -0.07536472    0.32701154   -1.07497023
     atom   74 type  2   force =     0.75388581    0.06886124    0.05158852
     atom   75 type  2   force =    -0.04847570   -0.28336120    1.02138689
     atom   76 type  1   force =     0.10359458   -0.03599975    0.06121223
     atom   77 type  1   force =     0.00936727    0.05040479   -0.14908797
     atom   78 type  2   force =    -0.12130025    0.28944177   -1.00823705
     atom   79 type  2   force =     0.76532671    0.06110296   -0.08007721
     atom   80 type  2   force =    -0.00602989   -0.29806878    0.96768974
     The ionic contribution  to forces
     atom    1 type  1   force =     1.70130156   11.29359459  -89.50208705
     atom    2 type  1   force =     0.52606013  -11.01173534 -128.07900437
     atom    3 type  2   force =    -0.12072268   -0.53816615  -15.31520686
     atom    4 type  2   force =    -3.93231892   -0.09418190  -49.66104768
     atom    5 type  2   force =     1.12579726    0.76018982  -85.40202438
     atom    6 type  1   force =     1.33295482   11.91856474  128.62519410
     atom    7 type  1   force =     1.59344834  -10.13142385   89.92951618
     atom    8 type  2   force =    -0.15666781   -1.00081296   85.94409564
     atom    9 type  2   force =    -3.49806842   -1.44417374   47.86636746
     atom   10 type  2   force =    -0.02008436    0.78092955   14.46457336
     atom   11 type  1   force =     0.79899043   11.92508536  -90.49958489
     atom   12 type  1   force =     1.39129286  -10.89614837 -130.11262768
     atom   13 type  2   force =    -0.60718261   -0.46704425  -15.51135578
     atom   14 type  2   force =    -3.70095346   -0.60120648  -50.67767431
     atom   15 type  2   force =     0.64402244    0.89920315  -86.05534923
     atom   16 type  1   force =     1.27605038   11.78709475  129.57472509
     atom   17 type  1   force =     1.23564077  -10.86564884   87.17482273
     atom   18 type  2   force =     0.54674702   -1.00314160   86.35608866
     atom   19 type  2   force =    -3.40216554   -1.07769827   50.33350871
     atom   20 type  2   force =     0.21651661    0.65636425   15.71868861
     atom   21 type  1   force =     1.04160416   11.41249133  -89.52638932
     atom   22 type  1   force =     1.49406998  -10.98495974 -127.54614692
     atom   23 type  2   force =     0.22274601   -0.46376529  -14.89076265
     atom   24 type  2   force =    -3.64531698    1.32343480  -50.64668740
     atom   25 type  2   force =     0.03089484    0.75271339  -86.46717630
     atom   26 type  1   force =     0.41162235   10.81145097  128.76405003
     atom   27 type  1   force =     1.82872796  -10.26999325   89.20426410
     atom   28 type  2   force =     0.08973136   -0.67774492   86.21061946
     atom   29 type  2   force =    -3.30984385   -1.92546174   51.06988457
     atom   30 type  2   force =    -0.00417966    0.30047713   16.15850902
     atom   31 type  1   force =     2.12187763   10.59705494  -88.62252571
     atom   32 type  1   force =     1.88453066  -12.12131577 -129.58030518
     atom   33 type  2   force =     0.76433218   -0.45309732  -15.50251829
     atom   34 type  2   force =    -3.41554675    0.02326129  -48.97431934
     atom   35 type  2   force =     1.11048694    0.50512878  -85.21272623
     atom   36 type  1   force =     1.06613629   12.21968483  129.30404408
     atom   37 type  1   force =     2.49214686  -10.84185619   87.37997227
     atom   38 type  2   force =     0.08683049   -0.99741095   86.23247965
     atom   39 type  2   force =    -3.43301664    0.44953362   51.20630328
     atom   40 type  2   force =    -0.14154216    0.53182794   15.25819592
     atom   41 type  1   force =     0.64778099   10.70452483  -89.75466627
     atom   42 type  1   force =     2.38004014  -11.58157339 -128.26507257
     atom   43 type  2   force =     0.56418771   -0.37652548  -15.62099358
     atom   44 type  2   force =    -3.26821153    0.59962101  -50.20214439
     atom   45 type  2   force =    -0.28338499    0.44733066  -86.91205045
     atom   46 type  1   force =     2.24562951   10.26264340  129.73636217
     atom   47 type  1   force =     2.17156736  -11.65592151   88.54233842
     atom   48 type  2   force =     1.00059419   -1.23480617   86.04560794
     atom   49 type  2   force =    -3.47241940    1.53441156   50.86144037
     atom   50 type  2   force =     0.29008721    0.55374978   15.63342633
     atom   51 type  1   force =     1.76110023   11.22350631  -88.47092109
     atom   52 type  1   force =     1.68826645  -10.78056416 -129.35066228
     atom   53 type  2   force =    -0.03540777   -0.68762898  -15.29950838
     atom   54 type  2   force =    -3.72230144    0.29458278  -49.51468338
     atom   55 type  2   force =    -0.54433510    1.08255914  -86.64385697
     atom   56 type  1   force =     1.52012966   10.60477361  129.47725140
     atom   57 type  1   force =     1.69783713  -11.60640998   88.80352078
     atom   58 type  2   force =     0.65132545   -0.80677468   86.13769988
     atom   59 type  2   force =    -3.40594861    0.82258725   50.05782063
     atom   60 type  2   force =     0.22270008    0.46108946   15.51453012
     atom   61 type  1   force =     1.84549553    9.87249768  -89.56673635
     atom   62 type  1   force =     1.61141304  -11.85063108 -127.99982974
     atom   63 type  2   force =     0.49888745   -0.60352332  -15.69466648
     atom   64 type  2   force =    -3.12857939   -0.40061062  -51.66602072
     atom   65 type  2   force =     0.64052669    0.51940189  -86.06627860
     atom   66 type  1   force =     0.80419657   11.00695924  129.97711316
     atom   67 type  1   force =     2.52671409  -11.07190437   90.27953919
     atom   68 type  2   force =     0.30172580   -0.49948224   85.25408594
     atom   69 type  2   force =    -3.51098464    1.01999474   48.92541691
     atom   70 type  2   force =    -0.85336921    0.68685361   14.87093336
     atom   71 type  1   force =     1.54588369   11.80882893  -88.02862470
     atom   72 type  1   force =     2.02475817  -10.19440339 -129.78063916
     atom   73 type  2   force =     0.20123823   -0.81113143  -14.49627984
     atom   74 type  2   force =    -3.49727120    0.30401097  -51.57668121
     atom   75 type  2   force =    -0.45503890    0.69309486  -85.07930288
     atom   76 type  1   force =     1.08461851   11.01034706  129.51543182
     atom   77 type  1   force =     1.42525166  -11.66224870   88.50575791
     atom   78 type  2   force =     0.14420795   -0.34980329   85.42453273
     atom   79 type  2   force =    -3.32665180   -0.78993686   51.70353547
     atom   80 type  2   force =     0.36079001    0.36941257   15.73289119
     The local contribution  to forces
     atom    1 type  1   force =    -1.89570188  -11.17026230   89.46287572
     atom    2 type  1   force =    -0.63133273   10.87556514  128.10741207
     atom    3 type  2   force =     0.19602276    0.24504009   16.33420572
     atom    4 type  2   force =     3.06673526    0.01086057   49.70208523
     atom    5 type  2   force =    -1.01158198   -0.43559092   84.35006801
     atom    6 type  1   force =    -1.45734298  -11.84181785 -128.65900278
     atom    7 type  1   force =    -1.66580470   10.07385527  -89.97222218
     atom    8 type  2   force =     0.23146392    0.67844403  -84.92352355
     atom    9 type  2   force =     2.69345366    1.24255165  -47.98051564
     atom   10 type  2   force =     0.02820943   -0.48365984  -15.54163268
     atom   11 type  1   force =    -0.98327637  -11.86510034   90.52880337
     atom   12 type  1   force =    -1.46942063   10.85706120  130.18156067
     atom   13 type  2   force =     0.66425739    0.16237865   16.49393671
     atom   14 type  2   force =     2.81040325    0.51928031   50.68683714
     atom   15 type  2   force =    -0.56524655   -0.54095268   85.04411699
     atom   16 type  1   force =    -1.40437543  -11.72732708 -129.58690509
     atom   17 type  1   force =    -1.38673521   10.68793510  -87.05139182
     atom   18 type  2   force =    -0.44280849    0.64440510  -85.29163649
     atom   19 type  2   force =     2.56566709    0.92936632  -50.27427426
     atom   20 type  2   force =    -0.17266644   -0.32271258  -16.73654915
     atom   21 type  1   force =    -1.20886969  -11.27061425   89.47626581
     atom   22 type  1   force =    -1.54086469   10.88412177  127.55734609
     atom   23 type  2   force =    -0.14588456    0.21174660   15.95510321
     atom   24 type  2   force =     2.78502524   -1.30312905   50.59144550
     atom   25 type  2   force =     0.02236357   -0.43862689   85.37714837
     atom   26 type  1   force =    -0.52215793  -10.74955877 -128.73691028
     atom   27 type  1   force =    -1.90219196   10.16159795  -89.12138005
     atom   28 type  2   force =     0.01258099    0.38690111  -85.14930829
     atom   29 type  2   force =     2.50615627    1.72159537  -51.01406573
     atom   30 type  2   force =    -0.01027210    0.01421971  -17.13211516
     atom   31 type  1   force =    -2.29144960  -10.55832513   88.53251550
     atom   32 type  1   force =    -1.98193969   12.08148284  129.66571937
     atom   33 type  2   force =    -0.61990493    0.18663725   16.51657656
     atom   34 type  2   force =     2.55035974   -0.05000626   49.05041103
     atom   35 type  2   force =    -1.00355423   -0.17897039   84.20189598
     atom   36 type  1   force =    -1.16041242  -12.23894247 -129.33054268
     atom   37 type  1   force =    -2.50627768   10.76566717  -87.24283217
     atom   38 type  2   force =     0.01125963    0.65415378  -85.17551935
     atom   39 type  2   force =     2.67412542   -0.49261055  -51.10391634
     atom   40 type  2   force =     0.17193606   -0.22169473  -16.25847840
     atom   41 type  1   force =    -0.68477368  -10.63190066   89.65356669
     atom   42 type  1   force =    -2.41740897   11.46606742  128.25362557
     atom   43 type  2   force =    -0.43391073    0.12996627   16.66282483
     atom   44 type  2   force =     2.47949012   -0.61789793   50.16081407
     atom   45 type  2   force =     0.31045942   -0.17369249   85.81116203
     atom   46 type  1   force =    -2.37860725  -10.15291948 -129.78465551
     atom   47 type  1   force =    -2.26889749   11.54214577  -88.47635658
     atom   48 type  2   force =    -0.87354722    0.90791547  -84.99490330
     atom   49 type  2   force =     2.65724026   -1.46433379  -50.84302179
     atom   50 type  2   force =    -0.22136768   -0.21363093  -16.65458297
     atom   51 type  1   force =    -1.86387830  -11.15891757   88.39626233
     atom   52 type  1   force =    -1.74915400   10.74541829  129.44858390
     atom   53 type  2   force =     0.10186342    0.41898634   16.33959554
     atom   54 type  2   force =     2.91374265   -0.34272543   49.56689397
     atom   55 type  2   force =     0.52136352   -0.72791530   85.57571945
     atom   56 type  1   force =    -1.60564071  -10.58833523 -129.52507495
     atom   57 type  1   force =    -1.74917313   11.61200101  -88.71460919
     atom   58 type  2   force =    -0.51493855    0.50939201  -85.10453818
     atom   59 type  2   force =     2.56442996   -0.81841769  -50.04939918
     atom   60 type  2   force =    -0.15387291   -0.14308384  -16.52208912
     atom   61 type  1   force =    -1.88680417   -9.81801269   89.48799820
     atom   62 type  1   force =    -1.63492389   11.69942389  127.93673542
     atom   63 type  2   force =    -0.36013866    0.32523932   16.71121038
     atom   64 type  2   force =     2.37018008    0.31003875   51.55677574
     atom   65 type  2   force =    -0.53681579   -0.22736817   85.00397538
     atom   66 type  1   force =    -0.86628886  -10.89448983 -130.08978953
     atom   67 type  1   force =    -2.58144470   10.97606696  -90.23215836
     atom   68 type  2   force =    -0.21723062    0.26149623  -84.23029271
     atom   69 type  2   force =     2.71992112   -1.03992889  -49.02669020
     atom   70 type  2   force =     0.83728373   -0.39043636  -15.93759789
     atom   71 type  1   force =    -1.59246604  -11.72322148   87.92761936
     atom   72 type  1   force =    -2.05257384   10.13888392  129.81627432
     atom   73 type  2   force =    -0.13316483    0.48786950   15.55629424
     atom   74 type  2   force =     2.73715605   -0.34672661   51.51998419
     atom   75 type  2   force =     0.47438754   -0.41172035   84.06958866
     atom   76 type  1   force =    -1.19619944  -11.00846474 -129.56947719
     atom   77 type  1   force =    -1.43618442   11.60706414  -88.35633920
     atom   78 type  2   force =    -0.03560110    0.08444568  -84.41523467
     atom   79 type  2   force =     2.56880001    0.69995674  -51.62039920
     atom   80 type  2   force =    -0.32849631   -0.06895078  -16.70471100
     The core correction contribution to forces
     atom    1 type  1   force =    -0.00030544    0.00271412   -0.00042267
     atom    2 type  1   force =     0.00294337   -0.00281424   -0.00002069
     atom    3 type  2   force =     0.00084556   -0.00275182    0.00826399
     atom    4 type  2   force =    -0.00807995   -0.00085376    0.00038795
     atom    5 type  2   force =     0.00028736    0.00282873   -0.00844260
     atom    6 type  1   force =    -0.00019362    0.00067360   -0.00001204
     atom    7 type  1   force =    -0.00044976   -0.00491913    0.00013937
     atom    8 type  2   force =     0.00096445   -0.00285504    0.00825954
     atom    9 type  2   force =    -0.00750866   -0.00085061   -0.00123903
     atom   10 type  2   force =     0.00009098    0.00279016   -0.00891373
     atom   11 type  1   force =     0.00026719    0.00218991    0.00078400
     atom   12 type  1   force =     0.00132589   -0.00266818   -0.00008834
     atom   13 type  2   force =     0.00113996   -0.00288533    0.00787271
     atom   14 type  2   force =    -0.00836043   -0.00040787    0.00003649
     atom   15 type  2   force =     0.00022411    0.00328534   -0.00793080
     atom   16 type  1   force =     0.00027161    0.00128566   -0.00063416
     atom   17 type  1   force =     0.00143080   -0.00394052    0.00066728
     atom   18 type  2   force =     0.00068075   -0.00336085    0.00881179
     atom   19 type  2   force =    -0.00798041   -0.00072677    0.00046373
     atom   20 type  2   force =     0.00032777    0.00301501   -0.00787382
     atom   21 type  1   force =     0.00066730    0.00275756   -0.00003858
     atom   22 type  1   force =     0.00161649   -0.00153681    0.00046265
     atom   23 type  2   force =     0.00070939   -0.00231224    0.00877343
     atom   24 type  2   force =    -0.00785199   -0.00100035   -0.00031591
     atom   25 type  2   force =     0.00054007    0.00284455   -0.00909552
     atom   26 type  1   force =     0.00163778    0.00304803    0.00013641
     atom   27 type  1   force =     0.00044527   -0.00512183    0.00108643
     atom   28 type  2   force =     0.00107910   -0.00275103    0.00881866
     atom   29 type  2   force =    -0.00754161   -0.00052549    0.00024013
     atom   30 type  2   force =    -0.00014509    0.00287710   -0.00753856
     atom   31 type  1   force =    -0.00053644    0.00488700   -0.00190665
     atom   32 type  1   force =     0.00182143   -0.00107468    0.00051861
     atom   33 type  2   force =     0.00104327   -0.00251616    0.00794086
     atom   34 type  2   force =    -0.00821954   -0.00037052    0.00075224
     atom   35 type  2   force =     0.00029334    0.00320444   -0.00794637
     atom   36 type  1   force =     0.00063061   -0.00013345   -0.00025690
     atom   37 type  1   force =    -0.00063315   -0.00298082    0.00097623
     atom   38 type  2   force =     0.00118746   -0.00330694    0.00875379
     atom   39 type  2   force =    -0.00692320   -0.00084088    0.00113152
     atom   40 type  2   force =     0.00056613    0.00325294   -0.00793582
     atom   41 type  1   force =     0.00145567    0.00313726   -0.00039333
     atom   42 type  1   force =    -0.00014549   -0.00137643    0.00128053
     atom   43 type  2   force =     0.00108102   -0.00240676    0.00816315
     atom   44 type  2   force =    -0.00728690   -0.00075627   -0.00032756
     atom   45 type  2   force =     0.00056975    0.00261882   -0.00937825
     atom   46 type  1   force =    -0.00050876    0.00451583   -0.00102627
     atom   47 type  1   force =     0.00032694   -0.00092841   -0.00051951
     atom   48 type  2   force =     0.00062700   -0.00275894    0.00849504
     atom   49 type  2   force =    -0.00742982   -0.00061912    0.00041262
     atom   50 type  2   force =     0.00079879    0.00310246   -0.00820328
     atom   51 type  1   force =    -0.00050429    0.00329487   -0.00071374
     atom   52 type  1   force =     0.00053106   -0.00303812    0.00216910
     atom   53 type  2   force =     0.00086314   -0.00255542    0.00838208
     atom   54 type  2   force =    -0.00738829   -0.00077164    0.00055742
     atom   55 type  2   force =     0.00015535    0.00353966   -0.00886389
     atom   56 type  1   force =    -0.00006506    0.00507745   -0.00170023
     atom   57 type  1   force =     0.00102967   -0.00147051    0.00052564
     atom   58 type  2   force =     0.00110007   -0.00295011    0.00837583
     atom   59 type  2   force =    -0.00773652   -0.00066568    0.00030254
     atom   60 type  2   force =     0.00059727    0.00305905   -0.00796325
     atom   61 type  1   force =    -0.00021478    0.00447785   -0.00069261
     atom   62 type  1   force =     0.00123655   -0.00166847   -0.00003974
     atom   63 type  2   force =     0.00115038   -0.00250246    0.00791645
     atom   64 type  2   force =    -0.00719047   -0.00074067   -0.00112423
     atom   65 type  2   force =     0.00075330    0.00258659   -0.00895534
     atom   66 type  1   force =     0.00060836    0.00185361   -0.00086970
     atom   67 type  1   force =    -0.00110100   -0.00169834    0.00141923
     atom   68 type  2   force =     0.00081726   -0.00236636    0.00821131
     atom   69 type  2   force =    -0.00722431   -0.00112916   -0.00074578
     atom   70 type  2   force =     0.00044113    0.00289754   -0.00896064
     atom   71 type  1   force =    -0.00071849    0.00163985   -0.00102704
     atom   72 type  1   force =    -0.00075674   -0.00303720    0.00083090
     atom   73 type  2   force =     0.00077794   -0.00303823    0.00867782
     atom   74 type  2   force =    -0.00678602   -0.00086320   -0.00039452
     atom   75 type  2   force =     0.00069029    0.00269071   -0.00820039
     atom   76 type  1   force =     0.00091409    0.00391731   -0.00084980
     atom   77 type  1   force =     0.00119897   -0.00220428    0.00169516
     atom   78 type  2   force =     0.00121962   -0.00288928    0.00793625
     atom   79 type  2   force =    -0.00707178   -0.00033416    0.00069541
     atom   80 type  2   force =    -0.00010588    0.00279571   -0.00757028
     The Hubbard contrib.    to forces
     atom    1 type  1   force =     0.00000000    0.00000000    0.00000000
     atom    2 type  1   force =     0.00000000    0.00000000    0.00000000
     atom    3 type  2   force =     0.00000000    0.00000000    0.00000000
     atom    4 type  2   force =     0.00000000    0.00000000    0.00000000
     atom    5 type  2   force =     0.00000000    0.00000000    0.00000000
     atom    6 type  1   force =     0.00000000    0.00000000    0.00000000
     atom    7 type  1   force =     0.00000000    0.00000000    0.00000000
     atom    8 type  2   force =     0.00000000    0.00000000    0.00000000
     atom    9 type  2   force =     0.00000000    0.00000000    0.00000000
     atom   10 type  2   force =     0.00000000    0.00000000    0.00000000
     atom   11 type  1   force =     0.00000000    0.00000000    0.00000000
     atom   12 type  1   force =     0.00000000    0.00000000    0.00000000
     atom   13 type  2   force =     0.00000000    0.00000000    0.00000000
     atom   14 type  2   force =     0.00000000    0.00000000    0.00000000
     atom   15 type  2   force =     0.00000000    0.00000000    0.00000000
     atom   16 type  1   force =     0.00000000    0.00000000    0.00000000
     atom   17 type  1   force =     0.00000000    0.00000000    0.00000000
     atom   18 type  2   force =     0.00000000    0.00000000    0.00000000
     atom   19 type  2   force =     0.00000000    0.00000000    0.00000000
     atom   20 type  2   force =     0.00000000    0.00000000    0.00000000
     atom   21 type  1   force =     0.00000000    0.00000000    0.00000000
     atom   22 type  1   force =     0.00000000    0.00000000    0.00000000
     atom   23 type  2   force =     0.00000000    0.00000000    0.00000000
     atom   24 type  2   force =     0.00000000    0.00000000    0.00000000
     atom   25 type  2   force =     0.00000000    0.00000000    0.00000000
     atom   26 type  1   force =     0.00000000    0.00000000    0.00000000
     atom   27 type  1   force =     0.00000000    0.00000000    0.00000000
     atom   28 type  2   force =     0.00000000    0.00000000    0.00000000
     atom   29 type  2   force =     0.00000000    0.00000000    0.00000000
     atom   30 type  2   force =     0.00000000    0.00000000    0.00000000
     atom   31 type  1   force =     0.00000000    0.00000000    0.00000000
     atom   32 type  1   force =     0.00000000    0.00000000    0.00000000
     atom   33 type  2   force =     0.00000000    0.00000000    0.00000000
     atom   34 type  2   force =     0.00000000    0.00000000    0.00000000
     atom   35 type  2   force =     0.00000000    0.00000000    0.00000000
     atom   36 type  1   force =     0.00000000    0.00000000    0.00000000
     atom   37 type  1   force =     0.00000000    0.00000000    0.00000000
     atom   38 type  2   force =     0.00000000    0.00000000    0.00000000
     atom   39 type  2   force =     0.00000000    0.00000000    0.00000000
     atom   40 type  2   force =     0.00000000    0.00000000    0.00000000
     atom   41 type  1   force =     0.00000000    0.00000000    0.00000000
     atom   42 type  1   force =     0.00000000    0.00000000    0.00000000
     atom   43 type  2   force =     0.00000000    0.00000000    0.00000000
     atom   44 type  2   force =     0.00000000    0.00000000    0.00000000
     atom   45 type  2   force =     0.00000000    0.00000000    0.00000000
     atom   46 type  1   force =     0.00000000    0.00000000    0.00000000
     atom   47 type  1   force =     0.00000000    0.00000000    0.00000000
     atom   48 type  2   force =     0.00000000    0.00000000    0.00000000
     atom   49 type  2   force =     0.00000000    0.00000000    0.00000000
     atom   50 type  2   force =     0.00000000    0.00000000    0.00000000
     atom   51 type  1   force =     0.00000000    0.00000000    0.00000000
     atom   52 type  1   force =     0.00000000    0.00000000    0.00000000
     atom   53 type  2   force =     0.00000000    0.00000000    0.00000000
     atom   54 type  2   force =     0.00000000    0.00000000    0.00000000
     atom   55 type  2   force =     0.00000000    0.00000000    0.00000000
     atom   56 type  1   force =     0.00000000    0.00000000    0.00000000
     atom   57 type  1   force =     0.00000000    0.00000000    0.00000000
     atom   58 type  2   force =     0.00000000    0.00000000    0.00000000
     atom   59 type  2   force =     0.00000000    0.00000000    0.00000000
     atom   60 type  2   force =     0.00000000    0.00000000    0.00000000
     atom   61 type  1   force =     0.00000000    0.00000000    0.00000000
     atom   62 type  1   force =     0.00000000    0.00000000    0.00000000
     atom   63 type  2   force =     0.00000000    0.00000000    0.00000000
     atom   64 type  2   force =     0.00000000    0.00000000    0.00000000
     atom   65 type  2   force =     0.00000000    0.00000000    0.00000000
     atom   66 type  1   force =     0.00000000    0.00000000    0.00000000
     atom   67 type  1   force =     0.00000000    0.00000000    0.00000000
     atom   68 type  2   force =     0.00000000    0.00000000    0.00000000
     atom   69 type  2   force =     0.00000000    0.00000000    0.00000000
     atom   70 type  2   force =     0.00000000    0.00000000    0.00000000
     atom   71 type  1   force =     0.00000000    0.00000000    0.00000000
     atom   72 type  1   force =     0.00000000    0.00000000    0.00000000
     atom   73 type  2   force =     0.00000000    0.00000000    0.00000000
     atom   74 type  2   force =     0.00000000    0.00000000    0.00000000
     atom   75 type  2   force =     0.00000000    0.00000000    0.00000000
     atom   76 type  1   force =     0.00000000    0.00000000    0.00000000
     atom   77 type  1   force =     0.00000000    0.00000000    0.00000000
     atom   78 type  2   force =     0.00000000    0.00000000    0.00000000
     atom   79 type  2   force =     0.00000000    0.00000000    0.00000000
     atom   80 type  2   force =     0.00000000    0.00000000    0.00000000
     The SCF correction term to forces
     atom    1 type  1   force =     0.00000078    0.00000444   -0.00000312
     atom    2 type  1   force =     0.00000438   -0.00000833    0.00001618
     atom    3 type  2   force =     0.00000325    0.00000378    0.00000493
     atom    4 type  2   force =    -0.00000300   -0.00000138    0.00000787
     atom    5 type  2   force =    -0.00000099    0.00000715    0.00000406
     atom    6 type  1   force =     0.00000873   -0.00000180    0.00001720
     atom    7 type  1   force =    -0.00000298   -0.00001234   -0.00001629
     atom    8 type  2   force =     0.00000012   -0.00000125    0.00000418
     atom    9 type  2   force =     0.00000002   -0.00000186    0.00000056
     atom   10 type  2   force =     0.00000205   -0.00000192    0.00000393
     atom   11 type  1   force =     0.00001430   -0.00000829    0.00000441
     atom   12 type  1   force =     0.00002695   -0.00004338   -0.00002733
     atom   13 type  2   force =     0.00000019   -0.00000060    0.00001026
     atom   14 type  2   force =     0.00000054   -0.00000624    0.00001032
     atom   15 type  2   force =     0.00000469   -0.00000142    0.00000650
     atom   16 type  1   force =    -0.00002053    0.00001499   -0.00000973
     atom   17 type  1   force =     0.00001620   -0.00001058   -0.00003883
     atom   18 type  2   force =    -0.00000075    0.00000121   -0.00000101
     atom   19 type  2   force =     0.00000060   -0.00000512    0.00000092
     atom   20 type  2   force =    -0.00000191    0.00000636   -0.00001027
     atom   21 type  1   force =     0.00000529    0.00000081    0.00000710
     atom   22 type  1   force =     0.00002219    0.00000437   -0.00004867
     atom   23 type  2   force =     0.00000175    0.00000403    0.00000347
     atom   24 type  2   force =    -0.00000281   -0.00000171    0.00001112
     atom   25 type  2   force =     0.00000046    0.00000807    0.00000327
     atom   26 type  1   force =     0.00001308    0.00000878   -0.00001598
     atom   27 type  1   force =    -0.00000306    0.00000012    0.00000637
     atom   28 type  2   force =     0.00000017   -0.00000107   -0.00000129
     atom   29 type  2   force =     0.00000021    0.00000319   -0.00000330
     atom   30 type  2   force =     0.00000071    0.00000150   -0.00000275
     atom   31 type  1   force =     0.00007248   -0.00001894    0.00004223
     atom   32 type  1   force =    -0.00002670   -0.00000051    0.00002737
     atom   33 type  2   force =     0.00000274   -0.00000342    0.00001351
     atom   34 type  2   force =     0.00000392   -0.00000322    0.00000445
     atom   35 type  2   force =     0.00000095   -0.00000595    0.00000572
     atom   36 type  1   force =     0.00003183    0.00002031   -0.00003221
     atom   37 type  1   force =    -0.00001218   -0.00001653   -0.00000754
     atom   38 type  2   force =    -0.00000258    0.00000367   -0.00000534
     atom   39 type  2   force =    -0.00000056   -0.00000912   -0.00000125
     atom   40 type  2   force =     0.00000542    0.00000203   -0.00001058
     atom   41 type  1   force =    -0.00000190    0.00000477    0.00002507
     atom   42 type  1   force =     0.00000449    0.00003314   -0.00002983
     atom   43 type  2   force =     0.00000139    0.00000432    0.00000445
     atom   44 type  2   force =     0.00000160   -0.00000526    0.00001046
     atom   45 type  2   force =    -0.00000018    0.00000634    0.00000417
     atom   46 type  1   force =    -0.00000537   -0.00001184    0.00001577
     atom   47 type  1   force =     0.00001362   -0.00000021   -0.00000319
     atom   48 type  2   force =    -0.00000118   -0.00000183    0.00000017
     atom   49 type  2   force =     0.00000166    0.00000197   -0.00000186
     atom   50 type  2   force =    -0.00000268   -0.00000066   -0.00000041
     atom   51 type  1   force =    -0.00001800   -0.00002615    0.00004372
     atom   52 type  1   force =    -0.00000121    0.00000156    0.00001068
     atom   53 type  2   force =     0.00000122   -0.00000243    0.00000871
     atom   54 type  2   force =    -0.00000006   -0.00000178    0.00001073
     atom   55 type  2   force =    -0.00000115   -0.00000281    0.00001080
     atom   56 type  1   force =     0.00002079   -0.00002050   -0.00001287
     atom   57 type  1   force =     0.00000585   -0.00000083   -0.00001055
     atom   58 type  2   force =     0.00000599   -0.00000047   -0.00000273
     atom   59 type  2   force =     0.00000145    0.00000120   -0.00000261
     atom   60 type  2   force =    -0.00000132   -0.00000042   -0.00000115
     atom   61 type  1   force =    -0.00000128    0.00000209    0.00002830
     atom   62 type  1   force =    -0.00000405    0.00002985    0.00001014
     atom   63 type  2   force =    -0.00000444    0.00000358    0.00000618
     atom   64 type  2   force =     0.00000100   -0.00000139    0.00000825
     atom   65 type  2   force =     0.00000139    0.00000123    0.00000194
     atom   66 type  1   force =    -0.00001037    0.00000425    0.00000059
     atom   67 type  1   force =     0.00001596   -0.00004279   -0.00002246
     atom   68 type  2   force =    -0.00000111   -0.00000160   -0.00000013
     atom   69 type  2   force =    -0.00000186    0.00000031    0.00000032
     atom   70 type  2   force =    -0.00000248   -0.00000301    0.00000348
     atom   71 type  1   force =     0.00002428   -0.00001972    0.00002615
     atom   72 type  1   force =    -0.00000129   -0.00002819    0.00003692
     atom   73 type  2   force =    -0.00000468   -0.00000001    0.00001145
     atom   74 type  2   force =    -0.00000320    0.00000150    0.00000748
     atom   75 type  2   force =    -0.00000376    0.00000115    0.00000859
     atom   76 type  1   force =     0.00005445    0.00001734   -0.00002860
     atom   77 type  1   force =    -0.00002957    0.00000446    0.00000144
     atom   78 type  2   force =    -0.00000209    0.00000132    0.00000176
     atom   79 type  2   force =    -0.00000258    0.00000135   -0.00000027
     atom   80 type  2   force =    -0.00000240    0.00000182   -0.00000147

     Total force =     0.273718     Total SCF correction =     0.000215


     Computing stress (Cartesian axis) and pressure


     negative rho (up, down):  3.303E-03 0.000E+00
          total   stress  (Ry/bohr**3)                   (kbar)     P=       -5.10
  -0.00002844   0.00000697  -0.00000255           -4.18        1.03       -0.37
   0.00000697  -0.00007161  -0.00000011            1.03      -10.53       -0.02
  -0.00000255  -0.00000011  -0.00000405           -0.37       -0.02       -0.60

     kinetic stress (kbar)   4914.79      2.21     -0.61
                                2.21   4908.92     -4.89
                               -0.61     -4.89   4909.15

     local   stress (kbar)-444445.62    111.51     11.84
                              111.51-441640.39  -1509.81
                               11.84  -1509.81 442224.12

     nonloc. stress (kbar)   -238.12      6.99     -2.04
                                6.99   -284.40     13.17
                               -2.04     13.17   -109.02

     hartree stress (kbar) 224376.61    -23.46    -10.53
                              -23.46 222923.96    687.42
                              -10.53    687.42-215080.95

     exc-cor stress (kbar)    595.32     -0.40      0.10
                               -0.40    597.52     -0.46
                                0.10     -0.46    586.47

     corecor stress (kbar)  -2382.54      0.03     -0.01
                                0.03  -2382.73      0.16
                               -0.01      0.16  -2381.73

     ewald   stress (kbar) 217175.37    -95.85      0.87
                              -95.85 215866.59    814.39
                                0.87    814.39-230148.63

     hubbard stress (kbar)      0.00      0.00      0.00
                                0.00      0.00      0.00
                                0.00      0.00      0.00

     DFT-D   stress (kbar)      0.00      0.00      0.00
                                0.00      0.00      0.00
                                0.00      0.00      0.00

     XDM     stress (kbar)      0.00      0.00      0.00
                                0.00      0.00      0.00
                                0.00      0.00      0.00

     dft-nl  stress (kbar)      0.00      0.00      0.00
                                0.00      0.00      0.00
                                0.00      0.00      0.00

     TS-vdW  stress (kbar)      0.00      0.00      0.00
                                0.00      0.00      0.00
                                0.00      0.00      0.00


                                0.00      0.00      0.00
                                0.00      0.00      0.00


                                0.00      0.00      0.00


     Entering Dynamics:    iteration =     8
                           time      =   0.0077 pico-seconds


     Canonical sampling velocity rescaling

ATOMIC_POSITIONS (crystal)
Ga            0.2009202322        0.3551747607        0.4081708663
Ga            0.1240197048        0.1551623315        0.3859428263
O             0.0883171321        0.2908093157        0.4296742551
O             0.1300299578        0.0042823792        0.3975810978
O             0.2285789269        0.2182625228        0.3646451938
Ga            0.2011509890        0.3537365860        0.6143022132
Ga            0.1226742550        0.1530923159        0.5917208408
O             0.0917896911        0.2898474402        0.6366265368
O             0.1306476275        0.0042148397        0.6001838393
O             0.2300329675        0.2223157008        0.5692150447
Ga            0.2025985378        0.8552850515        0.4076514442
Ga            0.1248576051        0.6534765207        0.3846708607
O             0.0950719114        0.7876117040        0.4293850318
O             0.1274449977        0.5041387194        0.3962924085
O             0.2292204915        0.7196698921        0.3636408676
Ga            0.2022209276        0.8540180339        0.6142263740
Ga            0.1230829066        0.6560109814        0.5906311661
O             0.0891434006        0.7890402696        0.6368357593
O             0.1288877370        0.5066741944        0.6027522301
O             0.2308256291        0.7212590900        0.5711999883
Ga            0.4517373050        0.3540259515        0.4084150089
Ga            0.3725444223        0.1545989438        0.3865635930
O             0.3395426010        0.2883202577        0.4304316014
O             0.3814010027       -0.0004214072        0.3971849661
O             0.4804914481        0.2176992803        0.3629160242
Ga            0.4518317153        0.3552750947        0.6146559935
Ga            0.3708442529        0.1556574092        0.5919529388
O             0.3402333094        0.2892387174        0.6369177450
O             0.3775068979        0.0088934260        0.6035144844
O             0.4808046062        0.2188944715        0.5717842694
Ga            0.4527185046        0.8557552039        0.4081655682
Ga            0.3719296149        0.6564174744        0.3854963329
O             0.3384830993        0.7885201978        0.4287691431
O             0.3775077160        0.5038481311        0.3985279139
O             0.4769168965        0.7233591927        0.3650513585
Ga            0.4509132288        0.8551576775        0.6145801607
Ga            0.3706861190        0.6539483119        0.5909954470
O             0.3418984070        0.7862984135        0.6367954451
O             0.3832456356        0.5027941341        0.6042327596
O             0.4804377091        0.7257038039        0.5704282701
Ga            0.7008774047        0.3547910728        0.4078315958
Ga            0.6211388485        0.1561210029        0.3862337390
O             0.5895159351        0.2864862523        0.4286135860
O             0.6313454644        0.0018404348        0.3974700302
O             0.7316356108        0.2213776692        0.3619109084
Ga            0.6991310835        0.3562980952        0.6149257714
Ga            0.6211550248        0.1560990694        0.5913865560
O             0.5858459223        0.2921173809        0.6365785493
O             0.6315507277        0.0008500242        0.6040785331
O             0.7309370792        0.2194546158        0.5708926139
Ga            0.7021456210        0.8547443186        0.4086321915
Ga            0.6228816162        0.6537906849        0.3860208159
O             0.5930130048        0.7849769829        0.4294952650
O             0.6305007141        0.5028104090        0.3979499283
O             0.7322673651        0.7242782696        0.3626732773
Ga            0.7008755484        0.8560372595        0.6142991253
Ga            0.6218182979        0.6546609775        0.5917304615
O             0.5886602018        0.7855635133        0.6365453955
O             0.6290898548        0.5019039808        0.6033932817
O             0.7286455340        0.7224246594        0.5708679443
Ga            0.9492936558        0.3574395200        0.4077914396
Ga            0.8720689676        0.1576798725        0.3856997927
O             0.8376066248        0.2918602290        0.4284395147
O             0.8804888288        0.0032684938        0.3954773640
O             0.9809561275        0.2190435356        0.3628313407
Ga            0.9520340930        0.3544770073        0.6151094487
Ga            0.8704925338        0.1559989480        0.5926188050
O             0.8393952785        0.2871065695        0.6355765519
O             0.8829897498        0.0004089313        0.6021422665
O             0.9839925773        0.2232992782        0.5695533039
Ga            0.9508579968        0.8518921444        0.4086357915
Ga            0.8710686758        0.6538526695        0.3852412992
O             0.8411957244        0.7846429812        0.4307590708
O             0.8815852196        0.5025479835        0.3956365890
O             0.9842655688        0.7193937467        0.3645135132
Ga            0.9530617110        0.8556661152        0.6143954883
Ga            0.8710520713        0.6565117688        0.5918771773
O             0.8418235456        0.7846976844        0.6350697602
O             0.8804454401        0.5062740789        0.6046967287
O             0.9788431425        0.7212098541        0.5710090095


     kinetic energy (Ekin) =           0.17187382 Ry
     temperature           =         229.00194042 K 
     Ekin + Etot (const)   =      -10895.83804630 Ry
     Ions kinetic stress =            0.56 (kbar)
                                      0.50          -0.05          -0.10
                                     -0.05           0.48           0.01
                                     -0.10           0.01           0.71



     Linear momentum :    0.0000000000    0.0000000000   -0.0000000000

     Writing config-only to output data dir ./tmp/md/Ga2O3-BL-001-4x2x1-300K.save/

     second order wave-functions extrapolation
     second order charge density extrapolation

     negative rho (up, down):  3.296E-03 0.000E+00

     total cpu time spent up to now is    28751.2 secs

     Self-consistent Calculation

     iteration #  1     ecut=    80.00 Ry     beta= 0.20
     Davidson diagonalization with overlap

---- Real-time Memory Report at c_bands before calling an iterative solver
          1660 MiB given to the printing process from OS
             0 MiB allocation reported by mallinfo(arena+hblkhd)
        348123 MiB available memory on the node where the printing process lives
------------------
     ethr =  1.00E-06,  avg # of iterations =  2.0

     Threshold (ethr) on eigenvalues was too large:
     Diagonalizing with lowered threshold

     Davidson diagonalization with overlap

---- Real-time Memory Report at c_bands before calling an iterative solver
          1660 MiB given to the printing process from OS
             0 MiB allocation reported by mallinfo(arena+hblkhd)
        348177 MiB available memory on the node where the printing process lives
------------------
     ethr =  1.36E-10,  avg # of iterations = 13.0

     negative rho (up, down):  3.296E-03 0.000E+00

     total cpu time spent up to now is    28988.3 secs

     total energy              =  -10895.99839733 Ry
     estimated scf accuracy    <       0.00000199 Ry

     iteration #  2     ecut=    80.00 Ry     beta= 0.20
     Davidson diagonalization with overlap

---- Real-time Memory Report at c_bands before calling an iterative solver
          1660 MiB given to the printing process from OS
             0 MiB allocation reported by mallinfo(arena+hblkhd)
        347964 MiB available memory on the node where the printing process lives
------------------
     ethr =  2.83E-10,  avg # of iterations =  1.8

     negative rho (up, down):  3.297E-03 0.000E+00

     total cpu time spent up to now is    29050.0 secs

     total energy              =  -10895.99839628 Ry
     estimated scf accuracy    <       0.00000111 Ry

     iteration #  3     ecut=    80.00 Ry     beta= 0.20
     Davidson diagonalization with overlap

---- Real-time Memory Report at c_bands before calling an iterative solver
          1660 MiB given to the printing process from OS
             0 MiB allocation reported by mallinfo(arena+hblkhd)
        347796 MiB available memory on the node where the printing process lives
------------------
     ethr =  1.57E-10,  avg # of iterations =  7.0

     negative rho (up, down):  3.297E-03 0.000E+00

     total cpu time spent up to now is    29165.8 secs

     total energy              =  -10895.99839748 Ry
     estimated scf accuracy    <       0.00000125 Ry

     iteration #  4     ecut=    80.00 Ry     beta= 0.20
     Davidson diagonalization with overlap

---- Real-time Memory Report at c_bands before calling an iterative solver
          1660 MiB given to the printing process from OS
             0 MiB allocation reported by mallinfo(arena+hblkhd)
        347688 MiB available memory on the node where the printing process lives
------------------
     ethr =  1.57E-10,  avg # of iterations =  6.5

     negative rho (up, down):  3.297E-03 0.000E+00

     total cpu time spent up to now is    29265.3 secs

     total energy              =  -10895.99839664 Ry
     estimated scf accuracy    <       0.00000519 Ry

     iteration #  5     ecut=    80.00 Ry     beta= 0.20
     Davidson diagonalization with overlap

---- Real-time Memory Report at c_bands before calling an iterative solver
          1660 MiB given to the printing process from OS
             0 MiB allocation reported by mallinfo(arena+hblkhd)
        347679 MiB available memory on the node where the printing process lives
------------------
     ethr =  1.57E-10,  avg # of iterations =  6.2

     negative rho (up, down):  3.297E-03 0.000E+00

     total cpu time spent up to now is    29363.0 secs

     total energy              =  -10895.99839665 Ry
     estimated scf accuracy    <       0.00000142 Ry

     iteration #  6     ecut=    80.00 Ry     beta= 0.20
     Davidson diagonalization with overlap

---- Real-time Memory Report at c_bands before calling an iterative solver
          1660 MiB given to the printing process from OS
             0 MiB allocation reported by mallinfo(arena+hblkhd)
        347598 MiB available memory on the node where the printing process lives
------------------
     ethr =  1.57E-10,  avg # of iterations =  3.0

     negative rho (up, down):  3.297E-03 0.000E+00

     total cpu time spent up to now is    29428.7 secs

     total energy              =  -10895.99839659 Ry
     estimated scf accuracy    <       0.00000052 Ry

     iteration #  7     ecut=    80.00 Ry     beta= 0.20
     Davidson diagonalization with overlap

---- Real-time Memory Report at c_bands before calling an iterative solver
          1660 MiB given to the printing process from OS
             0 MiB allocation reported by mallinfo(arena+hblkhd)
        347472 MiB available memory on the node where the printing process lives
------------------
     ethr =  7.42E-11,  avg # of iterations =  7.2

     negative rho (up, down):  3.297E-03 0.000E+00

     total cpu time spent up to now is    29525.7 secs

     total energy              =  -10895.99839680 Ry
     estimated scf accuracy    <       0.00000009 Ry

     iteration #  8     ecut=    80.00 Ry     beta= 0.20
     Davidson diagonalization with overlap

---- Real-time Memory Report at c_bands before calling an iterative solver
          1660 MiB given to the printing process from OS
             0 MiB allocation reported by mallinfo(arena+hblkhd)
        347366 MiB available memory on the node where the printing process lives
------------------
     ethr =  1.23E-11,  avg # of iterations = 12.0

     negative rho (up, down):  3.297E-03 0.000E+00

     total cpu time spent up to now is    29634.5 secs

     total energy              =  -10895.99839683 Ry
     estimated scf accuracy    <       0.00000005 Ry

     iteration #  9     ecut=    80.00 Ry     beta= 0.20
     Davidson diagonalization with overlap

---- Real-time Memory Report at c_bands before calling an iterative solver
          1660 MiB given to the printing process from OS
             0 MiB allocation reported by mallinfo(arena+hblkhd)
        347273 MiB available memory on the node where the printing process lives
------------------
     ethr =  6.49E-12,  avg # of iterations =  5.0

     negative rho (up, down):  3.297E-03 0.000E+00

     total cpu time spent up to now is    29709.9 secs

     total energy              =  -10895.99839685 Ry
     estimated scf accuracy    <       0.00000004 Ry

     iteration # 10     ecut=    80.00 Ry     beta= 0.20
     Davidson diagonalization with overlap

---- Real-time Memory Report at c_bands before calling an iterative solver
          1660 MiB given to the printing process from OS
             0 MiB allocation reported by mallinfo(arena+hblkhd)
        347189 MiB available memory on the node where the printing process lives
------------------
     ethr =  5.71E-12,  avg # of iterations =  7.0

     negative rho (up, down):  3.297E-03 0.000E+00

     total cpu time spent up to now is    29788.3 secs

     total energy              =  -10895.99839683 Ry
     estimated scf accuracy    <       0.00000004 Ry

     iteration # 11     ecut=    80.00 Ry     beta= 0.20
     Davidson diagonalization with overlap

---- Real-time Memory Report at c_bands before calling an iterative solver
          1660 MiB given to the printing process from OS
             0 MiB allocation reported by mallinfo(arena+hblkhd)
        347158 MiB available memory on the node where the printing process lives
------------------
     ethr =  5.07E-12,  avg # of iterations = 12.8

     negative rho (up, down):  3.297E-03 0.000E+00

     total cpu time spent up to now is    29882.6 secs

     total energy              =  -10895.99839683 Ry
     estimated scf accuracy    <       0.00000002 Ry

     iteration # 12     ecut=    80.00 Ry     beta= 0.20
     Davidson diagonalization with overlap

---- Real-time Memory Report at c_bands before calling an iterative solver
          1660 MiB given to the printing process from OS
             0 MiB allocation reported by mallinfo(arena+hblkhd)
        347177 MiB available memory on the node where the printing process lives
------------------
     ethr =  2.97E-12,  avg # of iterations = 13.5

     negative rho (up, down):  3.298E-03 0.000E+00

     total cpu time spent up to now is    30020.8 secs

     End of self-consistent calculation

          k = 0.0000 0.0000 0.0000 (360677 PWs)   bands (ev):

   -25.2531 -25.2182 -25.1609 -25.1003 -24.9666 -24.9298 -24.9105 -24.8723
   -24.8067 -24.7916 -24.7527 -24.7256 -24.5340 -24.4425 -24.4266 -24.3863
   -24.3762 -24.3330 -24.3083 -24.2749 -24.2715 -24.2188 -24.2068 -24.1751
   -24.1462 -24.1162 -24.0923 -24.0793 -24.0768 -24.0680 -24.0420 -24.0189
   -24.0116 -23.9841 -23.9834 -23.9475 -23.9206 -23.8950 -23.8796 -23.8762
   -23.8540 -23.8205 -23.7783 -23.7537 -23.6630 -23.6490 -23.6208 -23.4435
   -20.2944 -20.2388 -20.2162 -20.2036 -20.1807 -20.1690 -20.1613 -20.1561
   -20.1534 -20.1517 -20.1369 -20.1313 -20.1256 -20.1201 -20.1181 -20.1014
   -20.0964 -20.0960 -20.0923 -20.0908 -20.0793 -20.0765 -20.0689 -20.0633
   -20.0617 -20.0617 -20.0521 -20.0473 -20.0415 -20.0355 -20.0349 -20.0314
   -20.0232 -20.0186 -20.0144 -20.0108 -20.0101 -20.0025 -19.9967 -19.9931
   -19.9850 -19.9847 -19.9828 -19.9784 -19.9702 -19.9668 -19.9638 -19.9562
   -19.9523 -19.9492 -19.9461 -19.9436 -19.9365 -19.9262 -19.9261 -19.9188
   -19.9172 -19.9121 -19.9112 -19.9041 -19.9034 -19.9028 -19.8931 -19.8917
   -19.8842 -19.8835 -19.8770 -19.8763 -19.8695 -19.8647 -19.8623 -19.8610
   -19.8575 -19.8549 -19.8535 -19.8492 -19.8481 -19.8479 -19.8420 -19.8410
   -19.8310 -19.8294 -19.8271 -19.8197 -19.8122 -19.8087 -19.8078 -19.8016
   -19.7973 -19.7963 -19.7911 -19.7821 -19.7721 -19.7681 -19.7646 -19.7594
   -19.7570 -19.7540 -19.7476 -19.7407 -19.7362 -19.7309 -19.7272 -19.7228
   -19.7155 -19.7106 -19.7025 -19.7020 -19.6866 -19.6779 -19.6721 -19.6653
   -19.6508 -19.6476 -19.6381 -19.6063 -19.5984 -19.5900 -19.5848 -19.5792
   -19.5782 -19.5716 -19.5250 -19.5201 -19.5115 -19.4833 -19.4584 -19.4461
   -19.4353 -19.4279 -19.4167 -19.3858 -19.3730 -19.3383 -19.3233 -19.3163
   -19.3081 -19.2854 -19.2709 -19.2465 -19.1994 -19.1929 -19.1787 -19.1701
   -19.1607 -19.1335 -19.1161 -19.1079 -19.0775 -19.0596 -19.0488 -19.0330
   -19.0135 -18.9931 -18.9904 -18.9652 -18.9593 -18.9414 -18.9312 -18.8611
   -13.2023 -13.1624 -13.1052 -13.0976 -13.0071 -12.9551 -12.8526 -12.8368
   -12.8354 -12.7844 -12.5707 -12.5623 -12.4823 -12.4621 -12.3018 -12.2944
   -12.2704 -12.2554 -11.7411 -11.7375 -11.6612 -11.6255 -11.5812 -11.5685
   -11.3252 -11.3087 -11.3021 -11.2630 -10.9442 -10.9328 -10.8997 -10.8887
   -10.8551 -10.7395 -10.7243 -10.6866 -10.6749 -10.6321 -10.6207 -10.5866
   -10.5783 -10.5363 -10.5210 -10.5172 -10.4697 -10.4146 -10.0823 -10.0718
   -10.0383  -9.9889  -9.9758  -9.9418  -9.8837  -9.8543  -9.7984  -9.7798
    -9.7408  -9.7268  -9.4743  -9.4444  -9.4273  -9.4052  -9.3442  -9.2893
    -9.2802  -9.2732  -9.2616  -9.2566  -9.2199  -9.1857  -9.0336  -9.0244
    -9.0110  -8.9937  -8.8112  -8.7917  -8.7076  -8.6837  -8.6540  -8.6411
    -8.6378  -8.6104  -8.6031  -8.5924  -8.5560  -8.5411  -8.5253  -8.5215
    -8.5131  -8.4937  -8.4809  -8.4711  -8.3427  -8.3084  -8.2996  -8.2721
    -8.2436  -8.2331  -8.2168  -8.1887  -8.1850  -8.1745  -7.9562  -7.9230
    -7.9037  -7.8614  -7.8511  -7.8417  -7.8248  -7.8102  -7.7961  -7.7866
    -7.7364  -7.7312  -7.7077  -7.6905  -7.6820  -7.6708  -7.6368  -7.6142
    -7.6028  -7.5812  -7.5630  -7.5557  -7.5429  -7.5355  -7.5286  -7.5141
    -7.5061  -7.4918  -7.4515  -7.4456  -7.4236  -7.4091  -7.4027  -7.3718
    -7.3662  -7.3043  -7.2998  -7.2490  -7.1992  -7.1464  -7.0518  -6.9917

     occupation numbers 
     1.0000   1.0000   1.0000   1.0000   1.0000   1.0000   1.0000   1.0000
     1.0000   1.0000   1.0000   1.0000   1.0000   1.0000   1.0000   1.0000
     1.0000   1.0000   1.0000   1.0000   1.0000   1.0000   1.0000   1.0000
     1.0000   1.0000   1.0000   1.0000   1.0000   1.0000   1.0000   1.0000
     1.0000   1.0000   1.0000   1.0000   1.0000   1.0000   1.0000   1.0000
     1.0000   1.0000   1.0000   1.0000   1.0000   1.0000   1.0000   1.0000
     1.0000   1.0000   1.0000   1.0000   1.0000   1.0000   1.0000   1.0000
     1.0000   1.0000   1.0000   1.0000   1.0000   1.0000   1.0000   1.0000
     1.0000   1.0000   1.0000   1.0000   1.0000   1.0000   1.0000   1.0000
     1.0000   1.0000   1.0000   1.0000   1.0000   1.0000   1.0000   1.0000
     1.0000   1.0000   1.0000   1.0000   1.0000   1.0000   1.0000   1.0000
     1.0000   1.0000   1.0000   1.0000   1.0000   1.0000   1.0000   1.0000
     1.0000   1.0000   1.0000   1.0000   1.0000   1.0000   1.0000   1.0000
     1.0000   1.0000   1.0000   1.0000   1.0000   1.0000   1.0000   1.0000
     1.0000   1.0000   1.0000   1.0000   1.0000   1.0000   1.0000   1.0000
     1.0000   1.0000   1.0000   1.0000   1.0000   1.0000   1.0000   1.0000
     1.0000   1.0000   1.0000   1.0000   1.0000   1.0000   1.0000   1.0000
     1.0000   1.0000   1.0000   1.0000   1.0000   1.0000   1.0000   1.0000
     1.0000   1.0000   1.0000   1.0000   1.0000   1.0000   1.0000   1.0000
     1.0000   1.0000   1.0000   1.0000   1.0000   1.0000   1.0000   1.0000
     1.0000   1.0000   1.0000   1.0000   1.0000   1.0000   1.0000   1.0000
     1.0000   1.0000   1.0000   1.0000   1.0000   1.0000   1.0000   1.0000
     1.0000   1.0000   1.0000   1.0000   1.0000   1.0000   1.0000   1.0000
     1.0000   1.0000   1.0000   1.0000   1.0000   1.0000   1.0000   1.0000
     1.0000   1.0000   1.0000   1.0000   1.0000   1.0000   1.0000   1.0000
     1.0000   1.0000   1.0000   1.0000   1.0000   1.0000   1.0000   1.0000
     1.0000   1.0000   1.0000   1.0000   1.0000   1.0000   1.0000   1.0000
     1.0000   1.0000   1.0000   1.0000   1.0000   1.0000   1.0000   1.0000
     1.0000   1.0000   1.0000   1.0000   1.0000   1.0000   1.0000   1.0000
     1.0000   1.0000   1.0000   1.0000   1.0000   1.0000   1.0000   1.0000
     1.0000   1.0000   1.0000   1.0000   1.0000   1.0000   1.0000   1.0000
     1.0000   1.0000   1.0000   1.0000   1.0000   1.0000   1.0000   1.0000
     1.0000   1.0000   1.0000   1.0000   1.0000   1.0000   1.0000   1.0000
     1.0000   1.0000   1.0000   1.0000   1.0000   1.0000   1.0000   1.0000
     1.0000   1.0000   1.0000   1.0000   1.0000   1.0000   1.0000   1.0000
     1.0000   1.0000   1.0000   1.0000   1.0000   1.0000   1.0000   1.0000
     1.0000   1.0000   1.0000   1.0000   1.0000   1.0000   1.0000   1.0000
     1.0000   1.0000   1.0000   1.0000   1.0000   1.0000   1.0000   1.0000
     1.0000   1.0000   1.0000   1.0000   1.0000   1.0000   1.0000   1.0000
     1.0000   1.0000   1.0000   1.0000   1.0000   1.0000   1.0000   1.0000
     1.0000   1.0000   1.0000   1.0000   1.0000   1.0000   1.0000   1.0000
     1.0000   1.0000   1.0000   1.0000   1.0000   1.0000   1.0000   1.0000
     1.0000   1.0000   1.0000   1.0000   1.0000   1.0000   1.0000   1.0000
     1.0000   1.0000   1.0000   1.0000   1.0000   1.0000   1.0000   1.0000

          k = 0.0247-0.5725 0.0000 (360514 PWs)   bands (ev):

   -25.2432 -25.1927 -25.1856 -25.1148 -24.9663 -24.9285 -24.9145 -24.8724
   -24.8071 -24.7963 -24.7534 -24.7233 -24.5344 -24.4425 -24.4255 -24.3826
   -24.3774 -24.3282 -24.3006 -24.2730 -24.2722 -24.2247 -24.2085 -24.1672
   -24.1385 -24.1128 -24.0915 -24.0785 -24.0683 -24.0676 -24.0595 -24.0213
   -24.0167 -23.9833 -23.9811 -23.9578 -23.9149 -23.8942 -23.8792 -23.8777
   -23.8560 -23.8203 -23.7775 -23.7535 -23.6638 -23.6502 -23.6208 -23.4435
   -20.2901 -20.2356 -20.2090 -20.2042 -20.1836 -20.1696 -20.1676 -20.1642
   -20.1497 -20.1449 -20.1376 -20.1291 -20.1244 -20.1216 -20.1152 -20.1042
   -20.1014 -20.0951 -20.0892 -20.0862 -20.0822 -20.0781 -20.0726 -20.0715
   -20.0617 -20.0571 -20.0534 -20.0524 -20.0453 -20.0348 -20.0346 -20.0300
   -20.0253 -20.0163 -20.0137 -20.0110 -20.0102 -20.0031 -19.9934 -19.9898
   -19.9884 -19.9822 -19.9807 -19.9800 -19.9703 -19.9644 -19.9633 -19.9600
   -19.9599 -19.9522 -19.9491 -19.9434 -19.9361 -19.9275 -19.9228 -19.9178
   -19.9152 -19.9101 -19.9089 -19.9052 -19.9052 -19.8999 -19.8938 -19.8918
   -19.8883 -19.8866 -19.8839 -19.8800 -19.8677 -19.8662 -19.8645 -19.8587
   -19.8585 -19.8561 -19.8551 -19.8503 -19.8479 -19.8462 -19.8419 -19.8393
   -19.8330 -19.8323 -19.8266 -19.8188 -19.8114 -19.8054 -19.8050 -19.7997
   -19.7978 -19.7971 -19.7900 -19.7808 -19.7721 -19.7641 -19.7606 -19.7601
   -19.7584 -19.7527 -19.7449 -19.7408 -19.7405 -19.7368 -19.7270 -19.7239
   -19.7165 -19.7082 -19.7020 -19.7003 -19.6861 -19.6842 -19.6685 -19.6625
   -19.6537 -19.6442 -19.6399 -19.6124 -19.5968 -19.5968 -19.5891 -19.5801
   -19.5782 -19.5729 -19.5253 -19.5139 -19.5029 -19.4532 -19.4489 -19.4395
   -19.4296 -19.3931 -19.3830 -19.3611 -19.3527 -19.3389 -19.3269 -19.3267
   -19.3163 -19.2975 -19.2952 -19.2782 -19.2146 -19.2107 -19.2062 -19.2055
   -19.1731 -19.1317 -19.1065 -19.0959 -19.0804 -19.0511 -19.0368 -19.0235
   -19.0071 -18.9931 -18.9885 -18.9702 -18.9625 -18.9392 -18.9342 -18.8610
   -13.1999 -13.1610 -13.1045 -13.0996 -12.9019 -12.8894 -12.8533 -12.8332
   -12.5735 -12.5520 -12.5429 -12.5100 -12.4773 -12.4733 -12.4417 -12.4379
   -12.2760 -12.2711 -12.2435 -12.2197 -11.6596 -11.6555 -11.6314 -11.5951
   -11.3098 -11.3047 -11.2880 -11.2741 -10.9164 -10.9011 -10.8785 -10.8323
   -10.7879 -10.7629 -10.7058 -10.6897 -10.6638 -10.6568 -10.5989 -10.5782
   -10.4857 -10.4631 -10.4273 -10.3642 -10.1483 -10.1021 -10.0778 -10.0573
   -10.0559 -10.0206  -9.9997  -9.9953  -9.9253  -9.9164  -9.8744  -9.8140
    -9.5559  -9.5330  -9.5032  -9.5015  -9.4365  -9.4131  -9.3845  -9.3598
    -9.3351  -9.2716  -9.2659  -9.2392  -9.2115  -9.2037  -9.2001  -9.1584
    -9.0551  -9.0319  -9.0146  -9.0103  -8.7718  -8.7174  -8.6619  -8.6508
    -8.6428  -8.6160  -8.5993  -8.5926  -8.5525  -8.5373  -8.5154  -8.4947
    -8.4389  -8.3584  -8.3336  -8.3237  -8.3107  -8.2918  -8.2841  -8.2672
    -8.2625  -8.2314  -8.2205  -8.2060  -8.0135  -7.9831  -7.9692  -7.9424
    -7.9133  -7.8902  -7.8816  -7.8631  -7.8425  -7.8341  -7.8197  -7.8053
    -7.7567  -7.7252  -7.7042  -7.6951  -7.6846  -7.6514  -7.6446  -7.6379
    -7.6273  -7.5884  -7.5851  -7.5696  -7.5586  -7.5499  -7.5387  -7.5179
    -7.5109  -7.5019  -7.4825  -7.4653  -7.4416  -7.4310  -7.4196  -7.4021
    -7.3849  -7.3476  -7.3033  -7.2562  -7.1929  -7.1396  -7.0486  -6.9889

     occupation numbers 
     1.0000   1.0000   1.0000   1.0000   1.0000   1.0000   1.0000   1.0000
     1.0000   1.0000   1.0000   1.0000   1.0000   1.0000   1.0000   1.0000
     1.0000   1.0000   1.0000   1.0000   1.0000   1.0000   1.0000   1.0000
     1.0000   1.0000   1.0000   1.0000   1.0000   1.0000   1.0000   1.0000
     1.0000   1.0000   1.0000   1.0000   1.0000   1.0000   1.0000   1.0000
     1.0000   1.0000   1.0000   1.0000   1.0000   1.0000   1.0000   1.0000
     1.0000   1.0000   1.0000   1.0000   1.0000   1.0000   1.0000   1.0000
     1.0000   1.0000   1.0000   1.0000   1.0000   1.0000   1.0000   1.0000
     1.0000   1.0000   1.0000   1.0000   1.0000   1.0000   1.0000   1.0000
     1.0000   1.0000   1.0000   1.0000   1.0000   1.0000   1.0000   1.0000
     1.0000   1.0000   1.0000   1.0000   1.0000   1.0000   1.0000   1.0000
     1.0000   1.0000   1.0000   1.0000   1.0000   1.0000   1.0000   1.0000
     1.0000   1.0000   1.0000   1.0000   1.0000   1.0000   1.0000   1.0000
     1.0000   1.0000   1.0000   1.0000   1.0000   1.0000   1.0000   1.0000
     1.0000   1.0000   1.0000   1.0000   1.0000   1.0000   1.0000   1.0000
     1.0000   1.0000   1.0000   1.0000   1.0000   1.0000   1.0000   1.0000
     1.0000   1.0000   1.0000   1.0000   1.0000   1.0000   1.0000   1.0000
     1.0000   1.0000   1.0000   1.0000   1.0000   1.0000   1.0000   1.0000
     1.0000   1.0000   1.0000   1.0000   1.0000   1.0000   1.0000   1.0000
     1.0000   1.0000   1.0000   1.0000   1.0000   1.0000   1.0000   1.0000
     1.0000   1.0000   1.0000   1.0000   1.0000   1.0000   1.0000   1.0000
     1.0000   1.0000   1.0000   1.0000   1.0000   1.0000   1.0000   1.0000
     1.0000   1.0000   1.0000   1.0000   1.0000   1.0000   1.0000   1.0000
     1.0000   1.0000   1.0000   1.0000   1.0000   1.0000   1.0000   1.0000
     1.0000   1.0000   1.0000   1.0000   1.0000   1.0000   1.0000   1.0000
     1.0000   1.0000   1.0000   1.0000   1.0000   1.0000   1.0000   1.0000
     1.0000   1.0000   1.0000   1.0000   1.0000   1.0000   1.0000   1.0000
     1.0000   1.0000   1.0000   1.0000   1.0000   1.0000   1.0000   1.0000
     1.0000   1.0000   1.0000   1.0000   1.0000   1.0000   1.0000   1.0000
     1.0000   1.0000   1.0000   1.0000   1.0000   1.0000   1.0000   1.0000
     1.0000   1.0000   1.0000   1.0000   1.0000   1.0000   1.0000   1.0000
     1.0000   1.0000   1.0000   1.0000   1.0000   1.0000   1.0000   1.0000
     1.0000   1.0000   1.0000   1.0000   1.0000   1.0000   1.0000   1.0000
     1.0000   1.0000   1.0000   1.0000   1.0000   1.0000   1.0000   1.0000
     1.0000   1.0000   1.0000   1.0000   1.0000   1.0000   1.0000   1.0000
     1.0000   1.0000   1.0000   1.0000   1.0000   1.0000   1.0000   1.0000
     1.0000   1.0000   1.0000   1.0000   1.0000   1.0000   1.0000   1.0000
     1.0000   1.0000   1.0000   1.0000   1.0000   1.0000   1.0000   1.0000
     1.0000   1.0000   1.0000   1.0000   1.0000   1.0000   1.0000   1.0000
     1.0000   1.0000   1.0000   1.0000   1.0000   1.0000   1.0000   1.0000
     1.0000   1.0000   1.0000   1.0000   1.0000   1.0000   1.0000   1.0000
     1.0000   1.0000   1.0000   1.0000   1.0000   1.0000   1.0000   1.0000
     1.0000   1.0000   1.0000   1.0000   1.0000   1.0000   1.0000   1.0000
     1.0000   1.0000   1.0000   1.0000   1.0000   1.0000   1.0000   1.0000

          k =-0.5052 0.1105 0.0000 (360696 PWs)   bands (ev):

   -25.2338 -25.1879 -25.1721 -25.0859 -25.0640 -24.9784 -24.9269 -24.9056
   -24.8183 -24.6657 -24.6258 -24.5821 -24.5749 -24.5487 -24.5150 -24.4950
   -24.3698 -24.3224 -24.3037 -24.2469 -24.2438 -24.2319 -24.1873 -24.1461
   -24.1211 -24.1120 -24.1041 -24.0960 -24.0846 -24.0732 -24.0437 -24.0172
   -24.0097 -23.9815 -23.9800 -23.9556 -23.9142 -23.8991 -23.8790 -23.8782
   -23.8520 -23.8205 -23.7770 -23.7555 -23.6626 -23.6492 -23.6218 -23.4436
   -20.2945 -20.2393 -20.2155 -20.2041 -20.1828 -20.1680 -20.1634 -20.1624
   -20.1518 -20.1511 -20.1335 -20.1290 -20.1262 -20.1206 -20.1192 -20.1026
   -20.0978 -20.0966 -20.0926 -20.0912 -20.0792 -20.0767 -20.0693 -20.0631
   -20.0626 -20.0624 -20.0533 -20.0463 -20.0415 -20.0350 -20.0331 -20.0309
   -20.0234 -20.0198 -20.0165 -20.0098 -20.0093 -19.9998 -19.9976 -19.9888
   -19.9842 -19.9832 -19.9805 -19.9774 -19.9696 -19.9669 -19.9644 -19.9577
   -19.9526 -19.9525 -19.9461 -19.9396 -19.9381 -19.9324 -19.9228 -19.9190
   -19.9159 -19.9120 -19.9092 -19.9035 -19.9017 -19.8959 -19.8885 -19.8852
   -19.8813 -19.8804 -19.8792 -19.8762 -19.8702 -19.8675 -19.8635 -19.8620
   -19.8596 -19.8544 -19.8537 -19.8476 -19.8443 -19.8425 -19.8374 -19.8371
   -19.8288 -19.8267 -19.8259 -19.8178 -19.8150 -19.8106 -19.8064 -19.8016
   -19.8012 -19.7979 -19.7901 -19.7883 -19.7830 -19.7663 -19.7609 -19.7563
   -19.7534 -19.7526 -19.7478 -19.7457 -19.7433 -19.7359 -19.7254 -19.7184
   -19.7107 -19.7081 -19.7039 -19.7036 -19.6944 -19.6883 -19.6767 -19.6631
   -19.6609 -19.6366 -19.6358 -19.6043 -19.6003 -19.5801 -19.5787 -19.5703
   -19.5638 -19.5535 -19.5468 -19.5411 -19.5199 -19.5009 -19.4817 -19.4690
   -19.4440 -19.4362 -19.4309 -19.4149 -19.3430 -19.3261 -19.3179 -19.3080
   -19.2825 -19.2710 -19.2490 -19.2293 -19.2213 -19.1898 -19.1735 -19.1624
   -19.1610 -19.1375 -19.1193 -19.1170 -19.0893 -19.0564 -19.0477 -19.0353
   -19.0062 -18.9923 -18.9876 -18.9697 -18.9550 -18.9399 -18.9363 -18.8606
   -13.1517 -13.0671 -13.0542 -13.0387 -12.9583 -12.9430 -12.9289 -12.9261
   -12.8389 -12.8042 -12.7927 -12.7608 -12.3072 -12.2663 -12.2305 -12.2070
   -12.1248 -12.1062 -12.0677 -12.0373 -11.9137 -11.8812 -11.8128 -11.7751
   -11.0047 -10.9999 -10.9696 -10.9450 -10.8777 -10.7999 -10.7828 -10.7809
   -10.7488 -10.7441 -10.7409 -10.7170 -10.6768 -10.6438 -10.6229 -10.5962
   -10.5645 -10.5358 -10.5239 -10.5133 -10.4614 -10.4098 -10.3535 -10.3102
   -10.1486 -10.1018 -10.0862 -10.0483  -9.9367  -9.8595  -9.7727  -9.7420
    -9.7023  -9.6810  -9.5959  -9.5185  -9.2993  -9.2564  -9.2214  -9.1935
    -9.1359  -9.1319  -9.1137  -9.0981  -9.0938  -9.0575  -9.0096  -8.9877
    -8.9571  -8.9492  -8.9174  -8.9150  -8.8834  -8.8558  -8.8275  -8.8160
    -8.7945  -8.7897  -8.7831  -8.7772  -8.7267  -8.6692  -8.6642  -8.6585
    -8.4627  -8.4421  -8.4321  -8.3734  -8.3304  -8.3149  -8.3031  -8.2165
    -8.0762  -8.0580  -8.0392  -8.0227  -8.0106  -7.9872  -7.9835  -7.9766
    -7.9705  -7.9675  -7.9591  -7.9296  -7.8375  -7.7862  -7.7744  -7.7639
    -7.7544  -7.7511  -7.7289  -7.7031  -7.6865  -7.6598  -7.6241  -7.6126
    -7.5854  -7.5671  -7.5607  -7.5447  -7.5356  -7.5154  -7.4998  -7.4985
    -7.4708  -7.4586  -7.4421  -7.4250  -7.3847  -7.3749  -7.3375  -7.3236
    -7.3041  -7.3011  -7.2987  -7.2904  -7.2816  -7.2477  -7.1688  -7.0838

     occupation numbers 
     1.0000   1.0000   1.0000   1.0000   1.0000   1.0000   1.0000   1.0000
     1.0000   1.0000   1.0000   1.0000   1.0000   1.0000   1.0000   1.0000
     1.0000   1.0000   1.0000   1.0000   1.0000   1.0000   1.0000   1.0000
     1.0000   1.0000   1.0000   1.0000   1.0000   1.0000   1.0000   1.0000
     1.0000   1.0000   1.0000   1.0000   1.0000   1.0000   1.0000   1.0000
     1.0000   1.0000   1.0000   1.0000   1.0000   1.0000   1.0000   1.0000
     1.0000   1.0000   1.0000   1.0000   1.0000   1.0000   1.0000   1.0000
     1.0000   1.0000   1.0000   1.0000   1.0000   1.0000   1.0000   1.0000
     1.0000   1.0000   1.0000   1.0000   1.0000   1.0000   1.0000   1.0000
     1.0000   1.0000   1.0000   1.0000   1.0000   1.0000   1.0000   1.0000
     1.0000   1.0000   1.0000   1.0000   1.0000   1.0000   1.0000   1.0000
     1.0000   1.0000   1.0000   1.0000   1.0000   1.0000   1.0000   1.0000
     1.0000   1.0000   1.0000   1.0000   1.0000   1.0000   1.0000   1.0000
     1.0000   1.0000   1.0000   1.0000   1.0000   1.0000   1.0000   1.0000
     1.0000   1.0000   1.0000   1.0000   1.0000   1.0000   1.0000   1.0000
     1.0000   1.0000   1.0000   1.0000   1.0000   1.0000   1.0000   1.0000
     1.0000   1.0000   1.0000   1.0000   1.0000   1.0000   1.0000   1.0000
     1.0000   1.0000   1.0000   1.0000   1.0000   1.0000   1.0000   1.0000
     1.0000   1.0000   1.0000   1.0000   1.0000   1.0000   1.0000   1.0000
     1.0000   1.0000   1.0000   1.0000   1.0000   1.0000   1.0000   1.0000
     1.0000   1.0000   1.0000   1.0000   1.0000   1.0000   1.0000   1.0000
     1.0000   1.0000   1.0000   1.0000   1.0000   1.0000   1.0000   1.0000
     1.0000   1.0000   1.0000   1.0000   1.0000   1.0000   1.0000   1.0000
     1.0000   1.0000   1.0000   1.0000   1.0000   1.0000   1.0000   1.0000
     1.0000   1.0000   1.0000   1.0000   1.0000   1.0000   1.0000   1.0000
     1.0000   1.0000   1.0000   1.0000   1.0000   1.0000   1.0000   1.0000
     1.0000   1.0000   1.0000   1.0000   1.0000   1.0000   1.0000   1.0000
     1.0000   1.0000   1.0000   1.0000   1.0000   1.0000   1.0000   1.0000
     1.0000   1.0000   1.0000   1.0000   1.0000   1.0000   1.0000   1.0000
     1.0000   1.0000   1.0000   1.0000   1.0000   1.0000   1.0000   1.0000
     1.0000   1.0000   1.0000   1.0000   1.0000   1.0000   1.0000   1.0000
     1.0000   1.0000   1.0000   1.0000   1.0000   1.0000   1.0000   1.0000
     1.0000   1.0000   1.0000   1.0000   1.0000   1.0000   1.0000   1.0000
     1.0000   1.0000   1.0000   1.0000   1.0000   1.0000   1.0000   1.0000
     1.0000   1.0000   1.0000   1.0000   1.0000   1.0000   1.0000   1.0000
     1.0000   1.0000   1.0000   1.0000   1.0000   1.0000   1.0000   1.0000
     1.0000   1.0000   1.0000   1.0000   1.0000   1.0000   1.0000   1.0000
     1.0000   1.0000   1.0000   1.0000   1.0000   1.0000   1.0000   1.0000
     1.0000   1.0000   1.0000   1.0000   1.0000   1.0000   1.0000   1.0000
     1.0000   1.0000   1.0000   1.0000   1.0000   1.0000   1.0000   1.0000
     1.0000   1.0000   1.0000   1.0000   1.0000   1.0000   1.0000   1.0000
     1.0000   1.0000   1.0000   1.0000   1.0000   1.0000   1.0000   1.0000
     1.0000   1.0000   1.0000   1.0000   1.0000   1.0000   1.0000   1.0000
     1.0000   1.0000   1.0000   1.0000   1.0000   1.0000   1.0000   1.0000

          k =-0.4805-0.4620 0.0000 (360682 PWs)   bands (ev):

   -25.2259 -25.1890 -25.1624 -25.1038 -25.0492 -24.9868 -24.9327 -24.9158
   -24.8188 -24.6679 -24.6269 -24.6000 -24.5546 -24.5497 -24.5162 -24.4902
   -24.3657 -24.3145 -24.3007 -24.2486 -24.2481 -24.2249 -24.1796 -24.1475
   -24.1177 -24.1117 -24.0887 -24.0851 -24.0782 -24.0768 -24.0671 -24.0285
   -24.0166 -23.9859 -23.9789 -23.9559 -23.9112 -23.8981 -23.8811 -23.8765
   -23.8544 -23.8218 -23.7776 -23.7541 -23.6636 -23.6502 -23.6205 -23.4434
   -20.2905 -20.2357 -20.2096 -20.2052 -20.1836 -20.1701 -20.1687 -20.1577
   -20.1560 -20.1502 -20.1321 -20.1294 -20.1250 -20.1212 -20.1172 -20.1048
   -20.1018 -20.0951 -20.0901 -20.0872 -20.0821 -20.0791 -20.0721 -20.0716
   -20.0624 -20.0579 -20.0534 -20.0509 -20.0450 -20.0344 -20.0339 -20.0288
   -20.0267 -20.0169 -20.0136 -20.0112 -20.0101 -20.0002 -19.9941 -19.9899
   -19.9838 -19.9826 -19.9811 -19.9800 -19.9685 -19.9683 -19.9658 -19.9577
   -19.9560 -19.9499 -19.9454 -19.9431 -19.9362 -19.9323 -19.9260 -19.9224
   -19.9114 -19.9106 -19.9047 -19.9037 -19.9016 -19.8964 -19.8933 -19.8894
   -19.8846 -19.8842 -19.8784 -19.8770 -19.8703 -19.8700 -19.8641 -19.8625
   -19.8618 -19.8573 -19.8552 -19.8452 -19.8448 -19.8406 -19.8354 -19.8351
   -19.8333 -19.8261 -19.8228 -19.8144 -19.8109 -19.8069 -19.8057 -19.8024
   -19.7955 -19.7936 -19.7915 -19.7888 -19.7870 -19.7660 -19.7592 -19.7583
   -19.7569 -19.7515 -19.7494 -19.7484 -19.7452 -19.7358 -19.7251 -19.7192
   -19.7111 -19.7093 -19.7045 -19.7005 -19.6917 -19.6878 -19.6795 -19.6668
   -19.6635 -19.6403 -19.6374 -19.6050 -19.6043 -19.5827 -19.5814 -19.5712
   -19.5619 -19.5540 -19.5409 -19.5402 -19.4981 -19.4907 -19.4628 -19.4534
   -19.4288 -19.4177 -19.3873 -19.3633 -19.3524 -19.3436 -19.3396 -19.3342
   -19.3009 -19.2898 -19.2730 -19.2426 -19.2196 -19.2143 -19.2025 -19.1950
   -19.1579 -19.1256 -19.0944 -19.0896 -19.0856 -19.0572 -19.0396 -19.0281
   -19.0191 -18.9955 -18.9865 -18.9734 -18.9566 -18.9373 -18.9367 -18.8606
   -13.2050 -13.1897 -13.1349 -13.1294 -12.7763 -12.7743 -12.7191 -12.6992
   -12.6728 -12.6323 -12.6040 -12.5802 -12.4345 -12.4193 -12.3951 -12.3290
   -12.3061 -12.2954 -12.2256 -12.1808 -12.0471 -12.0259 -11.9978 -11.9781
   -10.9262 -10.8931 -10.8922 -10.8745 -10.8609 -10.8394 -10.8255 -10.7983
   -10.7670 -10.7505 -10.7158 -10.6553 -10.5854 -10.5478 -10.5294 -10.5048
   -10.4581 -10.4433 -10.4309 -10.4109 -10.3974 -10.3871 -10.3221 -10.3197
   -10.0950 -10.0601 -10.0260 -10.0129  -9.8525  -9.8178  -9.8051  -9.7974
    -9.6530  -9.5878  -9.5801  -9.5775  -9.4274  -9.3999  -9.3620  -9.3413
    -9.3017  -9.2751  -9.2690  -9.2448  -9.0625  -9.0480  -9.0076  -8.9767
    -8.9638  -8.9504  -8.9460  -8.9276  -8.9140  -8.8764  -8.8602  -8.8204
    -8.8085  -8.7928  -8.7686  -8.7472  -8.6451  -8.6291  -8.6088  -8.5861
    -8.4584  -8.3930  -8.3736  -8.3377  -8.3022  -8.2487  -8.2339  -8.1704
    -8.0705  -8.0271  -8.0250  -7.9967  -7.9821  -7.9756  -7.9446  -7.9273
    -7.9190  -7.9074  -7.8629  -7.8568  -7.8475  -7.8392  -7.8112  -7.7912
    -7.7743  -7.7461  -7.7431  -7.7259  -7.7096  -7.6960  -7.6826  -7.6716
    -7.6582  -7.6165  -7.5995  -7.5626  -7.5547  -7.5284  -7.5176  -7.5136
    -7.4865  -7.4646  -7.4593  -7.4483  -7.4116  -7.3919  -7.3541  -7.3216
    -7.3081  -7.3040  -7.2985  -7.2906  -7.2856  -7.2530  -7.1630  -7.0801

     occupation numbers 
     1.0000   1.0000   1.0000   1.0000   1.0000   1.0000   1.0000   1.0000
     1.0000   1.0000   1.0000   1.0000   1.0000   1.0000   1.0000   1.0000
     1.0000   1.0000   1.0000   1.0000   1.0000   1.0000   1.0000   1.0000
     1.0000   1.0000   1.0000   1.0000   1.0000   1.0000   1.0000   1.0000
     1.0000   1.0000   1.0000   1.0000   1.0000   1.0000   1.0000   1.0000
     1.0000   1.0000   1.0000   1.0000   1.0000   1.0000   1.0000   1.0000
     1.0000   1.0000   1.0000   1.0000   1.0000   1.0000   1.0000   1.0000
     1.0000   1.0000   1.0000   1.0000   1.0000   1.0000   1.0000   1.0000
     1.0000   1.0000   1.0000   1.0000   1.0000   1.0000   1.0000   1.0000
     1.0000   1.0000   1.0000   1.0000   1.0000   1.0000   1.0000   1.0000
     1.0000   1.0000   1.0000   1.0000   1.0000   1.0000   1.0000   1.0000
     1.0000   1.0000   1.0000   1.0000   1.0000   1.0000   1.0000   1.0000
     1.0000   1.0000   1.0000   1.0000   1.0000   1.0000   1.0000   1.0000
     1.0000   1.0000   1.0000   1.0000   1.0000   1.0000   1.0000   1.0000
     1.0000   1.0000   1.0000   1.0000   1.0000   1.0000   1.0000   1.0000
     1.0000   1.0000   1.0000   1.0000   1.0000   1.0000   1.0000   1.0000
     1.0000   1.0000   1.0000   1.0000   1.0000   1.0000   1.0000   1.0000
     1.0000   1.0000   1.0000   1.0000   1.0000   1.0000   1.0000   1.0000
     1.0000   1.0000   1.0000   1.0000   1.0000   1.0000   1.0000   1.0000
     1.0000   1.0000   1.0000   1.0000   1.0000   1.0000   1.0000   1.0000
     1.0000   1.0000   1.0000   1.0000   1.0000   1.0000   1.0000   1.0000
     1.0000   1.0000   1.0000   1.0000   1.0000   1.0000   1.0000   1.0000
     1.0000   1.0000   1.0000   1.0000   1.0000   1.0000   1.0000   1.0000
     1.0000   1.0000   1.0000   1.0000   1.0000   1.0000   1.0000   1.0000
     1.0000   1.0000   1.0000   1.0000   1.0000   1.0000   1.0000   1.0000
     1.0000   1.0000   1.0000   1.0000   1.0000   1.0000   1.0000   1.0000
     1.0000   1.0000   1.0000   1.0000   1.0000   1.0000   1.0000   1.0000
     1.0000   1.0000   1.0000   1.0000   1.0000   1.0000   1.0000   1.0000
     1.0000   1.0000   1.0000   1.0000   1.0000   1.0000   1.0000   1.0000
     1.0000   1.0000   1.0000   1.0000   1.0000   1.0000   1.0000   1.0000
     1.0000   1.0000   1.0000   1.0000   1.0000   1.0000   1.0000   1.0000
     1.0000   1.0000   1.0000   1.0000   1.0000   1.0000   1.0000   1.0000
     1.0000   1.0000   1.0000   1.0000   1.0000   1.0000   1.0000   1.0000
     1.0000   1.0000   1.0000   1.0000   1.0000   1.0000   1.0000   1.0000
     1.0000   1.0000   1.0000   1.0000   1.0000   1.0000   1.0000   1.0000
     1.0000   1.0000   1.0000   1.0000   1.0000   1.0000   1.0000   1.0000
     1.0000   1.0000   1.0000   1.0000   1.0000   1.0000   1.0000   1.0000
     1.0000   1.0000   1.0000   1.0000   1.0000   1.0000   1.0000   1.0000
     1.0000   1.0000   1.0000   1.0000   1.0000   1.0000   1.0000   1.0000
     1.0000   1.0000   1.0000   1.0000   1.0000   1.0000   1.0000   1.0000
     1.0000   1.0000   1.0000   1.0000   1.0000   1.0000   1.0000   1.0000
     1.0000   1.0000   1.0000   1.0000   1.0000   1.0000   1.0000   1.0000
     1.0000   1.0000   1.0000   1.0000   1.0000   1.0000   1.0000   1.0000
     1.0000   1.0000   1.0000   1.0000   1.0000   1.0000   1.0000   1.0000

     highest occupied level (ev):    -6.9889

!    total energy              =  -10895.99839682 Ry
     estimated scf accuracy    <          5.4E-09 Ry

     convergence has been achieved in  12 iterations

     negative rho (up, down):  3.298E-03 0.000E+00

     Forces acting on atoms (cartesian axes, Ry/au):

     atom    1 type  1   force =    -0.01133249    0.01440455   -0.00052724
     atom    2 type  1   force =    -0.04837473   -0.01659976    0.00675241
     atom    3 type  2   force =    -0.00453597   -0.00409194   -0.00321602
     atom    4 type  2   force =     0.00460150    0.00411736   -0.00065183
     atom    5 type  2   force =     0.04900076    0.01619968   -0.00316921
     atom    6 type  1   force =     0.00151977    0.03447179   -0.00547465
     atom    7 type  1   force =     0.01521160    0.04334144   -0.00994601
     atom    8 type  2   force =    -0.01506281   -0.01262132   -0.00119142
     atom    9 type  2   force =     0.00260186   -0.05882130    0.01272862
     atom   10 type  2   force =     0.00180735    0.00072183    0.01213312
     atom   11 type  1   force =    -0.01758224    0.01193180   -0.00213648
     atom   12 type  1   force =    -0.01139346    0.00244157    0.01414925
     atom   13 type  2   force =    -0.03512012   -0.00184798    0.00109700
     atom   14 type  2   force =     0.00751706   -0.02247117    0.00358695
     atom   15 type  2   force =     0.03455208    0.00495986   -0.01278496
     atom   16 type  1   force =    -0.00771492    0.02168581    0.01445187
     atom   17 type  1   force =    -0.03224432   -0.00447046    0.01300466
     atom   18 type  2   force =     0.02026246   -0.00047263   -0.01241083
     atom   19 type  2   force =     0.01155030   -0.03643338    0.00453168
     atom   20 type  2   force =     0.00620766    0.00712856   -0.01746965
     atom   21 type  1   force =    -0.02315239    0.01796603   -0.01043152
     atom   22 type  1   force =    -0.01352544   -0.02238291   -0.00395678
     atom   23 type  2   force =     0.00355875   -0.00699402   -0.00983388
     atom   24 type  2   force =    -0.00668171    0.06745365   -0.01088258
     atom   25 type  2   force =    -0.00128072    0.00957486    0.01614919
     atom   26 type  1   force =    -0.02523387   -0.00643626    0.00542175
     atom   27 type  1   force =    -0.00176213    0.03421762   -0.00029355
     atom   28 type  2   force =    -0.00726006   -0.00175750   -0.01375633
     atom   29 type  2   force =     0.00467921   -0.07825894    0.01498358
     atom   30 type  2   force =     0.00354535    0.00872188   -0.01577745
     atom   31 type  1   force =     0.00448459   -0.04117069    0.01402858
     atom   32 type  1   force =    -0.02771455   -0.02533747    0.00723392
     atom   33 type  2   force =     0.01968503   -0.00142901    0.01172015
     atom   34 type  2   force =     0.01039965    0.00347072   -0.00296165
     atom   35 type  2   force =     0.04533071   -0.00877777   -0.01115136
     atom   36 type  1   force =    -0.00826852    0.02880374    0.00219449
     atom   37 type  1   force =     0.03242942    0.00667865    0.01114075
     atom   38 type  2   force =    -0.01667674    0.00624126   -0.01267538
     atom   39 type  2   force =    -0.00753953    0.02638842   -0.01145894
     atom   40 type  2   force =    -0.01559013   -0.02198737   -0.00683803
     atom   41 type  1   force =    -0.00498769   -0.00818034   -0.01577043
     atom   42 type  1   force =     0.01729157   -0.03063885   -0.02341042
     atom   43 type  2   force =     0.00846317    0.00412241    0.01334403
     atom   44 type  2   force =    -0.00376774    0.03163969   -0.00240635
     atom   45 type  2   force =    -0.01804419    0.00140033    0.02662262
     atom   46 type  1   force =     0.00814193   -0.02257307    0.00753393
     atom   47 type  1   force =    -0.00358025   -0.03455689    0.01814541
     atom   48 type  2   force =     0.03693163   -0.02083682   -0.00129037
     atom   49 type  2   force =    -0.00829463    0.07160820   -0.01495819
     atom   50 type  2   force =    -0.01004586    0.00794973   -0.00099948
     atom   51 type  1   force =     0.01394811   -0.01091478   -0.00121170
     atom   52 type  1   force =     0.00242333    0.01584095   -0.01331291
     atom   53 type  2   force =    -0.01249033    0.00224387    0.00013513
     atom   54 type  2   force =    -0.00544165    0.01837033   -0.00410033
     atom   55 type  2   force =    -0.01938666   -0.01456896    0.01344920
     atom   56 type  1   force =     0.01179785   -0.05107013    0.01885327
     atom   57 type  1   force =    -0.00670215   -0.00345213    0.00817622
     atom   58 type  2   force =     0.01177186    0.01043031   -0.00262361
     atom   59 type  2   force =    -0.00320543    0.03809064   -0.01197463
     atom   60 type  2   force =     0.00403410   -0.00420055   -0.00850358
     atom   61 type  1   force =     0.02716566   -0.03927041   -0.00366495
     atom   62 type  1   force =    -0.00344926   -0.03535030   -0.01335052
     atom   63 type  2   force =     0.00950641   -0.01007464    0.01461995
     atom   64 type  2   force =     0.00472162   -0.00724254    0.00743336
     atom   65 type  2   force =     0.01100758    0.01375077    0.01976886
     atom   66 type  1   force =     0.00029011    0.02171018   -0.01073802
     atom   67 type  1   force =     0.02931232   -0.02001509   -0.00959254
     atom   68 type  2   force =     0.00054868    0.00452790    0.00278438
     atom   69 type  2   force =    -0.00786217    0.05476226   -0.00945459
     atom   70 type  2   force =    -0.03373166   -0.00560031    0.01972880
     atom   71 type  1   force =     0.02324244    0.02064095   -0.00282597
     atom   72 type  1   force =     0.02453300    0.01645504   -0.00739887
     atom   73 type  2   force =    -0.00723800    0.00097258   -0.00704091
     atom   74 type  2   force =    -0.01457459    0.02712985   -0.00600581
     atom   75 type  2   force =    -0.03127360    0.00093953    0.00372920
     atom   76 type  1   force =    -0.00818358   -0.03245987    0.00687565
     atom   77 type  1   force =    -0.00044192   -0.00907376    0.00199774
     atom   78 type  2   force =    -0.01255807    0.02417387    0.01044234
     atom   79 type  2   force =     0.00039419   -0.03095354    0.00378193
     atom   80 type  2   force =     0.02883562    0.00571440   -0.01310003
     The non-local contrib.  to forces
     atom    1 type  1   force =     0.19261123   -0.11837426    0.03760402
     atom    2 type  1   force =     0.05871028    0.12882230   -0.01768651
     atom    3 type  2   force =    -0.07964003    0.29032121   -1.02935544
     atom    4 type  2   force =     0.88580180    0.08988134   -0.04830356
     atom    5 type  2   force =    -0.07403179   -0.31152743    1.06085142
     atom    6 type  1   force =     0.12801525   -0.04579378    0.02411983
     atom    7 type  1   force =     0.09098573    0.10319954    0.04466440
     atom    8 type  2   force =    -0.08912344    0.31428137   -1.03044390
     atom    9 type  2   force =     0.81504617    0.15417014    0.14317663
     atom   10 type  2   force =    -0.00139137   -0.29778652    1.10460060
     atom   11 type  1   force =     0.17551248   -0.05110499   -0.04391685
     atom   12 type  1   force =     0.06917918    0.03985900   -0.05650901
     atom   13 type  2   force =    -0.08984230    0.30611947   -0.98436107
     atom   14 type  2   force =     0.91804412    0.05859429   -0.00641963
     atom   15 type  2   force =    -0.04801277   -0.36229651    1.00571476
     atom   16 type  1   force =     0.12066244   -0.03943989    0.02132398
     atom   17 type  1   force =     0.12683448    0.18846224   -0.11925555
     atom   18 type  2   force =    -0.08721445    0.36825328   -1.09041975
     atom   19 type  2   force =     0.85981808    0.11768282   -0.06479490
     atom   20 type  2   force =    -0.03832099   -0.33263426    1.00619090
     atom   21 type  1   force =     0.15160349   -0.13522724    0.03852660
     atom   22 type  1   force =     0.02936516    0.08141878   -0.00860414
     atom   23 type  2   force =    -0.07206669    0.24135848   -1.08663048
     atom   24 type  2   force =     0.86825294    0.04259951    0.05029160
     atom   25 type  2   force =    -0.05559592   -0.30536921    1.12340782
     atom   26 type  1   force =     0.08381432   -0.07264152   -0.03255842
     atom   27 type  1   force =     0.07163355    0.15138324   -0.08763355
     atom   28 type  2   force =    -0.11202108    0.28952191   -1.08884688
     atom   29 type  2   force =     0.81666529    0.13510503   -0.04971102
     atom   30 type  2   force =     0.02497936   -0.30789505    0.95843888
     atom   31 type  1   force =     0.18206259   -0.08173790    0.11024856
     atom   32 type  1   force =     0.07160932    0.01079178   -0.08201437
     atom   33 type  2   force =    -0.13248154    0.26323867   -1.00935580
     atom   34 type  2   force =     0.89061061    0.02531573   -0.09064809
     atom   35 type  2   force =    -0.06815369   -0.33822565    1.00592359
     atom   36 type  1   force =     0.08494433    0.05876833    0.02474193
     atom   37 type  1   force =     0.04059812    0.08399515   -0.13770908
     atom   38 type  2   force =    -0.11791780    0.35781240   -1.08156867
     atom   39 type  2   force =     0.75102779    0.06735430   -0.13188259
     atom   40 type  2   force =    -0.04530718   -0.33436379    0.99805019
     atom   41 type  1   force =     0.02319529   -0.08602718    0.09070350
     atom   42 type  1   force =     0.05315610    0.09032745   -0.00409610
     atom   43 type  2   force =    -0.12756490    0.24585833   -1.03848828
     atom   44 type  2   force =     0.79035273    0.04650134    0.04329222
     atom   45 type  2   force =    -0.04346056   -0.26850174    1.14584417
     atom   46 type  1   force =     0.14486315   -0.14117052    0.05554692
     atom   47 type  1   force =     0.09515739    0.08470415   -0.04852898
     atom   48 type  2   force =    -0.09484066    0.31275464   -1.06397146
     atom   49 type  2   force =     0.81506404   -0.00940994   -0.04087271
     atom   50 type  2   force =    -0.08334717   -0.33729259    1.02704453
     atom   51 type  1   force =     0.11673600   -0.07893217    0.07673307
     atom   52 type  1   force =     0.06291398    0.04872424   -0.11776561
     atom   53 type  2   force =    -0.07781246    0.26976100   -1.04974819
     atom   54 type  2   force =     0.81124652    0.06526598   -0.06529761
     atom   55 type  2   force =     0.01128883   -0.37684111    1.09594647
     atom   56 type  1   force =     0.09653481   -0.06767639    0.06641301
     atom   57 type  1   force =     0.04382470   -0.01783401   -0.08592489
     atom   58 type  2   force =    -0.12968270    0.31044635   -1.04557663
     atom   59 type  2   force =     0.85128983    0.02835929   -0.02467551
     atom   60 type  2   force =    -0.06715750   -0.32499095    1.00498126
     atom   61 type  1   force =     0.05979907   -0.09713984    0.07774768
     atom   62 type  1   force =     0.01393065    0.12598145    0.06527528
     atom   63 type  2   force =    -0.13637709    0.26711187   -1.00892453
     atom   64 type  2   force =     0.76423307    0.08549037    0.13221637
     atom   65 type  2   force =    -0.10057083   -0.27693246    1.09560053
     atom   66 type  1   force =     0.05660794   -0.09835504    0.10887933
     atom   67 type  1   force =     0.08548882    0.07903130   -0.05756026
     atom   68 type  2   force =    -0.08453515    0.23624879   -1.02847830
     atom   69 type  2   force =     0.78828951    0.07354928    0.10299791
     atom   70 type  2   force =    -0.01080071   -0.30299032    1.09965485
     atom   71 type  1   force =     0.06322324   -0.06914398    0.10512742
     atom   72 type  1   force =     0.04922719    0.07228324   -0.04056204
     atom   73 type  2   force =    -0.07410279    0.33065767   -1.07983281
     atom   74 type  2   force =     0.74697221    0.06952313    0.05832587
     atom   75 type  2   force =    -0.04875476   -0.27848053    1.01920289
     atom   76 type  1   force =     0.10133252   -0.03266050    0.06089000
     atom   77 type  1   force =     0.00366521    0.04621830   -0.16072364
     atom   78 type  2   force =    -0.12560082    0.28700381   -1.00597321
     atom   79 type  2   force =     0.75989807    0.05801290   -0.09384459
     atom   80 type  2   force =    -0.00049165   -0.29539133    0.95950621
     The ionic contribution  to forces
     atom    1 type  1   force =     1.75399392   11.28159787  -89.56854171
     atom    2 type  1   force =     0.37549735  -11.01337887 -127.89973285
     atom    3 type  2   force =    -0.15699545   -0.52894809  -15.33012084
     atom    4 type  2   force =    -3.99896945   -0.09308318  -49.54458036
     atom    5 type  2   force =     1.22977495    0.76622693  -85.37374633
     atom    6 type  1   force =     1.33671447   11.99677245  128.50104472
     atom    7 type  1   force =     1.55289418  -10.04829475   90.03362750
     atom    8 type  2   force =    -0.20026511   -1.03213275   85.97313826
     atom    9 type  2   force =    -3.51378845   -1.52514110   47.56270502
     atom   10 type  2   force =    -0.04081292    0.80610120   14.35083197
     atom   11 type  1   force =     0.72713312   11.99970693  -90.71635075
     atom   12 type  1   force =     1.34417889  -10.89354991 -130.21317924
     atom   13 type  2   force =    -0.69746241   -0.45228570  -15.55338168
     atom   14 type  2   force =    -3.74043737   -0.61528376  -50.71246451
     atom   15 type  2   force =     0.69459845    0.92969377  -86.12310774
     atom   16 type  1   force =     1.27954571   11.84684630  129.58473605
     atom   17 type  1   force =     1.15821250  -10.86909165   86.91392518
     atom   18 type  2   force =     0.57721971   -1.03427745   86.43021962
     atom   19 type  2   force =    -3.40320174   -1.14969360   50.38305608
     atom   20 type  2   force =     0.22102231    0.66934825   15.75980839
     atom   21 type  1   force =     1.01282331   11.43775882  -89.60295247
     atom   22 type  1   force =     1.47803643  -10.96566608 -127.28411817
     atom   23 type  2   force =     0.22140827   -0.44019855  -14.84851642
     atom   24 type  2   force =    -3.66994094    1.42132615  -50.65705495
     atom   25 type  2   force =     0.02238427    0.75276371  -86.57042717
     atom   26 type  1   force =     0.29848510   10.77181508  128.66355583
     atom   27 type  1   force =     1.82708608  -10.21866970   89.22254372
     atom   28 type  2   force =     0.07538074   -0.66202220   86.26480818
     atom   29 type  2   force =    -3.30069145   -2.04732208   51.22090217
     atom   30 type  2   force =    -0.02890629    0.26946914   16.26413413
     atom   31 type  1   force =     2.20920315   10.55266119  -88.58856787
     atom   32 type  1   force =     1.91283311  -12.26759009 -129.59651939
     atom   33 type  2   force =     0.82780534   -0.42823204  -15.53899943
     atom   34 type  2   force =    -3.40999894    0.04866201  -48.76337739
     atom   35 type  2   force =     1.21080863    0.47700129  -85.16063591
     atom   36 type  1   force =     1.06676623   12.31165985  129.27979898
     atom   37 type  1   force =     2.58079736  -10.81190337   87.15073742
     atom   38 type  2   force =     0.07845176   -1.02956867   86.28837045
     atom   39 type  2   force =    -3.42965316    0.49255575   51.38655323
     atom   40 type  2   force =    -0.16293647    0.53387888   15.24099870
     atom   41 type  1   force =     0.56450871   10.64314183  -89.88067901
     atom   42 type  1   force =     2.45776927  -11.65671490 -128.12101628
     atom   43 type  2   force =     0.60751708   -0.33983805  -15.66989259
     atom   44 type  2   force =    -3.24527136    0.65632003  -50.15129219
     atom   45 type  2   force =    -0.32365445    0.40809860  -87.06681542
     atom   46 type  1   force =     2.36867576   10.17618948  129.76023818
     atom   47 type  1   force =     2.22595205  -11.69764232   88.45900893
     atom   48 type  2   force =     1.08660453   -1.28961854   86.08808682
     atom   49 type  2   force =    -3.47071110    1.64397770   51.00356726
     atom   50 type  2   force =     0.31639220    0.55751674   15.66966112
     atom   51 type  1   force =     1.81024765   11.24055011  -88.40492625
     atom   52 type  1   force =     1.67920288  -10.76457904 -129.33343286
     atom   53 type  2   force =    -0.05845681   -0.68925718  -15.30904381
     atom   54 type  2   force =    -3.76103053    0.33130238  -49.37220626
     atom   55 type  2   force =    -0.61822304    1.13430307  -86.77090695
     atom   56 type  1   force =     1.53316483   10.57705300  129.45109080
     atom   57 type  1   force =     1.69464666  -11.64897645   88.76370450
     atom   58 type  2   force =     0.70220171   -0.80622489   86.18321550
     atom   59 type  2   force =    -3.39793762    0.89446129   50.07755625
     atom   60 type  2   force =     0.23574576    0.45158658   15.53126004
     atom   61 type  1   force =     1.90239459    9.71292552  -89.65394745
     atom   62 type  1   force =     1.58678798  -11.97103798 -127.82372165
     atom   63 type  2   force =     0.53670046   -0.59988717  -15.75511125
     atom   64 type  2   force =    -3.08913874   -0.41759890  -51.82545396
     atom   65 type  2   force =     0.69801473    0.48738739  -86.11885731
     atom   66 type  1   force =     0.74468835   10.97519862  130.03292484
     atom   67 type  1   force =     2.61935214  -11.05853510   90.43808231
     atom   68 type  2   force =     0.31517139   -0.45486237   85.18524931
     atom   69 type  2   force =    -3.51796949    1.09179853   48.79295921
     atom   70 type  2   force =    -0.95986055    0.70677513   14.82033639
     atom   71 type  1   force =     1.57760483   11.88271580  -87.90645729
     atom   72 type  1   force =     2.05245796  -10.08640997 -129.83492843
     atom   73 type  2   force =     0.20532751   -0.83679844  -14.39943792
     atom   74 type  2   force =    -3.50532357    0.32715416  -51.73173717
     atom   75 type  2   force =    -0.51219471    0.69043359  -85.00011330
     atom   76 type  1   force =     1.03286712   11.01323109  129.50938079
     atom   77 type  1   force =     1.38551838  -11.75506036   88.42678695
     atom   78 type  2   force =     0.14660449   -0.28403641   85.38026760
     atom   79 type  2   force =    -3.31548020   -0.82903659   51.94930311
     atom   80 type  2   force =     0.37013795    0.34448204   15.77817700
     The local contribution  to forces
     atom    1 type  1   force =    -1.95756925  -11.15156857   89.53084518
     atom    2 type  1   force =    -0.48580340   10.87079082  127.92428515
     atom    3 type  2   force =     0.23126194    0.23727511   16.34800897
     atom    4 type  2   force =     3.12591827    0.00818221   49.59179723
     atom    5 type  2   force =    -1.10702046   -0.44128235   84.31818758
     atom    6 type  1   force =    -1.46297455  -11.91699971 -128.53068356
     atom    7 type  1   force =    -1.62809896    9.99352821  -90.08829983
     atom    8 type  2   force =     0.27334897    0.70807514  -84.95215034
     atom    9 type  2   force =     2.70885577    1.31303777  -47.69176806
     atom   10 type  2   force =     0.04397225   -0.51037166  -15.43430468
     atom   11 type  1   force =    -0.92053588  -11.93882383   90.75720971
     atom   12 type  1   force =    -1.42616511   10.85874960  130.28403970
     atom   13 type  2   force =     0.75101849    0.14720219   16.53102914
     atom   14 type  2   force =     2.83839103    0.53458850   50.72243806
     atom   15 type  2   force =    -0.61222405   -0.56576151   85.11251235
     atom   16 type  1   force =    -1.40821951  -11.78690535 -129.59097049
     atom   17 type  1   force =    -1.31882087   10.68016511  -86.78231730
     atom   18 type  2   force =    -0.47042307    0.66897000  -85.36108343
     atom   19 type  2   force =     2.56297019    0.99630306  -50.31427985
     atom   20 type  2   force =    -0.17682181   -0.33260944  -16.77566914
     atom   21 type  1   force =    -1.18831091  -11.28730390   89.55397647
     atom   22 type  1   force =    -1.52262893   10.86334170  127.28830507
     atom   23 type  2   force =    -0.14647477    0.19410835   15.91649673
     atom   24 type  2   force =     2.80290510   -1.39544864   50.59624963
     atom   25 type  2   force =     0.03138702   -0.44061952   85.47236055
     atom   26 type  1   force =    -0.40935255  -10.70868370 -128.62581426
     atom   27 type  1   force =    -1.90090444   10.10677454  -89.13632188
     atom   28 type  2   force =     0.02828092    0.37347025  -85.19861160
     atom   29 type  2   force =     2.49625890    1.83447810  -51.15651186
     atom   30 type  2   force =     0.00766818    0.04429844  -17.23090721
     atom   31 type  1   force =    -2.38614708  -10.51716285   88.49443071
     atom   32 type  1   force =    -2.01409951   12.23230905  129.68529986
     atom   33 type  2   force =    -0.67670398    0.16603336   16.55218759
     atom   34 type  2   force =     2.53809235   -0.07017284   48.85021361
     atom   35 type  2   force =    -1.09760332   -0.15077514   84.15147391
     atom   36 type  1   force =    -1.16062259  -12.34126474 -129.30211374
     atom   37 type  1   force =    -2.58819106   10.73760390  -87.00289699
     atom   38 type  2   force =     0.02156026    0.68136117  -85.22827905
     atom   39 type  2   force =     2.67792775   -0.53269250  -51.26743264
     atom   40 type  2   force =     0.19208867   -0.22478140  -16.23800390
     atom   41 type  1   force =    -0.59430231  -10.56846722   89.77458326
     atom   42 type  1   force =    -2.49339640   11.53700000  128.10031735
     atom   43 type  2   force =    -0.47258912    0.10046844   16.71358761
     atom   44 type  2   force =     2.45841919   -0.67043910   50.10597153
     atom   45 type  2   force =     0.34849778   -0.14074955   85.95710040
     atom   46 type  1   force =    -2.50480478  -10.06227763 -129.80718595
     atom   47 type  1   force =    -2.32498369   11.57918099  -88.39168504
     atom   48 type  2   force =    -0.95543257    0.95878362  -85.03392166
     atom   49 type  2   force =     2.65477623   -1.56237241  -50.97814369
     atom   50 type  2   force =    -0.24394444   -0.21537847  -16.68952618
     atom   51 type  1   force =    -1.91248830  -11.17588998   88.32775034
     atom   52 type  1   force =    -1.74021031   10.73476652  129.43559341
     atom   53 type  2   force =     0.12292026    0.42426885   16.35056050
     atom   54 type  2   force =     2.95172390   -0.37743020   49.43277525
     atom   55 type  2   force =     0.58743536   -0.77562349   85.69736047
     atom   56 type  1   force =    -1.61782221  -10.56570920 -129.49686035
     atom   57 type  1   force =    -1.74624989   11.66473041  -88.67013943
     atom   58 type  2   force =    -0.56185559    0.50917092  -85.14866055
     atom   59 type  2   force =     2.55122235   -0.88406156  -50.06521719
     atom   60 type  2   force =    -0.16515743   -0.13385904  -16.53681830
     atom   61 type  1   force =    -1.93479407   -9.65971569   89.57325118
     atom   62 type  1   force =    -1.60549537   11.81124415  127.74522044
     atom   63 type  2   force =    -0.39200392    0.32515587   16.77078800
     atom   64 type  2   force =     2.33677686    0.32561201   51.70194916
     atom   65 type  2   force =    -0.58723599   -0.19923319   85.05205198
     atom   66 type  1   force =    -0.80166935  -10.85693113 -130.15162849
     atom   67 type  1   force =    -2.67425292   10.96107624  -90.39165438
     atom   68 type  2   force =    -0.23089781    0.22545372  -84.16217414
     atom   69 type  2   force =     2.72901048   -1.10942452  -48.90457938
     atom   70 type  2   force =     0.93651649   -0.41227051  -15.89122964
     atom   71 type  1   force =    -1.61677889  -11.79445814   87.79960453
     atom   72 type  1   force =    -2.07624966   10.03367841  129.86729205
     atom   73 type  2   force =    -0.13924281    0.51018063   15.46351786
     atom   74 type  2   force =     2.75047678   -0.36865787   51.66786148
     atom   75 type  2   force =     0.52895556   -0.41366262   83.99282592
     atom   76 type  1   force =    -1.14342889  -11.01702343 -129.56253954
     atom   77 type  1   force =    -1.39088102   11.70184701  -88.26589207
     atom   78 type  2   force =    -0.03482848    0.02410029  -84.37175183
     atom   79 type  2   force =     2.56300271    0.74036774  -51.85249766
     atom   80 type  2   force =    -0.34064170   -0.04614782  -16.74330321
     The core correction contribution to forces
     atom    1 type  1   force =    -0.00036968    0.00276765   -0.00041848
     atom    2 type  1   force =     0.00321759   -0.00283038   -0.00011039
     atom    3 type  2   force =     0.00084538   -0.00273314    0.00826206
     atom    4 type  2   force =    -0.00815380   -0.00086819    0.00044381
     atom    5 type  2   force =     0.00028201    0.00279649   -0.00846480
     atom    6 type  1   force =    -0.00024361    0.00049504    0.00005351
     atom    7 type  1   force =    -0.00056593   -0.00508612    0.00005667
     atom    8 type  2   force =     0.00097561   -0.00284435    0.00826815
     atom    9 type  2   force =    -0.00751266   -0.00088277   -0.00138664
     atom   10 type  2   force =     0.00004288    0.00277672   -0.00899531
     atom   11 type  1   force =     0.00029189    0.00213979    0.00095879
     atom   12 type  1   force =     0.00142037   -0.00262226   -0.00018681
     atom   13 type  2   force =     0.00116686   -0.00288490    0.00782918
     atom   14 type  2   force =    -0.00847778   -0.00038017    0.00004308
     atom   15 type  2   force =     0.00019971    0.00332073   -0.00790131
     atom   16 type  1   force =     0.00028229    0.00119922   -0.00064427
     atom   17 type  1   force =     0.00152647   -0.00401408    0.00064995
     atom   18 type  2   force =     0.00067720   -0.00341535    0.00887559
     atom   19 type  2   force =    -0.00803785   -0.00072797    0.00054840
     atom   20 type  2   force =     0.00032469    0.00302895   -0.00781517
     atom   21 type  1   force =     0.00072051    0.00275915    0.00002563
     atom   22 type  1   force =     0.00170909   -0.00147260    0.00044170
     atom   23 type  2   force =     0.00068883   -0.00225167    0.00882364
     atom   24 type  2   force =    -0.00790134   -0.00102602   -0.00035912
     atom   25 type  2   force =     0.00054458    0.00280988   -0.00920064
     atom   26 type  1   force =     0.00182738    0.00307704    0.00023841
     atom   27 type  1   force =     0.00042575   -0.00528452    0.00111774
     atom   28 type  2   force =     0.00110182   -0.00272797    0.00889097
     atom   29 type  2   force =    -0.00755290   -0.00051823    0.00029963
     atom   30 type  2   force =    -0.00020282    0.00285231   -0.00744777
     atom   31 type  1   force =    -0.00060689    0.00506066   -0.00204132
     atom   32 type  1   force =     0.00192873   -0.00086871    0.00050090
     atom   33 type  2   force =     0.00106764   -0.00247690    0.00790615
     atom   34 type  2   force =    -0.00830698   -0.00033340    0.00085811
     atom   35 type  2   force =     0.00027850    0.00321784   -0.00790568
     atom   36 type  1   force =     0.00065819   -0.00035278   -0.00024548
     atom   37 type  1   force =    -0.00078089   -0.00302680    0.00101200
     atom   38 type  2   force =     0.00123139   -0.00335793    0.00880683
     atom   39 type  2   force =    -0.00684251   -0.00084206    0.00130111
     atom   40 type  2   force =     0.00057708    0.00327992   -0.00789450
     atom   41 type  1   force =     0.00162047    0.00317269   -0.00035921
     atom   42 type  1   force =    -0.00023054   -0.00122764    0.00137320
     atom   43 type  2   force =     0.00110504   -0.00235593    0.00814556
     atom   44 type  2   force =    -0.00726748   -0.00075454   -0.00036646
     atom   45 type  2   force =     0.00057388    0.00256204   -0.00951257
     atom   46 type  1   force =    -0.00059814    0.00468598   -0.00106043
     atom   47 type  1   force =     0.00028809   -0.00080366   -0.00064877
     atom   48 type  2   force =     0.00059827   -0.00275695    0.00852161
     atom   49 type  2   force =    -0.00742515   -0.00059262    0.00048966
     atom   50 type  2   force =     0.00084800    0.00310422   -0.00818814
     atom   51 type  1   force =    -0.00056016    0.00333132   -0.00071789
     atom   52 type  1   force =     0.00051389   -0.00306885    0.00233940
     atom   53 type  2   force =     0.00086533   -0.00252993    0.00838925
     atom   54 type  2   force =    -0.00738200   -0.00077359    0.00063831
     atom   55 type  2   force =     0.00011442    0.00359493   -0.00894132
     atom   56 type  1   force =    -0.00007581    0.00526065   -0.00179281
     atom   57 type  1   force =     0.00108155   -0.00137496    0.00052861
     atom   58 type  2   force =     0.00111393   -0.00296477    0.00839665
     atom   59 type  2   force =    -0.00777889   -0.00066009    0.00035818
     atom   60 type  2   force =     0.00060117    0.00306174   -0.00792901
     atom   61 type  1   force =    -0.00024456    0.00466414   -0.00069947
     atom   62 type  1   force =     0.00131947   -0.00152129   -0.00012583
     atom   63 type  2   force =     0.00117966   -0.00245165    0.00787721
     atom   64 type  2   force =    -0.00715226   -0.00074704   -0.00127298
     atom   65 type  2   force =     0.00079713    0.00253052   -0.00903619
     atom   66 type  1   force =     0.00066494    0.00180255   -0.00091044
     atom   67 type  1   force =    -0.00127765   -0.00161495    0.00152987
     atom   68 type  2   force =     0.00081465   -0.00230533    0.00819607
     atom   69 type  2   force =    -0.00719334   -0.00116848   -0.00083070
     atom   70 type  2   force =     0.00042232    0.00288735   -0.00903717
     atom   71 type  1   force =    -0.00080387    0.00151888   -0.00107651
     atom   72 type  1   force =    -0.00090282   -0.00311045    0.00084476
     atom   73 type  2   force =     0.00077128   -0.00306957    0.00872815
     atom   74 type  2   force =    -0.00670486   -0.00088273   -0.00044863
     atom   75 type  2   force =     0.00071526    0.00264831   -0.00818526
     atom   76 type  1   force =     0.00103576    0.00400321   -0.00085953
     atom   77 type  1   force =     0.00125098   -0.00207584    0.00183382
     atom   78 type  2   force =     0.00126370   -0.00289106    0.00790143
     atom   79 type  2   force =    -0.00702547   -0.00029217    0.00081947
     atom   80 type  2   force =    -0.00017400    0.00277169   -0.00748608
     The Hubbard contrib.    to forces
     atom    1 type  1   force =     0.00000000    0.00000000    0.00000000
     atom    2 type  1   force =     0.00000000    0.00000000    0.00000000
     atom    3 type  2   force =     0.00000000    0.00000000    0.00000000
     atom    4 type  2   force =     0.00000000    0.00000000    0.00000000
     atom    5 type  2   force =     0.00000000    0.00000000    0.00000000
     atom    6 type  1   force =     0.00000000    0.00000000    0.00000000
     atom    7 type  1   force =     0.00000000    0.00000000    0.00000000
     atom    8 type  2   force =     0.00000000    0.00000000    0.00000000
     atom    9 type  2   force =     0.00000000    0.00000000    0.00000000
     atom   10 type  2   force =     0.00000000    0.00000000    0.00000000
     atom   11 type  1   force =     0.00000000    0.00000000    0.00000000
     atom   12 type  1   force =     0.00000000    0.00000000    0.00000000
     atom   13 type  2   force =     0.00000000    0.00000000    0.00000000
     atom   14 type  2   force =     0.00000000    0.00000000    0.00000000
     atom   15 type  2   force =     0.00000000    0.00000000    0.00000000
     atom   16 type  1   force =     0.00000000    0.00000000    0.00000000
     atom   17 type  1   force =     0.00000000    0.00000000    0.00000000
     atom   18 type  2   force =     0.00000000    0.00000000    0.00000000
     atom   19 type  2   force =     0.00000000    0.00000000    0.00000000
     atom   20 type  2   force =     0.00000000    0.00000000    0.00000000
     atom   21 type  1   force =     0.00000000    0.00000000    0.00000000
     atom   22 type  1   force =     0.00000000    0.00000000    0.00000000
     atom   23 type  2   force =     0.00000000    0.00000000    0.00000000
     atom   24 type  2   force =     0.00000000    0.00000000    0.00000000
     atom   25 type  2   force =     0.00000000    0.00000000    0.00000000
     atom   26 type  1   force =     0.00000000    0.00000000    0.00000000
     atom   27 type  1   force =     0.00000000    0.00000000    0.00000000
     atom   28 type  2   force =     0.00000000    0.00000000    0.00000000
     atom   29 type  2   force =     0.00000000    0.00000000    0.00000000
     atom   30 type  2   force =     0.00000000    0.00000000    0.00000000
     atom   31 type  1   force =     0.00000000    0.00000000    0.00000000
     atom   32 type  1   force =     0.00000000    0.00000000    0.00000000
     atom   33 type  2   force =     0.00000000    0.00000000    0.00000000
     atom   34 type  2   force =     0.00000000    0.00000000    0.00000000
     atom   35 type  2   force =     0.00000000    0.00000000    0.00000000
     atom   36 type  1   force =     0.00000000    0.00000000    0.00000000
     atom   37 type  1   force =     0.00000000    0.00000000    0.00000000
     atom   38 type  2   force =     0.00000000    0.00000000    0.00000000
     atom   39 type  2   force =     0.00000000    0.00000000    0.00000000
     atom   40 type  2   force =     0.00000000    0.00000000    0.00000000
     atom   41 type  1   force =     0.00000000    0.00000000    0.00000000
     atom   42 type  1   force =     0.00000000    0.00000000    0.00000000
     atom   43 type  2   force =     0.00000000    0.00000000    0.00000000
     atom   44 type  2   force =     0.00000000    0.00000000    0.00000000
     atom   45 type  2   force =     0.00000000    0.00000000    0.00000000
     atom   46 type  1   force =     0.00000000    0.00000000    0.00000000
     atom   47 type  1   force =     0.00000000    0.00000000    0.00000000
     atom   48 type  2   force =     0.00000000    0.00000000    0.00000000
     atom   49 type  2   force =     0.00000000    0.00000000    0.00000000
     atom   50 type  2   force =     0.00000000    0.00000000    0.00000000
     atom   51 type  1   force =     0.00000000    0.00000000    0.00000000
     atom   52 type  1   force =     0.00000000    0.00000000    0.00000000
     atom   53 type  2   force =     0.00000000    0.00000000    0.00000000
     atom   54 type  2   force =     0.00000000    0.00000000    0.00000000
     atom   55 type  2   force =     0.00000000    0.00000000    0.00000000
     atom   56 type  1   force =     0.00000000    0.00000000    0.00000000
     atom   57 type  1   force =     0.00000000    0.00000000    0.00000000
     atom   58 type  2   force =     0.00000000    0.00000000    0.00000000
     atom   59 type  2   force =     0.00000000    0.00000000    0.00000000
     atom   60 type  2   force =     0.00000000    0.00000000    0.00000000
     atom   61 type  1   force =     0.00000000    0.00000000    0.00000000
     atom   62 type  1   force =     0.00000000    0.00000000    0.00000000
     atom   63 type  2   force =     0.00000000    0.00000000    0.00000000
     atom   64 type  2   force =     0.00000000    0.00000000    0.00000000
     atom   65 type  2   force =     0.00000000    0.00000000    0.00000000
     atom   66 type  1   force =     0.00000000    0.00000000    0.00000000
     atom   67 type  1   force =     0.00000000    0.00000000    0.00000000
     atom   68 type  2   force =     0.00000000    0.00000000    0.00000000
     atom   69 type  2   force =     0.00000000    0.00000000    0.00000000
     atom   70 type  2   force =     0.00000000    0.00000000    0.00000000
     atom   71 type  1   force =     0.00000000    0.00000000    0.00000000
     atom   72 type  1   force =     0.00000000    0.00000000    0.00000000
     atom   73 type  2   force =     0.00000000    0.00000000    0.00000000
     atom   74 type  2   force =     0.00000000    0.00000000    0.00000000
     atom   75 type  2   force =     0.00000000    0.00000000    0.00000000
     atom   76 type  1   force =     0.00000000    0.00000000    0.00000000
     atom   77 type  1   force =     0.00000000    0.00000000    0.00000000
     atom   78 type  2   force =     0.00000000    0.00000000    0.00000000
     atom   79 type  2   force =     0.00000000    0.00000000    0.00000000
     atom   80 type  2   force =     0.00000000    0.00000000    0.00000000
     The SCF correction term to forces
     atom    1 type  1   force =     0.00000109   -0.00001785   -0.00001829
     atom    2 type  1   force =     0.00000325   -0.00000334   -0.00000504
     atom    3 type  2   force =    -0.00000800   -0.00000673   -0.00001282
     atom    4 type  2   force =     0.00000450    0.00000547   -0.00001101
     atom    5 type  2   force =    -0.00000415   -0.00001366    0.00000087
     atom    6 type  1   force =     0.00000800   -0.00000191   -0.00001119
     atom    7 type  1   force =    -0.00000361   -0.00000514    0.00000319
     atom    8 type  2   force =     0.00000096   -0.00000043   -0.00000564
     atom    9 type  2   force =     0.00000084   -0.00000504   -0.00000038
     atom   10 type  2   force =    -0.00000368    0.00000238   -0.00000152
     atom   11 type  1   force =     0.00001596    0.00001419   -0.00003943
     atom   12 type  1   force =    -0.00000699    0.00000544   -0.00001744
     atom   13 type  2   force =    -0.00000096    0.00000126   -0.00002063
     atom   14 type  2   force =    -0.00000314    0.00001026   -0.00001210
     atom   15 type  2   force =    -0.00000947    0.00000366   -0.00000508
     atom   16 type  1   force =     0.00001396   -0.00001417    0.00000455
     atom   17 type  1   force =     0.00000290    0.00000822    0.00000033
     atom   18 type  2   force =     0.00000287   -0.00000282   -0.00000490
     atom   19 type  2   force =     0.00000142    0.00000261   -0.00000010
     atom   20 type  2   force =     0.00000327   -0.00000464    0.00001332
     atom   21 type  1   force =     0.00001101   -0.00002050   -0.00000981
     atom   22 type  1   force =    -0.00000739   -0.00000440    0.00001671
     atom   23 type  2   force =     0.00000292   -0.00001033   -0.00000941
     atom   24 type  2   force =     0.00000234    0.00000294   -0.00001179
     atom   25 type  2   force =    -0.00000086   -0.00000970    0.00000656
     atom   26 type  1   force =    -0.00000831   -0.00000287   -0.00000186
     atom   27 type  1   force =    -0.00000325    0.00001435   -0.00000164
     atom   28 type  2   force =    -0.00000266    0.00000081    0.00000095
     atom   29 type  2   force =    -0.00000083   -0.00000148    0.00000260
     atom   30 type  2   force =     0.00000672   -0.00000266    0.00000247
     atom   31 type  1   force =    -0.00002737    0.00000851   -0.00004355
     atom   32 type  1   force =     0.00001360    0.00002079   -0.00003513
     atom   33 type  2   force =    -0.00000263    0.00000820   -0.00002042
     atom   34 type  2   force =     0.00000242   -0.00000048   -0.00000993
     atom   35 type  2   force =     0.00000040    0.00000419   -0.00000933
     atom   36 type  1   force =    -0.00001488   -0.00000663    0.00001074
     atom   37 type  1   force =     0.00000570    0.00001006   -0.00000465
     atom   38 type  2   force =    -0.00000254   -0.00000541   -0.00000698
     atom   39 type  2   force =     0.00000039    0.00001322   -0.00000011
     atom   40 type  2   force =    -0.00001243   -0.00000069    0.00000943
     atom   41 type  1   force =    -0.00001003   -0.00000017   -0.00002102
     atom   42 type  1   force =    -0.00000705   -0.00002346    0.00000935
     atom   43 type  2   force =    -0.00000514   -0.00001009   -0.00001032
     atom   44 type  2   force =    -0.00000101    0.00001225   -0.00001350
     atom   45 type  2   force =    -0.00000104   -0.00000872    0.00000399
     atom   46 type  1   force =     0.00000575   -0.00000008   -0.00000684
     atom   47 type  1   force =     0.00000570    0.00000425   -0.00000279
     atom   48 type  2   force =     0.00000187    0.00000071   -0.00000773
     atom   49 type  2   force =     0.00000115    0.00000577   -0.00000076
     atom   50 type  2   force =     0.00000534    0.00000013    0.00000713
     atom   51 type  1   force =     0.00001272    0.00002623   -0.00005302
     atom   52 type  1   force =     0.00000269   -0.00000162   -0.00004930
     atom   53 type  2   force =    -0.00000684    0.00000141   -0.00002468
     atom   54 type  2   force =     0.00000026    0.00000606   -0.00001206
     atom   55 type  2   force =    -0.00000242   -0.00000205   -0.00001152
     atom   56 type  1   force =    -0.00000398    0.00000210    0.00000056
     atom   57 type  1   force =    -0.00000536    0.00000317    0.00000538
     atom   58 type  2   force =    -0.00000568    0.00000300   -0.00000064
     atom   59 type  2   force =    -0.00000129   -0.00000800    0.00000159
     atom   60 type  2   force =     0.00000191    0.00000142    0.00000038
     atom   61 type  1   force =     0.00001043   -0.00000425   -0.00001894
     atom   62 type  1   force =     0.00000782   -0.00001634   -0.00000082
     atom   63 type  2   force =     0.00000711   -0.00000326   -0.00001155
     atom   64 type  2   force =     0.00000250    0.00000131   -0.00000729
     atom   65 type  2   force =     0.00000235   -0.00000120    0.00000780
     atom   66 type  1   force =    -0.00000197   -0.00000453   -0.00000532
     atom   67 type  1   force =     0.00000173    0.00002771    0.00000788
     atom   68 type  2   force =    -0.00000459   -0.00000662   -0.00001062
     atom   69 type  2   force =     0.00000048    0.00000775   -0.00000369
     atom   70 type  2   force =    -0.00000942   -0.00000167    0.00000232
     atom   71 type  1   force =    -0.00000307    0.00000868   -0.00002617
     atom   72 type  1   force =     0.00000014    0.00001410   -0.00004727
     atom   73 type  2   force =     0.00000861    0.00000258   -0.00001824
     atom   74 type  2   force =     0.00000466   -0.00000655   -0.00000942
     atom   75 type  2   force =     0.00000486    0.00000108   -0.00000310
     atom   76 type  1   force =     0.00000971   -0.00000995    0.00000187
     atom   77 type  1   force =     0.00000434   -0.00000258   -0.00000937
     atom   78 type  2   force =     0.00000284   -0.00000246   -0.00000370
     atom   79 type  2   force =    -0.00000112   -0.00000512   -0.00000046
     atom   80 type  2   force =     0.00000483    0.00000011    0.00000399

     Total force =     0.298365     Total SCF correction =     0.000173


     Computing stress (Cartesian axis) and pressure


     negative rho (up, down):  3.298E-03 0.000E+00
          total   stress  (Ry/bohr**3)                   (kbar)     P=       -5.07
  -0.00002798   0.00000659  -0.00000288           -4.12        0.97       -0.42
   0.00000659  -0.00007129  -0.00000009            0.97      -10.49       -0.01
  -0.00000288  -0.00000009  -0.00000421           -0.42       -0.01       -0.62

     kinetic stress (kbar)   4914.55      2.17     -0.60
                                2.17   4908.72     -4.86
                               -0.60     -4.86   4909.01

     local   stress (kbar)-444419.84    113.75     10.57
                              113.75-441610.70  -1510.09
                               10.57  -1510.09 442193.47

     nonloc. stress (kbar)   -237.86      7.06     -2.09
                                7.06   -284.03     13.10
                               -2.09     13.10   -108.92

     hartree stress (kbar) 224362.61    -24.22    -10.03
                              -24.22 222908.60    687.42
                              -10.03    687.42-215065.27

     exc-cor stress (kbar)    595.34     -0.40      0.10
                               -0.40    597.53     -0.46
                                0.10     -0.46    586.49

     corecor stress (kbar)  -2382.54      0.03     -0.01
                                0.03  -2382.74      0.16
                               -0.01      0.16  -2381.74

     ewald   stress (kbar) 217163.63    -97.42      1.64
                              -97.42 215852.13    814.70
                                1.64    814.70-230133.66

     hubbard stress (kbar)      0.00      0.00      0.00
                                0.00      0.00      0.00
                                0.00      0.00      0.00

     DFT-D   stress (kbar)      0.00      0.00      0.00
                                0.00      0.00      0.00
                                0.00      0.00      0.00

     XDM     stress (kbar)      0.00      0.00      0.00
                                0.00      0.00      0.00
                                0.00      0.00      0.00

     dft-nl  stress (kbar)      0.00      0.00      0.00
                                0.00      0.00      0.00
                                0.00      0.00      0.00

     TS-vdW  stress (kbar)      0.00      0.00      0.00
                                0.00      0.00      0.00
                                0.00      0.00      0.00


                                0.00      0.00      0.00
                                0.00      0.00      0.00


                                0.00      0.00      0.00


     Entering Dynamics:    iteration =     9
                           time      =   0.0087 pico-seconds


     Canonical sampling velocity rescaling

ATOMIC_POSITIONS (crystal)
Ga            0.2009002986        0.3552252988        0.4081555156
Ga            0.1241888018        0.1551774229        0.3860074384
O             0.0881059029        0.2911523327        0.4296732654
O             0.1299506836        0.0043818899        0.3976796024
O             0.2284585809        0.2179548618        0.3647076171
Ga            0.2011721288        0.3535980626        0.6142613033
Ga            0.1227263701        0.1528779383        0.5917106646
O             0.0919885582        0.2900046587        0.6366985222
O             0.1306962111        0.0040144830        0.5998785706
O             0.2299357550        0.2224334849        0.5690724399
Ga            0.2027847406        0.8553457124        0.4075705923
Ga            0.1251598526        0.6532988334        0.3845790209
O             0.0955880689        0.7875709339        0.4293546609
O             0.1270770878        0.5040954181        0.3962373721
O             0.2291345887        0.7194946395        0.3635617898
Ga            0.2023697914        0.8539032080        0.6141832890
Ga            0.1231536480        0.6561171933        0.5904931345
O             0.0891354127        0.7891413380        0.6369158118
O             0.1287299245        0.5068804135        0.6027546591
O             0.2308408956        0.7212700341        0.5712591040
Ga            0.4518098754        0.3539354736        0.4084265769
Ga            0.3725591636        0.1545344827        0.3867022158
O             0.3395192202        0.2883358652        0.4305144563
O             0.3813964495       -0.0006248249        0.3972160993
O             0.4804252011        0.2173055615        0.3627920564
Ga            0.4519241402        0.3552887391        0.6146636527
Ga            0.3706537401        0.1557562979        0.5919753816
O             0.3402575845        0.2893636088        0.6370063014
O             0.3771882306        0.0091903592        0.6036296897
O             0.4808076059        0.2186143796        0.5719186404
Ga            0.4529486903        0.8558211285        0.4081551124
Ga            0.3718557723        0.6565806328        0.3855053447
O             0.3383825551        0.7885823317        0.4286784428
O             0.3771347615        0.5038874152        0.3987416327
O             0.4765965235        0.7235865348        0.3651519252
Ga            0.4508968097        0.8551937972        0.6145766597
Ga            0.3705104838        0.6538025234        0.5909022732
O             0.3420887727        0.7860914745        0.6368702909
O             0.3835060510        0.5028018854        0.6043933051
O             0.4803425479        0.7261511799        0.5704075959
Ga            0.7008633694        0.3547694936        0.4077683974
Ga            0.6210065423        0.1562395256        0.3863241117
O             0.5894982602        0.2863167508        0.4285054969
O             0.6313753266        0.0017597830        0.3975511154
O             0.7316542311        0.2214126539        0.3616778710
Ga            0.6989164744        0.3564229455        0.6149678874
Ga            0.6210144586        0.1561825647        0.5913451219
O             0.5855016421        0.2925131939        0.6366435585
O             0.6315561664        0.0008203825        0.6042129895
O             0.7309035194        0.2192442655        0.5709392953
Ga            0.7023066211        0.8547134434        0.4086744874
Ga            0.6229452949        0.6536638232        0.3860879338
O             0.5933551428        0.7846149149        0.4294766348
O             0.6304306411        0.5027901224        0.3980887958
O             0.7323733959        0.7246073232        0.3625146256
Ga            0.7008888432        0.8561002969        0.6142671241
Ga            0.6217535272        0.6545955629        0.5917283126
O             0.5885493744        0.7852756129        0.6366052734
O             0.6288357635        0.5018514411        0.6034478837
O             0.7283859112        0.7225331829        0.5708993636
Ga            0.9491139474        0.3577182265        0.4077274312
Ga            0.8720358616        0.1579902416        0.3857268529
O             0.8373628593        0.2923069856        0.4283124016
O             0.8804779927        0.0031880034        0.3953256625
O             0.9809932329        0.2188341986        0.3627032293
Ga            0.9521674018        0.3544187716        0.6151676435
Ga            0.8702960444        0.1560838433        0.5927213304
O             0.8393393554        0.2869870915        0.6355229618
O             0.8831919082        0.0002471473        0.6020437165
O             0.9842576307        0.2235170914        0.5694655955
Ga            0.9508597071        0.8515354337        0.4086779151
Ga            0.8709250854        0.6537321628        0.3852131170
O             0.8413316033        0.7842345907        0.4308878060
O             0.8816101114        0.5025341508        0.3954833019
O             0.9845654100        0.7191800052        0.3645701959
Ga            0.9533272260        0.8557019352        0.6143710098
Ga            0.8708968950        0.6566752792        0.5918912317
O             0.8420053851        0.7843611638        0.6349646505
O             0.8804354416        0.5064566423        0.6049411230
O             0.9786961960        0.7212041459        0.5710507689


     kinetic energy (Ekin) =           0.16036077 Ry
     temperature           =         213.66213386 K 
     Ekin + Etot (const)   =      -10895.83803605 Ry
     Ions kinetic stress =            0.53 (kbar)
                                      0.47          -0.05          -0.09
                                     -0.05           0.43           0.02
                                     -0.09           0.02           0.68



     Linear momentum :    0.0000000000    0.0000000000   -0.0000000000

     Writing config-only to output data dir ./tmp/md/Ga2O3-BL-001-4x2x1-300K.save/

     second order wave-functions extrapolation
     second order charge density extrapolation

     negative rho (up, down):  3.292E-03 0.000E+00

     total cpu time spent up to now is    30303.6 secs

     Self-consistent Calculation

     iteration #  1     ecut=    80.00 Ry     beta= 0.20
     Davidson diagonalization with overlap

---- Real-time Memory Report at c_bands before calling an iterative solver
          1660 MiB given to the printing process from OS
             0 MiB allocation reported by mallinfo(arena+hblkhd)
        348063 MiB available memory on the node where the printing process lives
------------------
     ethr =  1.00E-06,  avg # of iterations =  2.0

     Threshold (ethr) on eigenvalues was too large:
     Diagonalizing with lowered threshold

     Davidson diagonalization with overlap

---- Real-time Memory Report at c_bands before calling an iterative solver
          1660 MiB given to the printing process from OS
             0 MiB allocation reported by mallinfo(arena+hblkhd)
        348281 MiB available memory on the node where the printing process lives
------------------
     ethr =  7.25E-11,  avg # of iterations = 11.2

     negative rho (up, down):  3.292E-03 0.000E+00

     total cpu time spent up to now is    30543.7 secs

     total energy              =  -10895.98748864 Ry
     estimated scf accuracy    <       0.00000124 Ry

     iteration #  2     ecut=    80.00 Ry     beta= 0.20
     Davidson diagonalization with overlap

---- Real-time Memory Report at c_bands before calling an iterative solver
          1660 MiB given to the printing process from OS
             0 MiB allocation reported by mallinfo(arena+hblkhd)
        347892 MiB available memory on the node where the printing process lives
------------------
     ethr =  1.76E-10,  avg # of iterations =  5.0

     negative rho (up, down):  3.292E-03 0.000E+00

     total cpu time spent up to now is    30612.3 secs

     total energy              =  -10895.98748838 Ry
     estimated scf accuracy    <       0.00000039 Ry

     iteration #  3     ecut=    80.00 Ry     beta= 0.20
     Davidson diagonalization with overlap

---- Real-time Memory Report at c_bands before calling an iterative solver
          1660 MiB given to the printing process from OS
             0 MiB allocation reported by mallinfo(arena+hblkhd)
        347774 MiB available memory on the node where the printing process lives
------------------
     ethr =  5.59E-11,  avg # of iterations =  8.5

     negative rho (up, down):  3.292E-03 0.000E+00

     total cpu time spent up to now is    30740.5 secs

     total energy              =  -10895.98748877 Ry
     estimated scf accuracy    <       0.00000083 Ry

     iteration #  4     ecut=    80.00 Ry     beta= 0.20
     Davidson diagonalization with overlap

---- Real-time Memory Report at c_bands before calling an iterative solver
          1660 MiB given to the printing process from OS
             0 MiB allocation reported by mallinfo(arena+hblkhd)
        347657 MiB available memory on the node where the printing process lives
------------------
     ethr =  5.59E-11,  avg # of iterations =  4.0

     negative rho (up, down):  3.292E-03 0.000E+00

     total cpu time spent up to now is    30810.1 secs

     total energy              =  -10895.98748885 Ry
     estimated scf accuracy    <       0.00000044 Ry

     iteration #  5     ecut=    80.00 Ry     beta= 0.20
     Davidson diagonalization with overlap

---- Real-time Memory Report at c_bands before calling an iterative solver
          1660 MiB given to the printing process from OS
             0 MiB allocation reported by mallinfo(arena+hblkhd)
        347728 MiB available memory on the node where the printing process lives
------------------
     ethr =  5.59E-11,  avg # of iterations =  1.0

     negative rho (up, down):  3.292E-03 0.000E+00

     total cpu time spent up to now is    30867.1 secs

     total energy              =  -10895.98748878 Ry
     estimated scf accuracy    <       0.00000050 Ry

     iteration #  6     ecut=    80.00 Ry     beta= 0.20
     Davidson diagonalization with overlap

---- Real-time Memory Report at c_bands before calling an iterative solver
          1660 MiB given to the printing process from OS
             0 MiB allocation reported by mallinfo(arena+hblkhd)
        347645 MiB available memory on the node where the printing process lives
------------------
     ethr =  5.59E-11,  avg # of iterations =  2.0

     negative rho (up, down):  3.293E-03 0.000E+00

     total cpu time spent up to now is    30936.0 secs

     total energy              =  -10895.98748871 Ry
     estimated scf accuracy    <       0.00000024 Ry

     iteration #  7     ecut=    80.00 Ry     beta= 0.20
     Davidson diagonalization with overlap

---- Real-time Memory Report at c_bands before calling an iterative solver
          1660 MiB given to the printing process from OS
             0 MiB allocation reported by mallinfo(arena+hblkhd)
        347564 MiB available memory on the node where the printing process lives
------------------
     ethr =  3.41E-11,  avg # of iterations = 10.0

     negative rho (up, down):  3.293E-03 0.000E+00

     total cpu time spent up to now is    31048.4 secs

     total energy              =  -10895.98748885 Ry
     estimated scf accuracy    <       0.00000009 Ry

     iteration #  8     ecut=    80.00 Ry     beta= 0.20
     Davidson diagonalization with overlap

---- Real-time Memory Report at c_bands before calling an iterative solver
          1660 MiB given to the printing process from OS
             0 MiB allocation reported by mallinfo(arena+hblkhd)
        347387 MiB available memory on the node where the printing process lives
------------------
     ethr =  1.27E-11,  avg # of iterations =  8.8

     negative rho (up, down):  3.293E-03 0.000E+00

     total cpu time spent up to now is    31143.2 secs

     total energy              =  -10895.98748888 Ry
     estimated scf accuracy    <       0.00000022 Ry

     iteration #  9     ecut=    80.00 Ry     beta= 0.20
     Davidson diagonalization with overlap

---- Real-time Memory Report at c_bands before calling an iterative solver
          1660 MiB given to the printing process from OS
             0 MiB allocation reported by mallinfo(arena+hblkhd)
        347356 MiB available memory on the node where the printing process lives
------------------
     ethr =  1.27E-11,  avg # of iterations =  2.0

     negative rho (up, down):  3.293E-03 0.000E+00

     total cpu time spent up to now is    31207.2 secs

     total energy              =  -10895.98748888 Ry
     estimated scf accuracy    <       0.00000023 Ry

     iteration # 10     ecut=    80.00 Ry     beta= 0.20
     Davidson diagonalization with overlap

---- Real-time Memory Report at c_bands before calling an iterative solver
          1660 MiB given to the printing process from OS
             0 MiB allocation reported by mallinfo(arena+hblkhd)
        347269 MiB available memory on the node where the printing process lives
------------------
     ethr =  1.27E-11,  avg # of iterations =  1.8

     negative rho (up, down):  3.293E-03 0.000E+00

     total cpu time spent up to now is    31269.3 secs

     total energy              =  -10895.98748886 Ry
     estimated scf accuracy    <       0.00000022 Ry

     iteration # 11     ecut=    80.00 Ry     beta= 0.20
     Davidson diagonalization with overlap

---- Real-time Memory Report at c_bands before calling an iterative solver
          1660 MiB given to the printing process from OS
             0 MiB allocation reported by mallinfo(arena+hblkhd)
        347229 MiB available memory on the node where the printing process lives
------------------
     ethr =  1.27E-11,  avg # of iterations =  3.0

     negative rho (up, down):  3.293E-03 0.000E+00

     total cpu time spent up to now is    31341.3 secs

     total energy              =  -10895.98748892 Ry
     estimated scf accuracy    <       0.00000015 Ry

     iteration # 12     ecut=    80.00 Ry     beta= 0.20
     Davidson diagonalization with overlap

---- Real-time Memory Report at c_bands before calling an iterative solver
          1660 MiB given to the printing process from OS
             0 MiB allocation reported by mallinfo(arena+hblkhd)
        347216 MiB available memory on the node where the printing process lives
------------------
     ethr =  1.27E-11,  avg # of iterations = 10.8

     negative rho (up, down):  3.293E-03 0.000E+00

     total cpu time spent up to now is    31440.7 secs

     total energy              =  -10895.98748893 Ry
     estimated scf accuracy    <       0.00000039 Ry

     iteration # 13     ecut=    80.00 Ry     beta= 0.20
     Davidson diagonalization with overlap

---- Real-time Memory Report at c_bands before calling an iterative solver
          1660 MiB given to the printing process from OS
             0 MiB allocation reported by mallinfo(arena+hblkhd)
        347234 MiB available memory on the node where the printing process lives
------------------
     ethr =  1.27E-11,  avg # of iterations =  2.0

     negative rho (up, down):  3.293E-03 0.000E+00

     total cpu time spent up to now is    31505.5 secs

     total energy              =  -10895.98748882 Ry
     estimated scf accuracy    <       0.00000036 Ry

     iteration # 14     ecut=    80.00 Ry     beta= 0.20
     Davidson diagonalization with overlap

---- Real-time Memory Report at c_bands before calling an iterative solver
          1660 MiB given to the printing process from OS
             0 MiB allocation reported by mallinfo(arena+hblkhd)
        347247 MiB available memory on the node where the printing process lives
------------------
     ethr =  1.27E-11,  avg # of iterations =  9.5

     negative rho (up, down):  3.293E-03 0.000E+00

     total cpu time spent up to now is    31630.4 secs

     total energy              =  -10895.98748888 Ry
     estimated scf accuracy    <       0.00000011 Ry

     iteration # 15     ecut=    80.00 Ry     beta= 0.20
     Davidson diagonalization with overlap

---- Real-time Memory Report at c_bands before calling an iterative solver
          1660 MiB given to the printing process from OS
             0 MiB allocation reported by mallinfo(arena+hblkhd)
        347247 MiB available memory on the node where the printing process lives
------------------
     ethr =  1.27E-11,  avg # of iterations =  6.0

     negative rho (up, down):  3.293E-03 0.000E+00

     total cpu time spent up to now is    31704.1 secs

     total energy              =  -10895.98748889 Ry
     estimated scf accuracy    <       0.00000013 Ry

     iteration # 16     ecut=    80.00 Ry     beta= 0.20
     Davidson diagonalization with overlap

---- Real-time Memory Report at c_bands before calling an iterative solver
          1660 MiB given to the printing process from OS
             0 MiB allocation reported by mallinfo(arena+hblkhd)
        347207 MiB available memory on the node where the printing process lives
------------------
     ethr =  1.27E-11,  avg # of iterations =  1.5

     negative rho (up, down):  3.293E-03 0.000E+00

     total cpu time spent up to now is    31764.6 secs

     total energy              =  -10895.98748890 Ry
     estimated scf accuracy    <       0.00000014 Ry

     iteration # 17     ecut=    80.00 Ry     beta= 0.20
     Davidson diagonalization with overlap

---- Real-time Memory Report at c_bands before calling an iterative solver
          1660 MiB given to the printing process from OS
             0 MiB allocation reported by mallinfo(arena+hblkhd)
        347198 MiB available memory on the node where the printing process lives
------------------
     ethr =  1.27E-11,  avg # of iterations =  1.5

     negative rho (up, down):  3.293E-03 0.000E+00

     total cpu time spent up to now is    31825.2 secs

     total energy              =  -10895.98748890 Ry
     estimated scf accuracy    <       0.00000014 Ry

     iteration # 18     ecut=    80.00 Ry     beta= 0.20
     Davidson diagonalization with overlap

---- Real-time Memory Report at c_bands before calling an iterative solver
          1660 MiB given to the printing process from OS
             0 MiB allocation reported by mallinfo(arena+hblkhd)
        347212 MiB available memory on the node where the printing process lives
------------------
     ethr =  1.27E-11,  avg # of iterations =  1.5

     negative rho (up, down):  3.293E-03 0.000E+00

     total cpu time spent up to now is    31886.2 secs

     total energy              =  -10895.98748890 Ry
     estimated scf accuracy    <       0.00000012 Ry

     iteration # 19     ecut=    80.00 Ry     beta= 0.20
     Davidson diagonalization with overlap

---- Real-time Memory Report at c_bands before calling an iterative solver
          1660 MiB given to the printing process from OS
             0 MiB allocation reported by mallinfo(arena+hblkhd)
        347223 MiB available memory on the node where the printing process lives
------------------
     ethr =  1.27E-11,  avg # of iterations =  2.0

     negative rho (up, down):  3.293E-03 0.000E+00

     total cpu time spent up to now is    31951.0 secs

     total energy              =  -10895.98748890 Ry
     estimated scf accuracy    <       0.00000009 Ry

     iteration # 20     ecut=    80.00 Ry     beta= 0.20
     Davidson diagonalization with overlap

---- Real-time Memory Report at c_bands before calling an iterative solver
          1660 MiB given to the printing process from OS
             0 MiB allocation reported by mallinfo(arena+hblkhd)
        347177 MiB available memory on the node where the printing process lives
------------------
     ethr =  1.27E-11,  avg # of iterations =  1.0

     negative rho (up, down):  3.293E-03 0.000E+00

     total cpu time spent up to now is    32008.3 secs

     total energy              =  -10895.98748892 Ry
     estimated scf accuracy    <       0.00000010 Ry

     iteration # 21     ecut=    80.00 Ry     beta= 0.20
     Davidson diagonalization with overlap

---- Real-time Memory Report at c_bands before calling an iterative solver
          1660 MiB given to the printing process from OS
             0 MiB allocation reported by mallinfo(arena+hblkhd)
        347189 MiB available memory on the node where the printing process lives
------------------
     ethr =  1.27E-11,  avg # of iterations =  8.0

     negative rho (up, down):  3.293E-03 0.000E+00

     total cpu time spent up to now is    32117.5 secs

     total energy              =  -10895.98748902 Ry
     estimated scf accuracy    <       0.00000036 Ry

     iteration # 22     ecut=    80.00 Ry     beta= 0.20
     Davidson diagonalization with overlap

---- Real-time Memory Report at c_bands before calling an iterative solver
          1660 MiB given to the printing process from OS
             0 MiB allocation reported by mallinfo(arena+hblkhd)
        347234 MiB available memory on the node where the printing process lives
------------------
     ethr =  1.27E-11,  avg # of iterations =  4.5

     negative rho (up, down):  3.293E-03 0.000E+00

     total cpu time spent up to now is    32189.9 secs

     total energy              =  -10895.98748899 Ry
     estimated scf accuracy    <       0.00000053 Ry

     iteration # 23     ecut=    80.00 Ry     beta= 0.20
     Davidson diagonalization with overlap

---- Real-time Memory Report at c_bands before calling an iterative solver
          1660 MiB given to the printing process from OS
             0 MiB allocation reported by mallinfo(arena+hblkhd)
        347198 MiB available memory on the node where the printing process lives
------------------
     ethr =  1.27E-11,  avg # of iterations =  1.8

     negative rho (up, down):  3.293E-03 0.000E+00

     total cpu time spent up to now is    32251.9 secs

     total energy              =  -10895.98748891 Ry
     estimated scf accuracy    <       0.00000046 Ry

     iteration # 24     ecut=    80.00 Ry     beta= 0.20
     Davidson diagonalization with overlap

---- Real-time Memory Report at c_bands before calling an iterative solver
          1660 MiB given to the printing process from OS
             0 MiB allocation reported by mallinfo(arena+hblkhd)
        347179 MiB available memory on the node where the printing process lives
------------------
     ethr =  1.27E-11,  avg # of iterations =  6.2

     negative rho (up, down):  3.293E-03 0.000E+00

     total cpu time spent up to now is    32332.6 secs

     total energy              =  -10895.98748887 Ry
     estimated scf accuracy    <       0.00000017 Ry

     iteration # 25     ecut=    80.00 Ry     beta= 0.20
     Davidson diagonalization with overlap

---- Real-time Memory Report at c_bands before calling an iterative solver
          1660 MiB given to the printing process from OS
             0 MiB allocation reported by mallinfo(arena+hblkhd)
        347221 MiB available memory on the node where the printing process lives
------------------
     ethr =  1.27E-11,  avg # of iterations =  6.2

     negative rho (up, down):  3.293E-03 0.000E+00

     total cpu time spent up to now is    32432.7 secs

     total energy              =  -10895.98748890 Ry
     estimated scf accuracy    <       0.00000001 Ry

     iteration # 26     ecut=    80.00 Ry     beta= 0.20
     Davidson diagonalization with overlap

---- Real-time Memory Report at c_bands before calling an iterative solver
          1660 MiB given to the printing process from OS
             0 MiB allocation reported by mallinfo(arena+hblkhd)
        347179 MiB available memory on the node where the printing process lives
------------------
     ethr =  1.98E-12,  avg # of iterations = 11.5

     negative rho (up, down):  3.293E-03 0.000E+00

     total cpu time spent up to now is    32561.8 secs

     total energy              =  -10895.98748891 Ry
     estimated scf accuracy    <       0.00000006 Ry

     iteration # 27     ecut=    80.00 Ry     beta= 0.20
     Davidson diagonalization with overlap

---- Real-time Memory Report at c_bands before calling an iterative solver
          1660 MiB given to the printing process from OS
             0 MiB allocation reported by mallinfo(arena+hblkhd)
        347185 MiB available memory on the node where the printing process lives
------------------
     ethr =  1.98E-12,  avg # of iterations =  7.0

     negative rho (up, down):  3.293E-03 0.000E+00

     total cpu time spent up to now is    32660.4 secs

     End of self-consistent calculation

          k = 0.0000 0.0000 0.0000 (360677 PWs)   bands (ev):

   -25.2869 -25.2434 -25.1902 -25.1205 -24.9885 -24.9597 -24.9315 -24.8828
   -24.8176 -24.7942 -24.7589 -24.7232 -24.5551 -24.4633 -24.4365 -24.4075
   -24.3952 -24.3442 -24.3242 -24.2786 -24.2738 -24.2378 -24.2044 -24.1772
   -24.1639 -24.1320 -24.0983 -24.0815 -24.0808 -24.0788 -24.0448 -24.0392
   -24.0152 -23.9937 -23.9759 -23.9571 -23.9291 -23.9024 -23.8846 -23.8658
   -23.8554 -23.8217 -23.7770 -23.7543 -23.6508 -23.6410 -23.6065 -23.4090
   -20.3205 -20.2588 -20.2317 -20.2275 -20.1957 -20.1911 -20.1767 -20.1755
   -20.1711 -20.1632 -20.1617 -20.1463 -20.1456 -20.1449 -20.1352 -20.1194
   -20.1153 -20.1145 -20.1099 -20.1097 -20.1013 -20.1000 -20.0896 -20.0819
   -20.0809 -20.0794 -20.0666 -20.0659 -20.0580 -20.0551 -20.0538 -20.0465
   -20.0387 -20.0310 -20.0299 -20.0269 -20.0199 -20.0148 -20.0036 -20.0035
   -20.0000 -19.9968 -19.9934 -19.9921 -19.9846 -19.9810 -19.9789 -19.9688
   -19.9633 -19.9615 -19.9572 -19.9519 -19.9504 -19.9371 -19.9342 -19.9330
   -19.9326 -19.9231 -19.9195 -19.9179 -19.9144 -19.9110 -19.8997 -19.8992
   -19.8935 -19.8916 -19.8833 -19.8815 -19.8783 -19.8731 -19.8696 -19.8694
   -19.8670 -19.8645 -19.8597 -19.8580 -19.8566 -19.8557 -19.8530 -19.8474
   -19.8411 -19.8347 -19.8324 -19.8284 -19.8185 -19.8117 -19.8114 -19.8063
   -19.8021 -19.7994 -19.7978 -19.7847 -19.7788 -19.7727 -19.7717 -19.7677
   -19.7626 -19.7585 -19.7530 -19.7449 -19.7384 -19.7361 -19.7347 -19.7249
   -19.7201 -19.7121 -19.7078 -19.7050 -19.6915 -19.6786 -19.6710 -19.6635
   -19.6591 -19.6497 -19.6424 -19.6066 -19.6030 -19.5896 -19.5891 -19.5796
   -19.5751 -19.5733 -19.5390 -19.5212 -19.5208 -19.4861 -19.4667 -19.4540
   -19.4433 -19.4360 -19.4277 -19.3937 -19.3804 -19.3502 -19.3304 -19.3259
   -19.3133 -19.2900 -19.2891 -19.2575 -19.2075 -19.2005 -19.1875 -19.1772
   -19.1739 -19.1390 -19.1276 -19.1170 -19.0825 -19.0669 -19.0562 -19.0390
   -19.0204 -18.9991 -18.9963 -18.9669 -18.9639 -18.9423 -18.9316 -18.8564
   -13.2236 -13.1755 -13.1150 -13.1066 -13.0257 -12.9654 -12.8584 -12.8425
   -12.8417 -12.7848 -12.5850 -12.5775 -12.4889 -12.4656 -12.3057 -12.3004
   -12.2760 -12.2576 -11.7476 -11.7459 -11.6761 -11.6371 -11.5868 -11.5732
   -11.3376 -11.3203 -11.3109 -11.2689 -10.9580 -10.9511 -10.9141 -10.8982
   -10.8750 -10.7527 -10.7341 -10.7013 -10.6832 -10.6381 -10.6299 -10.5880
   -10.5862 -10.5385 -10.5264 -10.5206 -10.4717 -10.4136 -10.0968 -10.0886
   -10.0492  -9.9933  -9.9877  -9.9474  -9.8873  -9.8573  -9.8089  -9.7848
    -9.7421  -9.7305  -9.4879  -9.4574  -9.4433  -9.4125  -9.3502  -9.2937
    -9.2889  -9.2836  -9.2682  -9.2659  -9.2261  -9.1902  -9.0427  -9.0342
    -9.0206  -9.0010  -8.8191  -8.7999  -8.7252  -8.6939  -8.6683  -8.6521
    -8.6488  -8.6179  -8.6127  -8.5964  -8.5665  -8.5482  -8.5332  -8.5289
    -8.5181  -8.4966  -8.4838  -8.4736  -8.3453  -8.3155  -8.3051  -8.2832
    -8.2491  -8.2421  -8.2227  -8.1963  -8.1874  -8.1793  -7.9718  -7.9395
    -7.9201  -7.8757  -7.8660  -7.8535  -7.8343  -7.8245  -7.8032  -7.7932
    -7.7511  -7.7444  -7.7143  -7.7022  -7.6893  -7.6793  -7.6506  -7.6233
    -7.6136  -7.5893  -7.5715  -7.5646  -7.5481  -7.5414  -7.5364  -7.5208
    -7.5126  -7.4999  -7.4575  -7.4490  -7.4259  -7.4088  -7.4013  -7.3646
    -7.3636  -7.2981  -7.2939  -7.2376  -7.2154  -7.1550  -7.0515  -6.9841

     occupation numbers 
     1.0000   1.0000   1.0000   1.0000   1.0000   1.0000   1.0000   1.0000
     1.0000   1.0000   1.0000   1.0000   1.0000   1.0000   1.0000   1.0000
     1.0000   1.0000   1.0000   1.0000   1.0000   1.0000   1.0000   1.0000
     1.0000   1.0000   1.0000   1.0000   1.0000   1.0000   1.0000   1.0000
     1.0000   1.0000   1.0000   1.0000   1.0000   1.0000   1.0000   1.0000
     1.0000   1.0000   1.0000   1.0000   1.0000   1.0000   1.0000   1.0000
     1.0000   1.0000   1.0000   1.0000   1.0000   1.0000   1.0000   1.0000
     1.0000   1.0000   1.0000   1.0000   1.0000   1.0000   1.0000   1.0000
     1.0000   1.0000   1.0000   1.0000   1.0000   1.0000   1.0000   1.0000
     1.0000   1.0000   1.0000   1.0000   1.0000   1.0000   1.0000   1.0000
     1.0000   1.0000   1.0000   1.0000   1.0000   1.0000   1.0000   1.0000
     1.0000   1.0000   1.0000   1.0000   1.0000   1.0000   1.0000   1.0000
     1.0000   1.0000   1.0000   1.0000   1.0000   1.0000   1.0000   1.0000
     1.0000   1.0000   1.0000   1.0000   1.0000   1.0000   1.0000   1.0000
     1.0000   1.0000   1.0000   1.0000   1.0000   1.0000   1.0000   1.0000
     1.0000   1.0000   1.0000   1.0000   1.0000   1.0000   1.0000   1.0000
     1.0000   1.0000   1.0000   1.0000   1.0000   1.0000   1.0000   1.0000
     1.0000   1.0000   1.0000   1.0000   1.0000   1.0000   1.0000   1.0000
     1.0000   1.0000   1.0000   1.0000   1.0000   1.0000   1.0000   1.0000
     1.0000   1.0000   1.0000   1.0000   1.0000   1.0000   1.0000   1.0000
     1.0000   1.0000   1.0000   1.0000   1.0000   1.0000   1.0000   1.0000
     1.0000   1.0000   1.0000   1.0000   1.0000   1.0000   1.0000   1.0000
     1.0000   1.0000   1.0000   1.0000   1.0000   1.0000   1.0000   1.0000
     1.0000   1.0000   1.0000   1.0000   1.0000   1.0000   1.0000   1.0000
     1.0000   1.0000   1.0000   1.0000   1.0000   1.0000   1.0000   1.0000
     1.0000   1.0000   1.0000   1.0000   1.0000   1.0000   1.0000   1.0000
     1.0000   1.0000   1.0000   1.0000   1.0000   1.0000   1.0000   1.0000
     1.0000   1.0000   1.0000   1.0000   1.0000   1.0000   1.0000   1.0000
     1.0000   1.0000   1.0000   1.0000   1.0000   1.0000   1.0000   1.0000
     1.0000   1.0000   1.0000   1.0000   1.0000   1.0000   1.0000   1.0000
     1.0000   1.0000   1.0000   1.0000   1.0000   1.0000   1.0000   1.0000
     1.0000   1.0000   1.0000   1.0000   1.0000   1.0000   1.0000   1.0000
     1.0000   1.0000   1.0000   1.0000   1.0000   1.0000   1.0000   1.0000
     1.0000   1.0000   1.0000   1.0000   1.0000   1.0000   1.0000   1.0000
     1.0000   1.0000   1.0000   1.0000   1.0000   1.0000   1.0000   1.0000
     1.0000   1.0000   1.0000   1.0000   1.0000   1.0000   1.0000   1.0000
     1.0000   1.0000   1.0000   1.0000   1.0000   1.0000   1.0000   1.0000
     1.0000   1.0000   1.0000   1.0000   1.0000   1.0000   1.0000   1.0000
     1.0000   1.0000   1.0000   1.0000   1.0000   1.0000   1.0000   1.0000
     1.0000   1.0000   1.0000   1.0000   1.0000   1.0000   1.0000   1.0000
     1.0000   1.0000   1.0000   1.0000   1.0000   1.0000   1.0000   1.0000
     1.0000   1.0000   1.0000   1.0000   1.0000   1.0000   1.0000   1.0000
     1.0000   1.0000   1.0000   1.0000   1.0000   1.0000   1.0000   1.0000
     1.0000   1.0000   1.0000   1.0000   1.0000   1.0000   1.0000   1.0000

          k = 0.0247-0.5725 0.0000 (360514 PWs)   bands (ev):

   -25.2787 -25.2219 -25.2106 -25.1327 -24.9889 -24.9579 -24.9339 -24.8849
   -24.8181 -24.7985 -24.7595 -24.7209 -24.5556 -24.4630 -24.4357 -24.4035
   -24.3962 -24.3389 -24.3176 -24.2769 -24.2754 -24.2453 -24.2056 -24.1693
   -24.1559 -24.1261 -24.0984 -24.0829 -24.0748 -24.0691 -24.0676 -24.0414
   -24.0212 -23.9929 -23.9724 -23.9659 -23.9241 -23.9018 -23.8829 -23.8654
   -23.8606 -23.8214 -23.7762 -23.7541 -23.6516 -23.6421 -23.6065 -23.4090
   -20.3169 -20.2551 -20.2322 -20.2209 -20.1984 -20.1908 -20.1843 -20.1821
   -20.1657 -20.1616 -20.1595 -20.1469 -20.1456 -20.1430 -20.1320 -20.1227
   -20.1179 -20.1147 -20.1095 -20.1062 -20.1042 -20.0978 -20.0941 -20.0878
   -20.0798 -20.0792 -20.0704 -20.0680 -20.0608 -20.0544 -20.0518 -20.0451
   -20.0365 -20.0338 -20.0299 -20.0294 -20.0189 -20.0146 -20.0043 -20.0010
   -19.9971 -19.9966 -19.9951 -19.9913 -19.9852 -19.9800 -19.9751 -19.9703
   -19.9694 -19.9668 -19.9562 -19.9534 -19.9512 -19.9381 -19.9361 -19.9332
   -19.9273 -19.9217 -19.9180 -19.9177 -19.9125 -19.9103 -19.9018 -19.8976
   -19.8975 -19.8948 -19.8901 -19.8876 -19.8756 -19.8741 -19.8717 -19.8708
   -19.8653 -19.8648 -19.8620 -19.8588 -19.8567 -19.8515 -19.8500 -19.8483
   -19.8422 -19.8387 -19.8316 -19.8278 -19.8178 -19.8096 -19.8091 -19.8031
   -19.8017 -19.8011 -19.7967 -19.7830 -19.7798 -19.7696 -19.7676 -19.7671
   -19.7638 -19.7574 -19.7522 -19.7453 -19.7451 -19.7388 -19.7349 -19.7251
   -19.7215 -19.7098 -19.7072 -19.7034 -19.6910 -19.6845 -19.6650 -19.6640
   -19.6587 -19.6484 -19.6459 -19.6154 -19.6010 -19.5981 -19.5852 -19.5796
   -19.5780 -19.5736 -19.5255 -19.5253 -19.5059 -19.4691 -19.4577 -19.4466
   -19.4402 -19.4054 -19.3924 -19.3702 -19.3638 -19.3471 -19.3373 -19.3334
   -19.3278 -19.3035 -19.3003 -19.2815 -19.2226 -19.2213 -19.2171 -19.2129
   -19.1820 -19.1413 -19.1144 -19.1032 -19.0896 -19.0595 -19.0450 -19.0299
   -19.0143 -18.9994 -18.9945 -18.9710 -18.9667 -18.9405 -18.9343 -18.8562
   -13.2206 -13.1744 -13.1133 -13.1090 -12.9139 -12.9038 -12.8598 -12.8386
   -12.5907 -12.5644 -12.5562 -12.5187 -12.4844 -12.4798 -12.4429 -12.4412
   -12.2814 -12.2777 -12.2465 -12.2159 -11.6715 -11.6667 -11.6414 -11.5987
   -11.3228 -11.3155 -11.2967 -11.2822 -10.9331 -10.9151 -10.8885 -10.8368
   -10.8061 -10.7793 -10.7174 -10.6984 -10.6738 -10.6640 -10.6001 -10.5816
   -10.4926 -10.4692 -10.4302 -10.3628 -10.1707 -10.1180 -10.0872 -10.0687
   -10.0622 -10.0294 -10.0050 -10.0013  -9.9341  -9.9261  -9.8775  -9.8172
    -9.5718  -9.5467  -9.5146  -9.5104  -9.4437  -9.4252  -9.3875  -9.3727
    -9.3323  -9.2786  -9.2764  -9.2453  -9.2194  -9.2087  -9.2038  -9.1581
    -9.0640  -9.0388  -9.0207  -9.0152  -8.7843  -8.7258  -8.6722  -8.6619
    -8.6560  -8.6173  -8.6075  -8.5965  -8.5622  -8.5461  -8.5180  -8.4964
    -8.4588  -8.3674  -8.3443  -8.3341  -8.3203  -8.3014  -8.2946  -8.2738
    -8.2695  -8.2369  -8.2232  -8.2075  -8.0271  -7.9995  -7.9823  -7.9492
    -7.9241  -7.9016  -7.8906  -7.8694  -7.8570  -7.8446  -7.8321  -7.8131
    -7.7730  -7.7413  -7.7200  -7.7019  -7.6922  -7.6618  -7.6572  -7.6455
    -7.6359  -7.5969  -7.5939  -7.5791  -7.5646  -7.5584  -7.5458  -7.5247
    -7.5163  -7.5081  -7.4859  -7.4682  -7.4434  -7.4297  -7.4185  -7.4005
    -7.3818  -7.3383  -7.2967  -7.2438  -7.2094  -7.1485  -7.0481  -6.9813

     occupation numbers 
     1.0000   1.0000   1.0000   1.0000   1.0000   1.0000   1.0000   1.0000
     1.0000   1.0000   1.0000   1.0000   1.0000   1.0000   1.0000   1.0000
     1.0000   1.0000   1.0000   1.0000   1.0000   1.0000   1.0000   1.0000
     1.0000   1.0000   1.0000   1.0000   1.0000   1.0000   1.0000   1.0000
     1.0000   1.0000   1.0000   1.0000   1.0000   1.0000   1.0000   1.0000
     1.0000   1.0000   1.0000   1.0000   1.0000   1.0000   1.0000   1.0000
     1.0000   1.0000   1.0000   1.0000   1.0000   1.0000   1.0000   1.0000
     1.0000   1.0000   1.0000   1.0000   1.0000   1.0000   1.0000   1.0000
     1.0000   1.0000   1.0000   1.0000   1.0000   1.0000   1.0000   1.0000
     1.0000   1.0000   1.0000   1.0000   1.0000   1.0000   1.0000   1.0000
     1.0000   1.0000   1.0000   1.0000   1.0000   1.0000   1.0000   1.0000
     1.0000   1.0000   1.0000   1.0000   1.0000   1.0000   1.0000   1.0000
     1.0000   1.0000   1.0000   1.0000   1.0000   1.0000   1.0000   1.0000
     1.0000   1.0000   1.0000   1.0000   1.0000   1.0000   1.0000   1.0000
     1.0000   1.0000   1.0000   1.0000   1.0000   1.0000   1.0000   1.0000
     1.0000   1.0000   1.0000   1.0000   1.0000   1.0000   1.0000   1.0000
     1.0000   1.0000   1.0000   1.0000   1.0000   1.0000   1.0000   1.0000
     1.0000   1.0000   1.0000   1.0000   1.0000   1.0000   1.0000   1.0000
     1.0000   1.0000   1.0000   1.0000   1.0000   1.0000   1.0000   1.0000
     1.0000   1.0000   1.0000   1.0000   1.0000   1.0000   1.0000   1.0000
     1.0000   1.0000   1.0000   1.0000   1.0000   1.0000   1.0000   1.0000
     1.0000   1.0000   1.0000   1.0000   1.0000   1.0000   1.0000   1.0000
     1.0000   1.0000   1.0000   1.0000   1.0000   1.0000   1.0000   1.0000
     1.0000   1.0000   1.0000   1.0000   1.0000   1.0000   1.0000   1.0000
     1.0000   1.0000   1.0000   1.0000   1.0000   1.0000   1.0000   1.0000
     1.0000   1.0000   1.0000   1.0000   1.0000   1.0000   1.0000   1.0000
     1.0000   1.0000   1.0000   1.0000   1.0000   1.0000   1.0000   1.0000
     1.0000   1.0000   1.0000   1.0000   1.0000   1.0000   1.0000   1.0000
     1.0000   1.0000   1.0000   1.0000   1.0000   1.0000   1.0000   1.0000
     1.0000   1.0000   1.0000   1.0000   1.0000   1.0000   1.0000   1.0000
     1.0000   1.0000   1.0000   1.0000   1.0000   1.0000   1.0000   1.0000
     1.0000   1.0000   1.0000   1.0000   1.0000   1.0000   1.0000   1.0000
     1.0000   1.0000   1.0000   1.0000   1.0000   1.0000   1.0000   1.0000
     1.0000   1.0000   1.0000   1.0000   1.0000   1.0000   1.0000   1.0000
     1.0000   1.0000   1.0000   1.0000   1.0000   1.0000   1.0000   1.0000
     1.0000   1.0000   1.0000   1.0000   1.0000   1.0000   1.0000   1.0000
     1.0000   1.0000   1.0000   1.0000   1.0000   1.0000   1.0000   1.0000
     1.0000   1.0000   1.0000   1.0000   1.0000   1.0000   1.0000   1.0000
     1.0000   1.0000   1.0000   1.0000   1.0000   1.0000   1.0000   1.0000
     1.0000   1.0000   1.0000   1.0000   1.0000   1.0000   1.0000   1.0000
     1.0000   1.0000   1.0000   1.0000   1.0000   1.0000   1.0000   1.0000
     1.0000   1.0000   1.0000   1.0000   1.0000   1.0000   1.0000   1.0000
     1.0000   1.0000   1.0000   1.0000   1.0000   1.0000   1.0000   1.0000
     1.0000   1.0000   1.0000   1.0000   1.0000   1.0000   1.0000   1.0000

          k =-0.5052 0.1105 0.0000 (360696 PWs)   bands (ev):

   -25.2709 -25.2186 -25.1985 -25.1077 -25.0812 -24.9924 -24.9296 -24.9111
   -24.8556 -24.6778 -24.6338 -24.5955 -24.5869 -24.5615 -24.5246 -24.4962
   -24.3943 -24.3366 -24.3206 -24.2598 -24.2532 -24.2360 -24.2037 -24.1545
   -24.1365 -24.1122 -24.1079 -24.1006 -24.0968 -24.0809 -24.0431 -24.0363
   -24.0087 -23.9949 -23.9732 -23.9665 -23.9233 -23.9059 -23.8839 -23.8692
   -23.8519 -23.8217 -23.7757 -23.7560 -23.6504 -23.6412 -23.6073 -23.4091
   -20.3207 -20.2592 -20.2313 -20.2281 -20.1971 -20.1909 -20.1810 -20.1773
   -20.1715 -20.1642 -20.1564 -20.1470 -20.1452 -20.1436 -20.1357 -20.1205
   -20.1172 -20.1139 -20.1105 -20.1104 -20.1008 -20.1002 -20.0899 -20.0829
   -20.0809 -20.0797 -20.0677 -20.0646 -20.0584 -20.0549 -20.0522 -20.0445
   -20.0356 -20.0334 -20.0301 -20.0292 -20.0202 -20.0105 -20.0080 -20.0021
   -19.9978 -19.9931 -19.9921 -19.9907 -19.9857 -19.9789 -19.9784 -19.9685
   -19.9657 -19.9639 -19.9544 -19.9528 -19.9522 -19.9445 -19.9334 -19.9321
   -19.9303 -19.9215 -19.9193 -19.9172 -19.9079 -19.9072 -19.8977 -19.8916
   -19.8886 -19.8883 -19.8858 -19.8842 -19.8788 -19.8775 -19.8737 -19.8702
   -19.8661 -19.8660 -19.8600 -19.8540 -19.8516 -19.8496 -19.8477 -19.8440
   -19.8342 -19.8337 -19.8309 -19.8242 -19.8239 -19.8190 -19.8092 -19.8092
   -19.8057 -19.8008 -19.7943 -19.7920 -19.7881 -19.7734 -19.7666 -19.7598
   -19.7572 -19.7571 -19.7543 -19.7509 -19.7502 -19.7369 -19.7265 -19.7228
   -19.7157 -19.7145 -19.7098 -19.7045 -19.6958 -19.6934 -19.6765 -19.6654
   -19.6579 -19.6441 -19.6411 -19.6021 -19.5991 -19.5905 -19.5747 -19.5717
   -19.5710 -19.5540 -19.5529 -19.5470 -19.5327 -19.5074 -19.4859 -19.4703
   -19.4452 -19.4441 -19.4434 -19.4232 -19.3514 -19.3408 -19.3257 -19.3135
   -19.2982 -19.2840 -19.2632 -19.2362 -19.2276 -19.1977 -19.1806 -19.1741
   -19.1671 -19.1441 -19.1321 -19.1246 -19.0932 -19.0640 -19.0558 -19.0425
   -19.0129 -18.9984 -18.9936 -18.9711 -18.9594 -18.9407 -18.9366 -18.8559
   -13.1741 -13.0797 -13.0672 -13.0528 -12.9750 -12.9552 -12.9372 -12.9364
   -12.8430 -12.8060 -12.7926 -12.7595 -12.3232 -12.2799 -12.2441 -12.2141
   -12.1311 -12.1104 -12.0709 -12.0395 -11.9247 -11.8891 -11.8138 -11.7757
   -11.0254 -11.0185 -10.9893 -10.9561 -10.8974 -10.8096 -10.7982 -10.7943
   -10.7585 -10.7575 -10.7506 -10.7277 -10.6871 -10.6490 -10.6296 -10.6033
   -10.5661 -10.5365 -10.5242 -10.5165 -10.4702 -10.4138 -10.3545 -10.3117
   -10.1600 -10.1097 -10.0908 -10.0537  -9.9539  -9.8686  -9.7749  -9.7473
    -9.7118  -9.6925  -9.6000  -9.5177  -9.3229  -9.2728  -9.2334  -9.2088
    -9.1461  -9.1393  -9.1239  -9.1083  -9.1010  -9.0647  -9.0189  -8.9905
    -8.9637  -8.9552  -8.9281  -8.9166  -8.8892  -8.8655  -8.8361  -8.8262
    -8.8031  -8.7968  -8.7918  -8.7867  -8.7354  -8.6698  -8.6645  -8.6577
    -8.4724  -8.4537  -8.4448  -8.3766  -8.3354  -8.3135  -8.3072  -8.2180
    -8.0902  -8.0726  -8.0576  -8.0357  -8.0200  -7.9990  -7.9938  -7.9875
    -7.9817  -7.9780  -7.9674  -7.9366  -7.8536  -7.8000  -7.7889  -7.7740
    -7.7671  -7.7631  -7.7361  -7.7092  -7.6951  -7.6642  -7.6331  -7.6184
    -7.5882  -7.5766  -7.5702  -7.5552  -7.5450  -7.5167  -7.5108  -7.5018
    -7.4772  -7.4708  -7.4516  -7.4301  -7.3858  -7.3710  -7.3447  -7.3302
    -7.3085  -7.3019  -7.2996  -7.2932  -7.2796  -7.2386  -7.1645  -7.0707

     occupation numbers 
     1.0000   1.0000   1.0000   1.0000   1.0000   1.0000   1.0000   1.0000
     1.0000   1.0000   1.0000   1.0000   1.0000   1.0000   1.0000   1.0000
     1.0000   1.0000   1.0000   1.0000   1.0000   1.0000   1.0000   1.0000
     1.0000   1.0000   1.0000   1.0000   1.0000   1.0000   1.0000   1.0000
     1.0000   1.0000   1.0000   1.0000   1.0000   1.0000   1.0000   1.0000
     1.0000   1.0000   1.0000   1.0000   1.0000   1.0000   1.0000   1.0000
     1.0000   1.0000   1.0000   1.0000   1.0000   1.0000   1.0000   1.0000
     1.0000   1.0000   1.0000   1.0000   1.0000   1.0000   1.0000   1.0000
     1.0000   1.0000   1.0000   1.0000   1.0000   1.0000   1.0000   1.0000
     1.0000   1.0000   1.0000   1.0000   1.0000   1.0000   1.0000   1.0000
     1.0000   1.0000   1.0000   1.0000   1.0000   1.0000   1.0000   1.0000
     1.0000   1.0000   1.0000   1.0000   1.0000   1.0000   1.0000   1.0000
     1.0000   1.0000   1.0000   1.0000   1.0000   1.0000   1.0000   1.0000
     1.0000   1.0000   1.0000   1.0000   1.0000   1.0000   1.0000   1.0000
     1.0000   1.0000   1.0000   1.0000   1.0000   1.0000   1.0000   1.0000
     1.0000   1.0000   1.0000   1.0000   1.0000   1.0000   1.0000   1.0000
     1.0000   1.0000   1.0000   1.0000   1.0000   1.0000   1.0000   1.0000
     1.0000   1.0000   1.0000   1.0000   1.0000   1.0000   1.0000   1.0000
     1.0000   1.0000   1.0000   1.0000   1.0000   1.0000   1.0000   1.0000
     1.0000   1.0000   1.0000   1.0000   1.0000   1.0000   1.0000   1.0000
     1.0000   1.0000   1.0000   1.0000   1.0000   1.0000   1.0000   1.0000
     1.0000   1.0000   1.0000   1.0000   1.0000   1.0000   1.0000   1.0000
     1.0000   1.0000   1.0000   1.0000   1.0000   1.0000   1.0000   1.0000
     1.0000   1.0000   1.0000   1.0000   1.0000   1.0000   1.0000   1.0000
     1.0000   1.0000   1.0000   1.0000   1.0000   1.0000   1.0000   1.0000
     1.0000   1.0000   1.0000   1.0000   1.0000   1.0000   1.0000   1.0000
     1.0000   1.0000   1.0000   1.0000   1.0000   1.0000   1.0000   1.0000
     1.0000   1.0000   1.0000   1.0000   1.0000   1.0000   1.0000   1.0000
     1.0000   1.0000   1.0000   1.0000   1.0000   1.0000   1.0000   1.0000
     1.0000   1.0000   1.0000   1.0000   1.0000   1.0000   1.0000   1.0000
     1.0000   1.0000   1.0000   1.0000   1.0000   1.0000   1.0000   1.0000
     1.0000   1.0000   1.0000   1.0000   1.0000   1.0000   1.0000   1.0000
     1.0000   1.0000   1.0000   1.0000   1.0000   1.0000   1.0000   1.0000
     1.0000   1.0000   1.0000   1.0000   1.0000   1.0000   1.0000   1.0000
     1.0000   1.0000   1.0000   1.0000   1.0000   1.0000   1.0000   1.0000
     1.0000   1.0000   1.0000   1.0000   1.0000   1.0000   1.0000   1.0000
     1.0000   1.0000   1.0000   1.0000   1.0000   1.0000   1.0000   1.0000
     1.0000   1.0000   1.0000   1.0000   1.0000   1.0000   1.0000   1.0000
     1.0000   1.0000   1.0000   1.0000   1.0000   1.0000   1.0000   1.0000
     1.0000   1.0000   1.0000   1.0000   1.0000   1.0000   1.0000   1.0000
     1.0000   1.0000   1.0000   1.0000   1.0000   1.0000   1.0000   1.0000
     1.0000   1.0000   1.0000   1.0000   1.0000   1.0000   1.0000   1.0000
     1.0000   1.0000   1.0000   1.0000   1.0000   1.0000   1.0000   1.0000
     1.0000   1.0000   1.0000   1.0000   1.0000   1.0000   1.0000   1.0000

          k =-0.4805-0.4620 0.0000 (360682 PWs)   bands (ev):

   -25.2643 -25.2195 -25.1902 -25.1235 -25.0676 -24.9991 -24.9357 -24.9208
   -24.8557 -24.6793 -24.6355 -24.6129 -24.5674 -24.5622 -24.5259 -24.4919
   -24.3903 -24.3275 -24.3180 -24.2654 -24.2554 -24.2285 -24.1981 -24.1557
   -24.1315 -24.1101 -24.0990 -24.0894 -24.0892 -24.0801 -24.0714 -24.0339
   -24.0293 -23.9992 -23.9706 -23.9632 -23.9194 -23.9065 -23.8818 -23.8712
   -23.8552 -23.8227 -23.7762 -23.7548 -23.6514 -23.6421 -23.6063 -23.4090
   -20.3172 -20.2552 -20.2327 -20.2216 -20.1986 -20.1921 -20.1837 -20.1780
   -20.1756 -20.1613 -20.1541 -20.1465 -20.1457 -20.1435 -20.1342 -20.1231
   -20.1184 -20.1145 -20.1101 -20.1070 -20.1043 -20.0988 -20.0936 -20.0877
   -20.0804 -20.0799 -20.0684 -20.0683 -20.0606 -20.0548 -20.0504 -20.0446
   -20.0355 -20.0327 -20.0303 -20.0271 -20.0246 -20.0105 -20.0037 -20.0026
   -19.9973 -19.9948 -19.9927 -19.9924 -19.9851 -19.9819 -19.9749 -19.9691
   -19.9685 -19.9598 -19.9572 -19.9567 -19.9474 -19.9466 -19.9371 -19.9354
   -19.9242 -19.9214 -19.9181 -19.9142 -19.9091 -19.9062 -19.9014 -19.8967
   -19.8931 -19.8909 -19.8851 -19.8839 -19.8817 -19.8788 -19.8716 -19.8698
   -19.8685 -19.8681 -19.8651 -19.8516 -19.8510 -19.8481 -19.8460 -19.8407
   -19.8394 -19.8343 -19.8277 -19.8208 -19.8205 -19.8160 -19.8092 -19.8064
   -19.8011 -19.7983 -19.7959 -19.7929 -19.7910 -19.7730 -19.7662 -19.7602
   -19.7596 -19.7582 -19.7561 -19.7550 -19.7497 -19.7382 -19.7260 -19.7236
   -19.7162 -19.7143 -19.7105 -19.7019 -19.6933 -19.6928 -19.6804 -19.6690
   -19.6595 -19.6485 -19.6412 -19.6044 -19.6032 -19.5919 -19.5771 -19.5717
   -19.5614 -19.5599 -19.5463 -19.5442 -19.5040 -19.4993 -19.4768 -19.4567
   -19.4362 -19.4293 -19.3972 -19.3715 -19.3624 -19.3559 -19.3480 -19.3411
   -19.3124 -19.2959 -19.2811 -19.2472 -19.2320 -19.2208 -19.2105 -19.2064
   -19.1684 -19.1347 -19.1021 -19.0978 -19.0933 -19.0647 -19.0484 -19.0344
   -19.0260 -19.0014 -18.9921 -18.9738 -18.9612 -18.9386 -18.9370 -18.8559
   -13.2230 -13.2022 -13.1448 -13.1362 -12.7960 -12.7937 -12.7306 -12.7134
   -12.6826 -12.6376 -12.6064 -12.5811 -12.4494 -12.4262 -12.4032 -12.3308
   -12.3157 -12.3037 -12.2274 -12.1774 -12.0563 -12.0328 -12.0027 -11.9801
   -10.9505 -10.9114 -10.9062 -10.8916 -10.8735 -10.8508 -10.8410 -10.8090
   -10.7706 -10.7618 -10.7256 -10.6595 -10.5945 -10.5595 -10.5364 -10.5158
   -10.4683 -10.4504 -10.4316 -10.4169 -10.4001 -10.3908 -10.3192 -10.3173
   -10.1121 -10.0697 -10.0360 -10.0196  -9.8622  -9.8251  -9.8151  -9.8029
    -9.6701  -9.5959  -9.5913  -9.5866  -9.4348  -9.4170  -9.3696  -9.3418
    -9.3042  -9.2816  -9.2726  -9.2478  -9.0798  -9.0630  -9.0178  -8.9864
    -8.9741  -8.9576  -8.9525  -8.9349  -8.9214  -8.8784  -8.8679  -8.8279
    -8.8161  -8.7939  -8.7692  -8.7441  -8.6567  -8.6367  -8.6174  -8.5885
    -8.4773  -8.4063  -8.3830  -8.3440  -8.3089  -8.2501  -8.2346  -8.1678
    -8.0907  -8.0428  -8.0363  -8.0160  -7.9990  -7.9910  -7.9586  -7.9417
    -7.9274  -7.9158  -7.8745  -7.8654  -7.8582  -7.8502  -7.8198  -7.8044
    -7.7822  -7.7560  -7.7541  -7.7307  -7.7148  -7.7008  -7.6926  -7.6840
    -7.6615  -7.6238  -7.6077  -7.5722  -7.5611  -7.5334  -7.5220  -7.5190
    -7.4886  -7.4729  -7.4651  -7.4564  -7.4120  -7.3930  -7.3464  -7.3291
    -7.3165  -7.3110  -7.2998  -7.2966  -7.2892  -7.2410  -7.1585  -7.0671

     occupation numbers 
     1.0000   1.0000   1.0000   1.0000   1.0000   1.0000   1.0000   1.0000
     1.0000   1.0000   1.0000   1.0000   1.0000   1.0000   1.0000   1.0000
     1.0000   1.0000   1.0000   1.0000   1.0000   1.0000   1.0000   1.0000
     1.0000   1.0000   1.0000   1.0000   1.0000   1.0000   1.0000   1.0000
     1.0000   1.0000   1.0000   1.0000   1.0000   1.0000   1.0000   1.0000
     1.0000   1.0000   1.0000   1.0000   1.0000   1.0000   1.0000   1.0000
     1.0000   1.0000   1.0000   1.0000   1.0000   1.0000   1.0000   1.0000
     1.0000   1.0000   1.0000   1.0000   1.0000   1.0000   1.0000   1.0000
     1.0000   1.0000   1.0000   1.0000   1.0000   1.0000   1.0000   1.0000
     1.0000   1.0000   1.0000   1.0000   1.0000   1.0000   1.0000   1.0000
     1.0000   1.0000   1.0000   1.0000   1.0000   1.0000   1.0000   1.0000
     1.0000   1.0000   1.0000   1.0000   1.0000   1.0000   1.0000   1.0000
     1.0000   1.0000   1.0000   1.0000   1.0000   1.0000   1.0000   1.0000
     1.0000   1.0000   1.0000   1.0000   1.0000   1.0000   1.0000   1.0000
     1.0000   1.0000   1.0000   1.0000   1.0000   1.0000   1.0000   1.0000
     1.0000   1.0000   1.0000   1.0000   1.0000   1.0000   1.0000   1.0000
     1.0000   1.0000   1.0000   1.0000   1.0000   1.0000   1.0000   1.0000
     1.0000   1.0000   1.0000   1.0000   1.0000   1.0000   1.0000   1.0000
     1.0000   1.0000   1.0000   1.0000   1.0000   1.0000   1.0000   1.0000
     1.0000   1.0000   1.0000   1.0000   1.0000   1.0000   1.0000   1.0000
     1.0000   1.0000   1.0000   1.0000   1.0000   1.0000   1.0000   1.0000
     1.0000   1.0000   1.0000   1.0000   1.0000   1.0000   1.0000   1.0000
     1.0000   1.0000   1.0000   1.0000   1.0000   1.0000   1.0000   1.0000
     1.0000   1.0000   1.0000   1.0000   1.0000   1.0000   1.0000   1.0000
     1.0000   1.0000   1.0000   1.0000   1.0000   1.0000   1.0000   1.0000
     1.0000   1.0000   1.0000   1.0000   1.0000   1.0000   1.0000   1.0000
     1.0000   1.0000   1.0000   1.0000   1.0000   1.0000   1.0000   1.0000
     1.0000   1.0000   1.0000   1.0000   1.0000   1.0000   1.0000   1.0000
     1.0000   1.0000   1.0000   1.0000   1.0000   1.0000   1.0000   1.0000
     1.0000   1.0000   1.0000   1.0000   1.0000   1.0000   1.0000   1.0000
     1.0000   1.0000   1.0000   1.0000   1.0000   1.0000   1.0000   1.0000
     1.0000   1.0000   1.0000   1.0000   1.0000   1.0000   1.0000   1.0000
     1.0000   1.0000   1.0000   1.0000   1.0000   1.0000   1.0000   1.0000
     1.0000   1.0000   1.0000   1.0000   1.0000   1.0000   1.0000   1.0000
     1.0000   1.0000   1.0000   1.0000   1.0000   1.0000   1.0000   1.0000
     1.0000   1.0000   1.0000   1.0000   1.0000   1.0000   1.0000   1.0000
     1.0000   1.0000   1.0000   1.0000   1.0000   1.0000   1.0000   1.0000
     1.0000   1.0000   1.0000   1.0000   1.0000   1.0000   1.0000   1.0000
     1.0000   1.0000   1.0000   1.0000   1.0000   1.0000   1.0000   1.0000
     1.0000   1.0000   1.0000   1.0000   1.0000   1.0000   1.0000   1.0000
     1.0000   1.0000   1.0000   1.0000   1.0000   1.0000   1.0000   1.0000
     1.0000   1.0000   1.0000   1.0000   1.0000   1.0000   1.0000   1.0000
     1.0000   1.0000   1.0000   1.0000   1.0000   1.0000   1.0000   1.0000
     1.0000   1.0000   1.0000   1.0000   1.0000   1.0000   1.0000   1.0000

     highest occupied level (ev):    -6.9813

!    total energy              =  -10895.98748891 Ry
     estimated scf accuracy    <          9.2E-09 Ry

     convergence has been achieved in  27 iterations

     negative rho (up, down):  3.293E-03 0.000E+00

     Forces acting on atoms (cartesian axes, Ry/au):

     atom    1 type  1   force =    -0.01192082    0.01487903   -0.00044824
     atom    2 type  1   force =    -0.05289670   -0.01785946    0.00736883
     atom    3 type  2   force =    -0.00474064   -0.00468361   -0.00351958
     atom    4 type  2   force =     0.00504720    0.00398858   -0.00063498
     atom    5 type  2   force =     0.05299459    0.01813253   -0.00361607
     atom    6 type  1   force =     0.00186879    0.03726227   -0.00566432
     atom    7 type  1   force =     0.01578419    0.04573411   -0.01062369
     atom    8 type  2   force =    -0.01645051   -0.01407049   -0.00132019
     atom    9 type  2   force =     0.00268730   -0.06064659    0.01317231
     atom   10 type  2   force =     0.00207878    0.00046553    0.01339227
     atom   11 type  1   force =    -0.01956649    0.01325245   -0.00223028
     atom   12 type  1   force =    -0.01315638    0.00187711    0.01574261
     atom   13 type  2   force =    -0.03794693   -0.00230663    0.00112714
     atom   14 type  2   force =     0.00831248   -0.02284663    0.00356110
     atom   15 type  2   force =     0.03755247    0.00574135   -0.01399553
     atom   16 type  1   force =    -0.00761581    0.02270097    0.01617971
     atom   17 type  1   force =    -0.03521021   -0.00607242    0.01455564
     atom   18 type  2   force =     0.02161803   -0.00075157   -0.01351423
     atom   19 type  2   force =     0.01252823   -0.03791234    0.00447444
     atom   20 type  2   force =     0.00640426    0.00760363   -0.01943335
     atom   21 type  1   force =    -0.02566831    0.01972942   -0.01139171
     atom   22 type  1   force =    -0.01410548   -0.02293245   -0.00484190
     atom   23 type  2   force =     0.00378320   -0.00738602   -0.01061256
     atom   24 type  2   force =    -0.00701562    0.06989705   -0.01103197
     atom   25 type  2   force =    -0.00111327    0.01062324    0.01788235
     atom   26 type  1   force =    -0.02800759   -0.00639457    0.00569483
     atom   27 type  1   force =    -0.00204350    0.03501966    0.00004709
     atom   28 type  2   force =    -0.00792552   -0.00203351   -0.01515282
     atom   29 type  2   force =     0.00490801   -0.08106776    0.01546766
     atom   30 type  2   force =     0.00330095    0.00989810   -0.01732761
     atom   31 type  1   force =     0.00439139   -0.04325161    0.01494527
     atom   32 type  1   force =    -0.02971275   -0.02799974    0.00793063
     atom   33 type  2   force =     0.02140686   -0.00142843    0.01295594
     atom   34 type  2   force =     0.01156192    0.00377564   -0.00339936
     atom   35 type  2   force =     0.04896880   -0.00961141   -0.01247957
     atom   36 type  1   force =    -0.00871017    0.02952549    0.00296073
     atom   37 type  1   force =     0.03586954    0.00808688    0.01245947
     atom   38 type  2   force =    -0.01815468    0.00669296   -0.01391356
     atom   39 type  2   force =    -0.00824040    0.02742380   -0.01227482
     atom   40 type  2   force =    -0.01650899   -0.02411312   -0.00756183
     atom   41 type  1   force =    -0.00609618   -0.00827846   -0.01749427
     atom   42 type  1   force =     0.01862020   -0.03338736   -0.02637488
     atom   43 type  2   force =     0.00922804    0.00506507    0.01501998
     atom   44 type  2   force =    -0.00396766    0.03269031   -0.00218648
     atom   45 type  2   force =    -0.01905749    0.00156112    0.02938980
     atom   46 type  1   force =     0.00897131   -0.02410061    0.00796331
     atom   47 type  1   force =    -0.00303720   -0.03651050    0.01968183
     atom   48 type  2   force =     0.04021793   -0.02275584   -0.00112854
     atom   49 type  2   force =    -0.00866893    0.07403165   -0.01547959
     atom   50 type  2   force =    -0.01085670    0.00899824   -0.00122091
     atom   51 type  1   force =     0.01478176   -0.01118741   -0.00162788
     atom   52 type  1   force =     0.00279242    0.01733691   -0.01475887
     atom   53 type  2   force =    -0.01348370    0.00304169    0.00047759
     atom   54 type  2   force =    -0.00588205    0.01909696   -0.00428690
     atom   55 type  2   force =    -0.02066744   -0.01572556    0.01492052
     atom   56 type  1   force =     0.01176805   -0.05371387    0.02014286
     atom   57 type  1   force =    -0.00775358   -0.00277794    0.00883851
     atom   58 type  2   force =     0.01291467    0.01161403   -0.00304966
     atom   59 type  2   force =    -0.00325275    0.03982663   -0.01276885
     atom   60 type  2   force =     0.00487196   -0.00457179   -0.00937287
     atom   61 type  1   force =     0.02972375   -0.04249905   -0.00394254
     atom   62 type  1   force =    -0.00401450   -0.03912707   -0.01491357
     atom   63 type  2   force =     0.01076206   -0.01121921    0.01609523
     atom   64 type  2   force =     0.00516263   -0.00752855    0.00822409
     atom   65 type  2   force =     0.01172036    0.01497140    0.02155781
     atom   66 type  1   force =     0.00026927    0.02306288   -0.01162247
     atom   67 type  1   force =     0.03163319   -0.02117845   -0.01089304
     atom   68 type  2   force =     0.00060577    0.00537434    0.00336960
     atom   69 type  2   force =    -0.00837427    0.05675804   -0.00964662
     atom   70 type  2   force =    -0.03579711   -0.00606895    0.02159554
     atom   71 type  1   force =     0.02523469    0.02278535   -0.00328566
     atom   72 type  1   force =     0.02661916    0.01883728   -0.00823837
     atom   73 type  2   force =    -0.00787318    0.00129684   -0.00777953
     atom   74 type  2   force =    -0.01598100    0.02817903   -0.00637022
     atom   75 type  2   force =    -0.03367592    0.00117253    0.00392341
     atom   76 type  1   force =    -0.00936405   -0.03388507    0.00726527
     atom   77 type  1   force =    -0.00048325   -0.01140905    0.00191557
     atom   78 type  2   force =    -0.01343754    0.02705502    0.01184162
     atom   79 type  2   force =     0.00038330   -0.03191975    0.00364487
     atom   80 type  2   force =     0.03108776    0.00614775   -0.01435550
     The non-local contrib.  to forces
     atom    1 type  1   force =     0.20017610   -0.12386575    0.03658936
     atom    2 type  1   force =     0.05833418    0.13336811   -0.01322390
     atom    3 type  2   force =    -0.07913636    0.28816763   -1.02858441
     atom    4 type  2   force =     0.89335390    0.09136982   -0.05451732
     atom    5 type  2   force =    -0.07784499   -0.30952356    1.06383998
     atom    6 type  1   force =     0.13029840   -0.04628461    0.01966006
     atom    7 type  1   force =     0.09512665    0.10349988    0.05530374
     atom    8 type  2   force =    -0.08901061    0.31416463   -1.03123102
     atom    9 type  2   force =     0.81550103    0.16025929    0.15906389
     atom   10 type  2   force =     0.00381230   -0.29691499    1.11220662
     atom   11 type  1   force =     0.18198343   -0.05092303   -0.05547183
     atom   12 type  1   force =     0.07161195    0.03555686   -0.05680512
     atom   13 type  2   force =    -0.08962175    0.30596622   -0.97982501
     atom   14 type  2   force =     0.93017149    0.05621385   -0.00696938
     atom   15 type  2   force =    -0.04801503   -0.36703103    1.00432169
     atom   16 type  1   force =     0.12036204   -0.03872248    0.01758203
     atom   17 type  1   force =     0.13218134    0.19721638   -0.12530242
     atom   18 type  2   force =    -0.08896080    0.37410857   -1.09592526
     atom   19 type  2   force =     0.86421078    0.11958493   -0.07392852
     atom   20 type  2   force =    -0.03861401   -0.33548735    1.00203548
     atom   21 type  1   force =     0.15712060   -0.14096354    0.03631570
     atom   22 type  1   force =     0.02669805    0.08222742   -0.00232130
     atom   23 type  2   force =    -0.06984884    0.23541822   -1.09054357
     atom   24 type  2   force =     0.87408599    0.04229023    0.05510740
     atom   25 type  2   force =    -0.05568692   -0.30196042    1.13280402
     atom   26 type  1   force =     0.08101859   -0.07419370   -0.04223503
     atom   27 type  1   force =     0.07149204    0.15619638   -0.09057793
     atom   28 type  2   force =    -0.11391192    0.28674966   -1.09508512
     atom   29 type  2   force =     0.81786635    0.13809347   -0.05715688
     atom   30 type  2   force =     0.03094798   -0.30554123    0.95041894
     atom   31 type  1   force =     0.18906035   -0.08114424    0.11542388
     atom   32 type  1   force =     0.07285700    0.00382441   -0.08446271
     atom   33 type  2   force =    -0.13693405    0.25918392   -1.00751863
     atom   34 type  2   force =     0.89794997    0.02081669   -0.10180986
     atom   35 type  2   force =    -0.06987748   -0.33864134    1.00295980
     atom   36 type  1   force =     0.08485173    0.06916715    0.02172620
     atom   37 type  1   force =     0.03756969    0.08318213   -0.14681191
     atom   38 type  2   force =    -0.12159876    0.36300216   -1.08553615
     atom   39 type  2   force =     0.74289477    0.06614259   -0.14933449
     atom   40 type  2   force =    -0.04517898   -0.33557180    0.99416619
     atom   41 type  1   force =     0.01572994   -0.08827006    0.09342977
     atom   42 type  1   force =     0.05345739    0.09154574    0.00169470
     atom   43 type  2   force =    -0.13100646    0.23988492   -1.03859617
     atom   44 type  2   force =     0.78836719    0.04466240    0.04697911
     atom   45 type  2   force =    -0.04230599   -0.26204154    1.15697439
     atom   46 type  1   force =     0.14893721   -0.14612520    0.05483996
     atom   47 type  1   force =     0.09632252    0.08772684   -0.04827501
     atom   48 type  2   force =    -0.09503597    0.31497275   -1.06709969
     atom   49 type  2   force =     0.81505534   -0.01521773   -0.04907483
     atom   50 type  2   force =    -0.08806008   -0.33783653    1.02538378
     atom   51 type  1   force =     0.11724950   -0.07923287    0.07887293
     atom   52 type  1   force =     0.06364533    0.04527793   -0.12301709
     atom   53 type  2   force =    -0.07723789    0.26727749   -1.05066907
     atom   54 type  2   force =     0.81162086    0.06456333   -0.07410663
     atom   55 type  2   force =     0.01733616   -0.38166811    1.10266081
     atom   56 type  1   force =     0.09662904   -0.06626686    0.06579852
     atom   57 type  1   force =     0.04366068   -0.02634567   -0.08982070
     atom   58 type  2   force =    -0.13161912    0.31149532   -1.04747042
     atom   59 type  2   force =     0.85635286    0.02575829   -0.02946056
     atom   60 type  2   force =    -0.06746936   -0.32492054    1.00241261
     atom   61 type  1   force =     0.05392839   -0.09933451    0.07914839
     atom   62 type  1   force =     0.00880628    0.13018392    0.07832252
     atom   63 type  2   force =    -0.14062031    0.26233742   -1.00682430
     atom   64 type  2   force =     0.75879955    0.08635503    0.14702021
     atom   65 type  2   force =    -0.10648995   -0.27182303    1.10163843
     atom   66 type  1   force =     0.05207275   -0.10217779    0.11368123
     atom   67 type  1   force =     0.08844964    0.07942101   -0.05793992
     atom   68 type  2   force =    -0.08442585    0.22872414   -1.02694849
     atom   69 type  2   force =     0.78544580    0.07534599    0.11272635
     atom   70 type  2   force =    -0.00590235   -0.30173566    1.10539920
     atom   71 type  1   force =     0.05831799   -0.06930537    0.11047057
     atom   72 type  1   force =     0.04775399    0.07232484   -0.03825219
     atom   73 type  2   force =    -0.07309489    0.33447787   -1.08444801
     atom   74 type  2   force =     0.74060710    0.07064350    0.06492772
     atom   75 type  2   force =    -0.04898874   -0.27375317    1.01684607
     atom   76 type  1   force =     0.09849172   -0.02962253    0.06060517
     atom   77 type  1   force =    -0.00128968    0.04235812   -0.17174549
     atom   78 type  2   force =    -0.12978944    0.28456415   -1.00417453
     atom   79 type  2   force =     0.75492253    0.05474005   -0.10744557
     atom   80 type  2   force =     0.00505937   -0.29283987    0.95204901
     The ionic contribution  to forces
     atom    1 type  1   force =     1.80501669   11.26486741  -89.63095332
     atom    2 type  1   force =     0.23730075  -11.01013439 -127.72614349
     atom    3 type  2   force =    -0.18965924   -0.52018001  -15.34535945
     atom    4 type  2   force =    -4.06346154   -0.09596905  -49.42832987
     atom    5 type  2   force =     1.31791236    0.77114749  -85.34646149
     atom    6 type  1   force =     1.33939418   12.06503738  128.38045467
     atom    7 type  1   force =     1.50795784   -9.98264212   90.13220138
     atom    8 type  2   force =    -0.23967773   -1.06389485   86.00315725
     atom    9 type  2   force =    -3.53089028   -1.56900652   47.25613805
     atom   10 type  2   force =    -0.06120593    0.82847025   14.24163073
     atom   11 type  1   force =     0.65598620   12.06631285  -90.93142482
     atom   12 type  1   force =     1.30032539  -10.88931524 -130.31509673
     atom   13 type  2   force =    -0.77770731   -0.43880836  -15.59619596
     atom   14 type  2   force =    -3.77982528   -0.61510868  -50.74949038
     atom   15 type  2   force =     0.73580159    0.96122871  -86.19349919
     atom   16 type  1   force =     1.28527580   11.89612265  129.59838434
     atom   17 type  1   force =     1.08224260  -10.88195486   86.65944506
     atom   18 type  2   force =     0.60163499   -1.06556608   86.50071158
     atom   19 type  2   force =    -3.40533506   -1.20106543   50.42948809
     atom   20 type  2   force =     0.22285233    0.68121011   15.79586649
     atom   21 type  1   force =     0.98787146   11.46355371  -89.67859698
     atom   22 type  1   force =     1.47004242  -10.93784061 -127.02399318
     atom   23 type  2   force =     0.21875657   -0.41587824  -14.80784734
     atom   24 type  2   force =    -3.69098889    1.47789422  -50.66306961
     atom   25 type  2   force =     0.01567535    0.75220469  -86.66788167
     atom   26 type  1   force =     0.19220805   10.73544715  128.56975636
     atom   27 type  1   force =     1.82239158  -10.18929185   89.24382236
     atom   28 type  2   force =     0.06259673   -0.64641014   86.31570237
     atom   29 type  2   force =    -3.29314932   -2.12298447   51.36753313
     atom   30 type  2   force =    -0.05499287    0.24011047   16.36527282
     atom   31 type  1   force =     2.28408866   10.52729651  -88.55961910
     atom   32 type  1   force =     1.94653441  -12.40353988 -129.61076197
     atom   33 type  2   force =     0.88496767   -0.40251429  -15.57420668
     atom   34 type  2   force =    -3.40356842    0.07267312  -48.55374353
     atom   35 type  2   force =     1.29666074    0.44927395  -85.11120921
     atom   36 type  1   force =     1.07922271   12.38382652  129.25899013
     atom   37 type  1   force =     2.66446241  -10.78118661   86.92765727
     atom   38 type  2   force =     0.07380262   -1.06238172   86.34073692
     atom   39 type  2   force =    -3.42463004    0.52059247   51.56557939
     atom   40 type  2   force =    -0.17838800    0.53785055   15.22294019
     atom   41 type  1   force =     0.48580317   10.58859002  -90.01112615
     atom   42 type  1   force =     2.53237807  -11.72464270 -127.98383188
     atom   43 type  2   force =     0.64772936   -0.30292618  -15.71529578
     atom   44 type  2   force =    -3.22179020    0.69397165  -50.09642982
     atom   45 type  2   force =    -0.35781282    0.36913545  -87.21249413
     atom   46 type  1   force =     2.48734795   10.10483967  129.78359095
     atom   47 type  1   force =     2.27891475  -11.72496379   88.37533141
     atom   48 type  2   force =     1.16148664   -1.34125242   86.13057965
     atom   49 type  2   force =    -3.46483187    1.70892755   51.14825690
     atom   50 type  2   force =     0.34458059    0.56228120   15.70456976
     atom   51 type  1   force =     1.85343077   11.26605236  -88.34059997
     atom   52 type  1   force =     1.67207908  -10.75041231 -129.31427978
     atom   53 type  2   force =    -0.07758557   -0.68800859  -15.31753815
     atom   54 type  2   force =    -3.79828421    0.35689865  -49.22834588
     atom   55 type  2   force =    -0.68575514    1.18591932  -86.89228879
     atom   56 type  1   force =     1.53879054   10.56836039  129.42087173
     atom   57 type  1   force =     1.69510280  -11.67867421   88.72591155
     atom   58 type  2   force =     0.74947705   -0.80450245   86.22598506
     atom   59 type  2   force =    -3.38813443    0.94348910   50.09747990
     atom   60 type  2   force =     0.24886859    0.44291202   15.54547604
     atom   61 type  1   force =     1.95168880    9.56853731  -89.74278036
     atom   62 type  1   force =     1.56199599  -12.08733365 -127.65782059
     atom   63 type  2   force =     0.57231851   -0.59548826  -15.81214526
     atom   64 type  2   force =    -3.05059670   -0.43046524  -51.98145672
     atom   65 type  2   force =     0.75034131    0.45492573  -86.16780832
     atom   66 type  1   force =     0.68916673   10.94041252  130.08727711
     atom   67 type  1   force =     2.70715925  -11.03769458   90.59418304
     atom   68 type  2   force =     0.32890465   -0.40970698   85.11792907
     atom   69 type  2   force =    -3.52213127    1.13101889   48.66388505
     atom   70 type  2   force =    -1.05584690    0.72526680   14.77615717
     atom   71 type  1   force =     1.60774640   11.95541425  -87.78769142
     atom   72 type  1   force =     2.07826582   -9.97723361 -129.89091486
     atom   73 type  2   force =     0.21127009   -0.86156158  -14.30459167
     atom   74 type  2   force =    -3.51266432    0.33246469  -51.88560877
     atom   75 type  2   force =    -0.55938193    0.68774343  -84.92084499
     atom   76 type  1   force =     0.97356325   11.02464223  129.50368633
     atom   77 type  1   force =     1.35085256  -11.84772414   88.35184430
     atom   78 type  2   force =     0.15329376   -0.21860635   85.33703834
     atom   79 type  2   force =    -3.30546265   -0.84958958   52.19215108
     atom   80 type  2   force =     0.37021933    0.31953656   15.82010425
     The local contribution  to forces
     atom    1 type  1   force =    -2.01667580  -11.12896074   89.59433240
     atom    2 type  1   force =    -0.35200935   10.86176260  127.74692841
     atom    3 type  2   force =     0.26321272    0.23004031   16.36216186
     atom    4 type  2   force =     3.18338392    0.00946578   49.48171199
     atom    5 type  2   force =    -1.18735000   -0.44626026   84.28748990
     atom    6 type  1   force =    -1.46754182  -11.98182861 -128.40587626
     atom    7 type  1   force =    -1.58663819    9.93004267  -90.19806908
     atom    8 type  2   force =     0.31125421    0.73849013  -84.98151807
     atom    9 type  2   force =     2.72559800    1.34902051  -47.40050412
     atom   10 type  2   force =     0.05948375   -0.53386149  -15.33137256
     atom   11 type  1   force =    -0.85786045  -12.00422494   90.98354776
     atom   12 type  1   force =    -1.38663175   10.85822628  130.38797980
     atom   13 type  2   force =     0.82819472    0.13341536   16.56935997
     atom   14 type  2   force =     2.86656108    0.53640928   50.75997236
     atom   15 type  2   force =    -0.65041672   -0.59181185   85.18306280
     atom   16 type  1   force =    -1.41359095  -11.83582409 -129.59915798
     atom   17 type  1   force =    -1.25123574   10.68273751  -86.52021885
     atom   18 type  2   force =    -0.49174408    0.69416977  -85.42724419
     atom   19 type  2   force =     2.56174458    1.04430349  -50.35171840
     atom   20 type  2   force =    -0.17815923   -0.34115839  -16.80958795
     atom   21 type  1   force =    -1.17142166  -11.30562560   89.63082242
     atom   22 type  1   force =    -1.51263283   10.83411865  127.02109338
     atom   23 type  2   force =    -0.14578958    0.17526639   15.87891152
     atom   24 type  2   force =     2.81783812   -1.44924720   50.59732770
     atom   25 type  2   force =     0.03835386   -0.44240033   85.56226535
     atom   26 type  1   force =    -0.30325029  -10.67074647 -128.52215685
     atom   27 type  1   force =    -1.89632121   10.07348739  -89.15432815
     atom   28 type  2   force =     0.04226871    0.36032782  -85.24473240
     atom   29 type  2   force =     2.48775838    1.90434786  -51.29527603
     atom   30 type  2   force =     0.02760003    0.07250396  -17.32565922
     atom   31 type  1   force =    -2.46811659  -10.49457915   88.46129468
     atom   32 type  1   force =    -2.05111245   12.37239641  129.70266597
     atom   33 type  2   force =    -0.72771363    0.14434654   16.58680324
     atom   34 type  2   force =     2.52557836   -0.08941501   48.65118587
     atom   35 type  2   force =    -1.17808298   -0.12346429   84.10363222
     atom   36 type  1   force =    -1.17341216  -12.42293981 -129.27756243
     atom   37 type  1   force =    -2.66523404   10.70917439  -86.76948657
     atom   38 type  2   force =     0.02836127    0.70947402  -85.27797677
     atom   39 type  2   force =     2.68026036   -0.55848065  -51.42998853
     atom   40 type  2   force =     0.20647950   -0.22969538  -16.21682740
     atom   41 type  1   force =    -0.50941338  -10.51179000   89.90052110
     atom   42 type  1   force =    -2.56690466   11.60078351  127.95430961
     atom   43 type  2   force =    -0.50862019    0.07041480   16.76078968
     atom   44 type  2   force =     2.43670099   -0.70519578   50.04766363
     atom   45 type  2   force =     0.38048941   -0.10804113   86.09455129
     atom   46 type  1   force =    -2.62661849   -9.98763517 -129.82939078
     atom   47 type  1   force =    -2.37852313   11.60145107  -88.30661352
     atom   48 type  2   force =    -1.02679831    1.00628180  -85.07315790
     atom   49 type  2   force =     2.64853770   -1.61911990  -51.11523036
     atom   50 type  2   force =    -0.26826972   -0.21855052  -16.72299625
     atom   51 type  1   force =    -1.95531195  -11.20133983   88.26083710
     atom   52 type  1   force =    -1.73343469   10.72557528  129.42007716
     atom   53 type  2   force =     0.14047335    0.42628966   16.36029611
     atom   54 type  2   force =     2.98816382   -0.40159159   49.29744619
     atom   55 type  2   force =     0.64768364   -0.82361679   85.81356269
     atom   56 type  1   force =    -1.62357401  -10.56117735 -129.46466446
     atom   57 type  1   force =    -1.74765860   11.70356541  -88.62781527
     atom   58 type  2   force =    -0.60605143    0.50760051  -85.18998845
     atom   59 type  2   force =     2.53635674   -0.92876749  -50.08120345
     atom   60 type  2   force =    -0.17712578   -0.12562429  -16.54936467
     atom   61 type  1   force =    -1.97563630   -9.51652082   89.66039560
     atom   62 type  1   force =    -1.57621634   11.91938350  127.56480148
     atom   63 type  2   force =    -0.42213765    0.32433161   16.82722482
     atom   64 type  2   force =     2.30407800    0.33733526   51.84407899
     atom   65 type  2   force =    -0.63296841   -0.17060849   85.09684517
     atom   66 type  1   force =    -0.74168441  -10.81693019 -130.21160966
     atom   67 type  1   force =    -2.76257103   10.93863423  -90.54874796
     atom   68 type  2   force =    -0.24468786    0.18860316  -84.09579448
     atom   69 type  2   force =     2.73547858   -1.14841030  -48.78534462
     atom   70 type  2   force =     1.02555286   -0.43248007  -15.85085369
     atom   71 type  1   force =    -1.63995878  -11.86473169   87.67507530
     atom   72 type  1   force =    -2.09835436    9.92696084  129.92007417
     atom   73 type  2   force =    -0.14681869    0.53148377   15.37248750
     atom   74 type  2   force =     2.76270754   -0.37402784   51.81481298
     atom   75 type  2   force =     0.57396825   -0.41542634   83.91609840
     atom   76 type  1   force =    -1.08261384  -11.03295977 -129.55615719
     atom   77 type  1   force =    -1.35132985   11.79588007  -88.18015131
     atom   78 type  2   force =    -0.03824339   -0.03601124  -84.32889615
     atom   79 type  2   force =     2.55790613    0.76318912  -52.08200820
     atom   80 type  2   force =    -0.34394388   -0.02329687  -16.77909415
     The core correction contribution to forces
     atom    1 type  1   force =    -0.00043366    0.00283318   -0.00042191
     atom    2 type  1   force =     0.00346265   -0.00285496   -0.00018978
     atom    3 type  2   force =     0.00084629   -0.00271292    0.00826012
     atom    4 type  2   force =    -0.00822310   -0.00087992    0.00049924
     atom    5 type  2   force =     0.00028321    0.00276304   -0.00848663
     atom    6 type  1   force =    -0.00029113    0.00034575    0.00011125
     atom    7 type  1   force =    -0.00066958   -0.00520128   -0.00002811
     atom    8 type  2   force =     0.00098559   -0.00283103    0.00827902
     atom    9 type  2   force =    -0.00751655   -0.00092048   -0.00153182
     atom   10 type  2   force =    -0.00000468    0.00276868   -0.00907422
     atom   11 type  1   force =     0.00031770    0.00209600    0.00112291
     atom   12 type  1   force =     0.00150983   -0.00257174   -0.00027742
     atom   13 type  2   force =     0.00119008   -0.00288273    0.00779141
     atom   14 type  2   force =    -0.00859166   -0.00035730    0.00004948
     atom   15 type  2   force =     0.00017817    0.00335423   -0.00787892
     atom   16 type  1   force =     0.00029088    0.00114541   -0.00065760
     atom   17 type  1   force =     0.00161186   -0.00405847    0.00062615
     atom   18 type  2   force =     0.00068140   -0.00346434    0.00893434
     atom   19 type  2   force =    -0.00808999   -0.00072840    0.00063109
     atom   20 type  2   force =     0.00032576    0.00304737   -0.00775743
     atom   21 type  1   force =     0.00076533    0.00275656    0.00008505
     atom   22 type  1   force =     0.00178462   -0.00144469    0.00042303
     atom   23 type  2   force =     0.00066890   -0.00219719    0.00886677
     atom   24 type  2   force =    -0.00794909   -0.00104524   -0.00040256
     atom   25 type  2   force =     0.00054530    0.00277203   -0.00930047
     atom   26 type  1   force =     0.00200400    0.00309432    0.00033377
     atom   27 type  1   force =     0.00040734   -0.00538242    0.00113779
     atom   28 type  2   force =     0.00112208   -0.00270291    0.00896021
     atom   29 type  2   force =    -0.00756599   -0.00051777    0.00036000
     atom   30 type  2   force =    -0.00025196    0.00282505   -0.00736342
     atom   31 type  1   force =    -0.00066229    0.00517572   -0.00215826
     atom   32 type  1   force =     0.00200907   -0.00067812    0.00048813
     atom   33 type  2   force =     0.00109131   -0.00244118    0.00787650
     atom   34 type  2   force =    -0.00838769   -0.00029981    0.00096322
     atom   35 type  2   force =     0.00026617    0.00322644   -0.00786706
     atom   36 type  1   force =     0.00067264   -0.00051820   -0.00024551
     atom   37 type  1   force =    -0.00091856   -0.00308155    0.00104796
     atom   38 type  2   force =     0.00127465   -0.00340514    0.00885432
     atom   39 type  2   force =    -0.00676158   -0.00083747    0.00146500
     atom   40 type  2   force =     0.00058557    0.00330480   -0.00785624
     atom   41 type  1   force =     0.00177547    0.00319456   -0.00032453
     atom   42 type  1   force =    -0.00030908   -0.00109796    0.00146671
     atom   43 type  2   force =     0.00112686   -0.00230943    0.00812845
     atom   44 type  2   force =    -0.00725056   -0.00075014   -0.00040263
     atom   45 type  2   force =     0.00057308    0.00250577   -0.00963870
     atom   46 type  1   force =    -0.00068641    0.00481694   -0.00108515
     atom   47 type  1   force =     0.00025351   -0.00072251   -0.00076326
     atom   48 type  2   force =     0.00057234   -0.00276053    0.00854623
     atom   49 type  2   force =    -0.00742210   -0.00056209    0.00056534
     atom   50 type  2   force =     0.00089577    0.00310182   -0.00817174
     atom   51 type  1   force =    -0.00060314    0.00334550   -0.00071736
     atom   52 type  1   force =     0.00049318   -0.00310049    0.00249825
     atom   53 type  2   force =     0.00086853   -0.00251057    0.00839369
     atom   54 type  2   force =    -0.00737789   -0.00077293    0.00071927
     atom   55 type  2   force =     0.00007380    0.00364390   -0.00901559
     atom   56 type  1   force =    -0.00007496    0.00537767   -0.00186597
     atom   57 type  1   force =     0.00112919   -0.00131183    0.00053944
     atom   58 type  2   force =     0.00112121   -0.00298102    0.00841884
     atom   59 type  2   force =    -0.00782238   -0.00065485    0.00040989
     atom   60 type  2   force =     0.00059823    0.00306229   -0.00789872
     atom   61 type  1   force =    -0.00026652    0.00481913   -0.00070116
     atom   62 type  1   force =     0.00139918   -0.00137784   -0.00020401
     atom   63 type  2   force =     0.00120496   -0.00240130    0.00784288
     atom   64 type  2   force =    -0.00711510   -0.00075361   -0.00141752
     atom   65 type  2   force =     0.00083978    0.00247681   -0.00911077
     atom   66 type  1   force =     0.00071832    0.00176791   -0.00095331
     atom   67 type  1   force =    -0.00143506   -0.00156122    0.00164074
     atom   68 type  2   force =     0.00081378   -0.00224749    0.00817834
     atom   69 type  2   force =    -0.00716408   -0.00120143   -0.00091609
     atom   70 type  2   force =     0.00039779    0.00287895   -0.00910755
     atom   71 type  1   force =    -0.00087621    0.00140412   -0.00112394
     atom   72 type  1   force =    -0.00103391   -0.00319854    0.00085999
     atom   73 type  2   force =     0.00076612   -0.00310297    0.00877572
     atom   74 type  2   force =    -0.00663014   -0.00089945   -0.00050283
     atom   75 type  2   force =     0.00073628    0.00260728   -0.00816799
     atom   76 type  1   force =     0.00116379    0.00405046   -0.00086265
     atom   77 type  1   force =     0.00128944   -0.00193615    0.00196845
     atom   78 type  2   force =     0.00130494   -0.00289217    0.00787124
     atom   79 type  2   force =    -0.00698312   -0.00025537    0.00094371
     atom   80 type  2   force =    -0.00023876    0.00274932   -0.00740956
     The Hubbard contrib.    to forces
     atom    1 type  1   force =     0.00000000    0.00000000    0.00000000
     atom    2 type  1   force =     0.00000000    0.00000000    0.00000000
     atom    3 type  2   force =     0.00000000    0.00000000    0.00000000
     atom    4 type  2   force =     0.00000000    0.00000000    0.00000000
     atom    5 type  2   force =     0.00000000    0.00000000    0.00000000
     atom    6 type  1   force =     0.00000000    0.00000000    0.00000000
     atom    7 type  1   force =     0.00000000    0.00000000    0.00000000
     atom    8 type  2   force =     0.00000000    0.00000000    0.00000000
     atom    9 type  2   force =     0.00000000    0.00000000    0.00000000
     atom   10 type  2   force =     0.00000000    0.00000000    0.00000000
     atom   11 type  1   force =     0.00000000    0.00000000    0.00000000
     atom   12 type  1   force =     0.00000000    0.00000000    0.00000000
     atom   13 type  2   force =     0.00000000    0.00000000    0.00000000
     atom   14 type  2   force =     0.00000000    0.00000000    0.00000000
     atom   15 type  2   force =     0.00000000    0.00000000    0.00000000
     atom   16 type  1   force =     0.00000000    0.00000000    0.00000000
     atom   17 type  1   force =     0.00000000    0.00000000    0.00000000
     atom   18 type  2   force =     0.00000000    0.00000000    0.00000000
     atom   19 type  2   force =     0.00000000    0.00000000    0.00000000
     atom   20 type  2   force =     0.00000000    0.00000000    0.00000000
     atom   21 type  1   force =     0.00000000    0.00000000    0.00000000
     atom   22 type  1   force =     0.00000000    0.00000000    0.00000000
     atom   23 type  2   force =     0.00000000    0.00000000    0.00000000
     atom   24 type  2   force =     0.00000000    0.00000000    0.00000000
     atom   25 type  2   force =     0.00000000    0.00000000    0.00000000
     atom   26 type  1   force =     0.00000000    0.00000000    0.00000000
     atom   27 type  1   force =     0.00000000    0.00000000    0.00000000
     atom   28 type  2   force =     0.00000000    0.00000000    0.00000000
     atom   29 type  2   force =     0.00000000    0.00000000    0.00000000
     atom   30 type  2   force =     0.00000000    0.00000000    0.00000000
     atom   31 type  1   force =     0.00000000    0.00000000    0.00000000
     atom   32 type  1   force =     0.00000000    0.00000000    0.00000000
     atom   33 type  2   force =     0.00000000    0.00000000    0.00000000
     atom   34 type  2   force =     0.00000000    0.00000000    0.00000000
     atom   35 type  2   force =     0.00000000    0.00000000    0.00000000
     atom   36 type  1   force =     0.00000000    0.00000000    0.00000000
     atom   37 type  1   force =     0.00000000    0.00000000    0.00000000
     atom   38 type  2   force =     0.00000000    0.00000000    0.00000000
     atom   39 type  2   force =     0.00000000    0.00000000    0.00000000
     atom   40 type  2   force =     0.00000000    0.00000000    0.00000000
     atom   41 type  1   force =     0.00000000    0.00000000    0.00000000
     atom   42 type  1   force =     0.00000000    0.00000000    0.00000000
     atom   43 type  2   force =     0.00000000    0.00000000    0.00000000
     atom   44 type  2   force =     0.00000000    0.00000000    0.00000000
     atom   45 type  2   force =     0.00000000    0.00000000    0.00000000
     atom   46 type  1   force =     0.00000000    0.00000000    0.00000000
     atom   47 type  1   force =     0.00000000    0.00000000    0.00000000
     atom   48 type  2   force =     0.00000000    0.00000000    0.00000000
     atom   49 type  2   force =     0.00000000    0.00000000    0.00000000
     atom   50 type  2   force =     0.00000000    0.00000000    0.00000000
     atom   51 type  1   force =     0.00000000    0.00000000    0.00000000
     atom   52 type  1   force =     0.00000000    0.00000000    0.00000000
     atom   53 type  2   force =     0.00000000    0.00000000    0.00000000
     atom   54 type  2   force =     0.00000000    0.00000000    0.00000000
     atom   55 type  2   force =     0.00000000    0.00000000    0.00000000
     atom   56 type  1   force =     0.00000000    0.00000000    0.00000000
     atom   57 type  1   force =     0.00000000    0.00000000    0.00000000
     atom   58 type  2   force =     0.00000000    0.00000000    0.00000000
     atom   59 type  2   force =     0.00000000    0.00000000    0.00000000
     atom   60 type  2   force =     0.00000000    0.00000000    0.00000000
     atom   61 type  1   force =     0.00000000    0.00000000    0.00000000
     atom   62 type  1   force =     0.00000000    0.00000000    0.00000000
     atom   63 type  2   force =     0.00000000    0.00000000    0.00000000
     atom   64 type  2   force =     0.00000000    0.00000000    0.00000000
     atom   65 type  2   force =     0.00000000    0.00000000    0.00000000
     atom   66 type  1   force =     0.00000000    0.00000000    0.00000000
     atom   67 type  1   force =     0.00000000    0.00000000    0.00000000
     atom   68 type  2   force =     0.00000000    0.00000000    0.00000000
     atom   69 type  2   force =     0.00000000    0.00000000    0.00000000
     atom   70 type  2   force =     0.00000000    0.00000000    0.00000000
     atom   71 type  1   force =     0.00000000    0.00000000    0.00000000
     atom   72 type  1   force =     0.00000000    0.00000000    0.00000000
     atom   73 type  2   force =     0.00000000    0.00000000    0.00000000
     atom   74 type  2   force =     0.00000000    0.00000000    0.00000000
     atom   75 type  2   force =     0.00000000    0.00000000    0.00000000
     atom   76 type  1   force =     0.00000000    0.00000000    0.00000000
     atom   77 type  1   force =     0.00000000    0.00000000    0.00000000
     atom   78 type  2   force =     0.00000000    0.00000000    0.00000000
     atom   79 type  2   force =     0.00000000    0.00000000    0.00000000
     atom   80 type  2   force =     0.00000000    0.00000000    0.00000000
     The SCF correction term to forces
     atom    1 type  1   force =    -0.00000190    0.00000462    0.00000420
     atom    2 type  1   force =     0.00001733   -0.00000113   -0.00000344
     atom    3 type  2   force =    -0.00000179    0.00000106    0.00000125
     atom    4 type  2   force =    -0.00000374    0.00000164   -0.00000005
     atom    5 type  2   force =    -0.00000375    0.00000551    0.00000114
     atom    6 type  1   force =     0.00001141   -0.00000794   -0.00001507
     atom    7 type  1   force =     0.00000972    0.00003464   -0.00003265
     atom    8 type  2   force =     0.00000029    0.00000031   -0.00000841
     atom    9 type  2   force =    -0.00000266    0.00000030    0.00000529
     atom   10 type  2   force =    -0.00000440    0.00000277    0.00000068
     atom   11 type  1   force =     0.00000887   -0.00000873   -0.00000533
     atom   12 type  1   force =     0.00003045   -0.00001936   -0.00005895
     atom   13 type  2   force =    -0.00000041    0.00000257   -0.00000430
     atom   14 type  2   force =    -0.00000089   -0.00000409   -0.00000201
     atom   15 type  2   force =     0.00000671    0.00000098   -0.00000294
     atom   16 type  1   force =     0.00004867   -0.00002084    0.00002788
     atom   17 type  1   force =    -0.00000801   -0.00001329    0.00000467
     atom   18 type  2   force =     0.00000878    0.00000020    0.00000826
     atom   19 type  2   force =     0.00000017   -0.00000725    0.00000115
     atom   20 type  2   force =     0.00000166   -0.00000843    0.00000903
     atom   21 type  1   force =    -0.00000178    0.00000797   -0.00001892
     atom   22 type  1   force =     0.00000451    0.00000647   -0.00004486
     atom   23 type  2   force =    -0.00000160    0.00000448   -0.00000099
     atom   24 type  2   force =     0.00000050    0.00000473    0.00000407
     atom   25 type  2   force =     0.00000139    0.00000696   -0.00000591
     atom   26 type  1   force =     0.00001430    0.00000381   -0.00000445
     atom   27 type  1   force =    -0.00001101    0.00000986   -0.00000800
     atom   28 type  2   force =     0.00000114    0.00000175    0.00000109
     atom   29 type  2   force =     0.00000084   -0.00000717    0.00000640
     atom   30 type  2   force =     0.00000001   -0.00000046    0.00000224
     atom   31 type  1   force =     0.00002352   -0.00000076    0.00000304
     atom   32 type  1   force =     0.00000148   -0.00000287    0.00000018
     atom   33 type  2   force =    -0.00000219   -0.00000372    0.00000048
     atom   34 type  2   force =    -0.00000805    0.00000034    0.00000392
     atom   35 type  2   force =     0.00000460   -0.00000649    0.00000365
     atom   36 type  1   force =    -0.00004283   -0.00001048    0.00005131
     atom   37 type  1   force =    -0.00000772   -0.00000179    0.00005169
     atom   38 type  2   force =     0.00000780    0.00000333    0.00000709
     atom   39 type  2   force =    -0.00000166    0.00000656    0.00000278
     atom   40 type  2   force =    -0.00000483   -0.00000160    0.00001440
     atom   41 type  1   force =     0.00001087   -0.00000329    0.00000452
     atom   42 type  1   force =     0.00000073    0.00002373   -0.00001506
     atom   43 type  2   force =     0.00000071    0.00000064   -0.00000724
     atom   44 type  2   force =     0.00000717    0.00000186    0.00000221
     atom   45 type  2   force =     0.00000109    0.00000225   -0.00000409
     atom   46 type  1   force =    -0.00000670    0.00000284    0.00000730
     atom   47 type  1   force =    -0.00000261   -0.00000242    0.00000118
     atom   48 type  2   force =    -0.00000453    0.00000224    0.00000214
     atom   49 type  2   force =    -0.00000576    0.00000351    0.00000233
     atom   50 type  2   force =    -0.00000102    0.00000196   -0.00000749
     atom   51 type  1   force =     0.00001883   -0.00001290   -0.00002161
     atom   52 type  1   force =     0.00001176   -0.00000381   -0.00003844
     atom   53 type  2   force =     0.00000012   -0.00000662   -0.00000601
     atom   54 type  2   force =    -0.00000239   -0.00000081   -0.00000088
     atom   55 type  2   force =    -0.00000364   -0.00000418    0.00000036
     atom   56 type  1   force =    -0.00000030   -0.00000802    0.00000200
     atom   57 type  1   force =     0.00001460   -0.00001194    0.00002246
     atom   58 type  2   force =    -0.00001079    0.00000136    0.00000427
     atom   59 type  2   force =    -0.00000329    0.00000127    0.00000433
     atom   60 type  2   force =     0.00000252   -0.00000158    0.00000084
     atom   61 type  1   force =     0.00001163   -0.00000047   -0.00000604
     atom   62 type  1   force =     0.00000265    0.00001667   -0.00001401
     atom   63 type  2   force =    -0.00000121    0.00000101   -0.00000394
     atom   64 type  2   force =    -0.00000088   -0.00000031   -0.00000191
     atom   65 type  2   force =    -0.00000012    0.00000006   -0.00000772
     atom   66 type  1   force =    -0.00000187   -0.00000988   -0.00001888
     atom   67 type  1   force =     0.00003265    0.00002181   -0.00002998
     atom   68 type  2   force =     0.00000330    0.00000119    0.00000412
     atom   69 type  2   force =    -0.00000106    0.00000459    0.00000165
     atom   70 type  2   force =     0.00000374    0.00000072   -0.00000063
     atom   71 type  1   force =     0.00000753    0.00000375   -0.00001721
     atom   72 type  1   force =    -0.00001013   -0.00001655   -0.00000652
     atom   73 type  2   force =     0.00000643   -0.00000055   -0.00000411
     atom   74 type  2   force =     0.00000107   -0.00000218   -0.00000035
     atom   75 type  2   force =    -0.00000753    0.00000103   -0.00000911
     atom   76 type  1   force =     0.00003328    0.00000424   -0.00000742
     atom   77 type  1   force =    -0.00000347    0.00001273   -0.00000142
     atom   78 type  2   force =    -0.00000116    0.00000032    0.00000169
     atom   79 type  2   force =     0.00000266   -0.00000428    0.00000282
     atom   80 type  2   force =    -0.00000606   -0.00000170   -0.00000608

     Total force =     0.317932     Total SCF correction =     0.000189


     Computing stress (Cartesian axis) and pressure


     negative rho (up, down):  3.293E-03 0.000E+00
