generated by phonopy
   1.0
    20.7187485966523823    0.0000000000000000    0.0000000000000000
     6.9063901264718801   21.6619978427851194    0.0000000000000000
     0.0000000000000000    0.0000000000000000   30.0000000000000000
Ga O
  96  144
Direct
  0.0928814026745267  0.1979581863750325  0.4040940118915999
  0.2595480693411933  0.1979581863750325  0.4040940118915999
  0.4262147360078599  0.1979581863750325  0.4040940118915999
  0.5928814026745265  0.1979581863750325  0.4040940118915999
  0.7595480693411933  0.1979581863750325  0.4040940118915999
  0.9262147360078600  0.1979581863750325  0.4040940118915999
  0.0928814026745267  0.4479581863750325  0.4040940118915999
  0.2595480693411933  0.4479581863750325  0.4040940118915999
  0.4262147360078600  0.4479581863750325  0.4040940118915999
  0.5928814026745266  0.4479581863750325  0.4040940118915999
  0.7595480693411933  0.4479581863750325  0.4040940118915999
  0.9262147360078599  0.4479581863750325  0.4040940118915999
  0.0928814026745267  0.6979581863750325  0.4040940118915999
  0.2595480693411933  0.6979581863750325  0.4040940118915999
  0.4262147360078599  0.6979581863750325  0.4040940118915999
  0.5928814026745265  0.6979581863750325  0.4040940118915999
  0.7595480693411932  0.6979581863750325  0.4040940118915999
  0.9262147360078598  0.6979581863750325  0.4040940118915999
  0.0928814026745266  0.9479581863750325  0.4040940118915999
  0.2595480693411934  0.9479581863750325  0.4040940118915999
  0.4262147360078599  0.9479581863750325  0.4040940118915999
  0.5928814026745264  0.9479581863750325  0.4040940118915999
  0.7595480693411931  0.9479581863750325  0.4040940118915999
  0.9262147360078599  0.9479581863750325  0.4040940118915999
  0.0415098093588483  0.1020741816069075  0.3750824751567000
  0.2081764760255150  0.1020741816069075  0.3750824751567000
  0.3748431426921816  0.1020741816069075  0.3750824751567000
  0.5415098093588483  0.1020741816069075  0.3750824751567000
  0.7081764760255150  0.1020741816069075  0.3750824751567000
  0.8748431426921816  0.1020741816069075  0.3750824751567000
  0.0415098093588484  0.3520741816069075  0.3750824751567000
  0.2081764760255150  0.3520741816069075  0.3750824751567000
  0.3748431426921817  0.3520741816069075  0.3750824751567000
  0.5415098093588483  0.3520741816069075  0.3750824751567000
  0.7081764760255150  0.3520741816069075  0.3750824751567000
  0.8748431426921817  0.3520741816069075  0.3750824751567000
  0.0415098093588483  0.6020741816069075  0.3750824751567000
  0.2081764760255150  0.6020741816069075  0.3750824751567000
  0.3748431426921816  0.6020741816069075  0.3750824751567000
  0.5415098093588483  0.6020741816069075  0.3750824751567000
  0.7081764760255149  0.6020741816069075  0.3750824751567000
  0.8748431426921816  0.6020741816069075  0.3750824751567000
  0.0415098093588484  0.8520741816069074  0.3750824751567000
  0.2081764760255150  0.8520741816069074  0.3750824751567000
  0.3748431426921818  0.8520741816069074  0.3750824751567000
  0.5415098093588484  0.8520741816069074  0.3750824751567000
  0.7081764760255150  0.8520741816069074  0.3750824751567000
  0.8748431426921816  0.8520741816069074  0.3750824751567000
  0.0907401002341817  0.1998176801970875  0.6249391735401600
  0.2574067669008483  0.1998176801970875  0.6249391735401600
  0.4240734335675149  0.1998176801970875  0.6249391735401600
  0.5907401002341817  0.1998176801970875  0.6249391735401600
  0.7574067669008483  0.1998176801970875  0.6249391735401600
  0.9240734335675148  0.1998176801970875  0.6249391735401600
  0.0907401002341816  0.4498176801970875  0.6249391735401600
  0.2574067669008482  0.4498176801970875  0.6249391735401600
  0.4240734335675150  0.4498176801970875  0.6249391735401600
  0.5907401002341817  0.4498176801970875  0.6249391735401600
  0.7574067669008482  0.4498176801970875  0.6249391735401600
  0.9240734335675148  0.4498176801970875  0.6249391735401600
  0.0907401002341817  0.6998176801970875  0.6249391735401600
  0.2574067669008482  0.6998176801970875  0.6249391735401600
  0.4240734335675149  0.6998176801970875  0.6249391735401600
  0.5907401002341817  0.6998176801970875  0.6249391735401600
  0.7574067669008483  0.6998176801970875  0.6249391735401600
  0.9240734335675149  0.6998176801970875  0.6249391735401600
  0.0907401002341817  0.9498176801970875  0.6249391735401600
  0.2574067669008483  0.9498176801970875  0.6249391735401600
  0.4240734335675149  0.9498176801970875  0.6249391735401600
  0.5907401002341817  0.9498176801970875  0.6249391735401600
  0.7574067669008483  0.9498176801970875  0.6249391735401600
  0.9240734335675148  0.9498176801970875  0.6249391735401600
  0.0393685069090283  0.1039336754659650  0.5959276367889000
  0.2060351735756950  0.1039336754659650  0.5959276367889000
  0.3727018402423616  0.1039336754659650  0.5959276367889000
  0.5393685069090282  0.1039336754659650  0.5959276367889000
  0.7060351735756949  0.1039336754659650  0.5959276367889000
  0.8727018402423615  0.1039336754659650  0.5959276367889000
  0.0393685069090284  0.3539336754659650  0.5959276367889000
  0.2060351735756950  0.3539336754659650  0.5959276367889000
  0.3727018402423616  0.3539336754659650  0.5959276367889000
  0.5393685069090282  0.3539336754659650  0.5959276367889000
  0.7060351735756948  0.3539336754659650  0.5959276367889000
  0.8727018402423615  0.3539336754659650  0.5959276367889000
  0.0393685069090283  0.6039336754659650  0.5959276367889000
  0.2060351735756950  0.6039336754659650  0.5959276367889000
  0.3727018402423616  0.6039336754659650  0.5959276367889000
  0.5393685069090282  0.6039336754659650  0.5959276367889000
  0.7060351735756950  0.6039336754659650  0.5959276367889000
  0.8727018402423616  0.6039336754659650  0.5959276367889000
  0.0393685069090283  0.8539336754659650  0.5959276367889000
  0.2060351735756950  0.8539336754659650  0.5959276367889000
  0.3727018402423616  0.8539336754659650  0.5959276367889000
  0.5393685069090282  0.8539336754659650  0.5959276367889000
  0.7060351735756949  0.8539336754659650  0.5959276367889000
  0.8727018402423615  0.8539336754659650  0.5959276367889000
  0.0194541048356267  0.1682407477501325  0.4222107301842400
  0.1861207715022933  0.1682407477501325  0.4222107301842400
  0.3527874381689600  0.1682407477501325  0.4222107301842400
  0.5194541048356266  0.1682407477501325  0.4222107301842400
  0.6861207715022931  0.1682407477501325  0.4222107301842400
  0.8527874381689600  0.1682407477501325  0.4222107301842400
  0.0194541048356267  0.4182407477501325  0.4222107301842400
  0.1861207715022933  0.4182407477501325  0.4222107301842400
  0.3527874381689600  0.4182407477501325  0.4222107301842400
  0.5194541048356266  0.4182407477501325  0.4222107301842400
  0.6861207715022932  0.4182407477501325  0.4222107301842400
  0.8527874381689600  0.4182407477501325  0.4222107301842400
  0.0194541048356267  0.6682407477501325  0.4222107301842400
  0.1861207715022933  0.6682407477501325  0.4222107301842400
  0.3527874381689600  0.6682407477501325  0.4222107301842400
  0.5194541048356266  0.6682407477501325  0.4222107301842400
  0.6861207715022931  0.6682407477501325  0.4222107301842400
  0.8527874381689599  0.6682407477501325  0.4222107301842400
  0.0194541048356267  0.9182407477501324  0.4222107301842400
  0.1861207715022934  0.9182407477501324  0.4222107301842400
  0.3527874381689600  0.9182407477501324  0.4222107301842400
  0.5194541048356266  0.9182407477501324  0.4222107301842400
  0.6861207715022932  0.9182407477501324  0.4222107301842400
  0.8527874381689600  0.9182407477501324  0.4222107301842400
  0.0650912065831250  0.0313290456073675  0.4075733843043099
  0.2317578732497916  0.0313290456073675  0.4075733843043099
  0.3984245399164583  0.0313290456073675  0.4075733843043099
  0.5650912065831248  0.0313290456073675  0.4075733843043099
  0.7317578732497916  0.0313290456073675  0.4075733843043099
  0.8984245399164582  0.0313290456073675  0.4075733843043099
  0.0650912065831250  0.2813290456073675  0.4075733843043099
  0.2317578732497916  0.2813290456073675  0.4075733843043099
  0.3984245399164584  0.2813290456073675  0.4075733843043099
  0.5650912065831251  0.2813290456073675  0.4075733843043099
  0.7317578732497917  0.2813290456073675  0.4075733843043099
  0.8984245399164583  0.2813290456073675  0.4075733843043099
  0.0650912065831250  0.5313290456073675  0.4075733843043099
  0.2317578732497916  0.5313290456073675  0.4075733843043099
  0.3984245399164583  0.5313290456073675  0.4075733843043099
  0.5650912065831249  0.5313290456073675  0.4075733843043099
  0.7317578732497916  0.5313290456073675  0.4075733843043099
  0.8984245399164583  0.5313290456073675  0.4075733843043099
  0.0650912065831250  0.7813290456073675  0.4075733843043099
  0.2317578732497916  0.7813290456073675  0.4075733843043099
  0.3984245399164583  0.7813290456073675  0.4075733843043099
  0.5650912065831249  0.7813290456073675  0.4075733843043099
  0.7317578732497916  0.7813290456073675  0.4075733843043099
  0.8984245399164582  0.7813290456073675  0.4075733843043099
  0.1140152883037917  0.1345572388097300  0.3570665369887366
  0.2806819549704583  0.1345572388097300  0.3563998703220700
  0.4473486216371250  0.1345572388097300  0.3563998703220700
  0.6140152883037916  0.1345572388097300  0.3563998703220700
  0.7806819549704582  0.1345572388097300  0.3563998703220700
  0.9473486216371247  0.1345572388097300  0.3563998703220700
  0.1140152883037917  0.3845572388097300  0.3563998703220700
  0.2806819549704583  0.3845572388097300  0.3563998703220700
  0.4473486216371250  0.3845572388097300  0.3563998703220700
  0.6140152883037916  0.3845572388097300  0.3563998703220700
  0.7806819549704581  0.3845572388097300  0.3563998703220700
  0.9473486216371247  0.3845572388097300  0.3563998703220700
  0.1140152883037917  0.6345572388097300  0.3563998703220700
  0.2806819549704583  0.6345572388097300  0.3563998703220700
  0.4473486216371250  0.6345572388097300  0.3563998703220700
  0.6140152883037917  0.6345572388097300  0.3563998703220700
  0.7806819549704583  0.6345572388097300  0.3563998703220700
  0.9473486216371250  0.6345572388097300  0.3563998703220700
  0.1140152883037917  0.8845572388097299  0.3563998703220700
  0.2806819549704583  0.8845572388097299  0.3563998703220700
  0.4473486216371251  0.8845572388097299  0.3563998703220700
  0.6140152883037917  0.8845572388097299  0.3563998703220700
  0.7806819549704583  0.8845572388097299  0.3563998703220700
  0.9473486216371249  0.8845572388097299  0.3563998703220700
  0.0182346212896183  0.1673346229965600  0.6436217783747100
  0.1849012879562849  0.1673346229965600  0.6436217783747100
  0.3515679546229517  0.1673346229965600  0.6436217783747100
  0.5182346212896184  0.1673346229965600  0.6436217783747100
  0.6849012879562850  0.1673346229965600  0.6436217783747100
  0.8515679546229517  0.1673346229965600  0.6436217783747100
  0.0182346212896183  0.4173346229965599  0.6436217783747100
  0.1849012879562850  0.4173346229965599  0.6436217783747100
  0.3515679546229517  0.4173346229965599  0.6436217783747100
  0.5182346212896183  0.4173346229965599  0.6436217783747100
  0.6849012879562850  0.4173346229965599  0.6436217783747100
  0.8515679546229515  0.4173346229965599  0.6436217783747100
  0.0182346212896184  0.6673346229965600  0.6436217783747100
  0.1849012879562849  0.6673346229965600  0.6436217783747100
  0.3515679546229517  0.6673346229965600  0.6436217783747100
  0.5182346212896183  0.6673346229965600  0.6436217783747100
  0.6849012879562849  0.6673346229965600  0.6436217783747100
  0.8515679546229514  0.6673346229965600  0.6436217783747100
  0.0182346212896184  0.9173346229965600  0.6436217783747100
  0.1849012879562850  0.9173346229965600  0.6436217783747100
  0.3515679546229517  0.9173346229965600  0.6436217783747100
  0.5182346212896183  0.9173346229965600  0.6436217783747100
  0.6849012879562850  0.9173346229965600  0.6436217783747100
  0.8515679546229515  0.9173346229965600  0.6436217783747100
  0.0671587029902200  0.0205628162343650  0.5924482644423300
  0.2338253696568867  0.0205628162343650  0.5924482644423300
  0.4004920363235534  0.0205628162343650  0.5924482644423300
  0.5671587029902200  0.0205628162343650  0.5924482644423300
  0.7338253696568866  0.0205628162343650  0.5924482644423300
  0.9004920363235531  0.0205628162343650  0.5924482644423300
  0.0671587029902200  0.2705628162343650  0.5924482644423300
  0.2338253696568867  0.2705628162343650  0.5924482644423300
  0.4004920363235533  0.2705628162343650  0.5924482644423300
  0.5671587029902199  0.2705628162343650  0.5924482644423300
  0.7338253696568865  0.2705628162343650  0.5924482644423300
  0.9004920363235532  0.2705628162343650  0.5924482644423300
  0.0671587029902200  0.5205628162343650  0.5924482644423300
  0.2338253696568867  0.5205628162343650  0.5924482644423300
  0.4004920363235533  0.5205628162343650  0.5924482644423300
  0.5671587029902200  0.5205628162343650  0.5924482644423300
  0.7338253696568865  0.5205628162343650  0.5924482644423300
  0.9004920363235532  0.5205628162343650  0.5924482644423300
  0.0671587029902200  0.7705628162343650  0.5924482644423300
  0.2338253696568866  0.7705628162343650  0.5924482644423300
  0.4004920363235533  0.7705628162343650  0.5924482644423300
  0.5671587029902200  0.7705628162343650  0.5924482644423300
  0.7338253696568866  0.7705628162343650  0.5924482644423300
  0.9004920363235531  0.7705628162343650  0.5924482644423300
  0.1127958047462266  0.1336511140921400  0.5778109184832200
  0.2794624714128933  0.1336511140921400  0.5778109184832200
  0.4461291380795600  0.1336511140921400  0.5778109184832200
  0.6127958047462266  0.1336511140921400  0.5778109184832200
  0.7794624714128932  0.1336511140921400  0.5778109184832200
  0.9461291380795598  0.1336511140921400  0.5778109184832200
  0.1127958047462266  0.3836511140921400  0.5778109184832200
  0.2794624714128933  0.3836511140921400  0.5778109184832200
  0.4461291380795599  0.3836511140921400  0.5778109184832200
  0.6127958047462266  0.3836511140921400  0.5778109184832200
  0.7794624714128933  0.3836511140921400  0.5778109184832200
  0.9461291380795598  0.3836511140921400  0.5778109184832200
  0.1127958047462266  0.6336511140921400  0.5778109184832200
  0.2794624714128933  0.6336511140921400  0.5778109184832200
  0.4461291380795600  0.6336511140921400  0.5778109184832200
  0.6127958047462266  0.6336511140921400  0.5778109184832200
  0.7794624714128933  0.6336511140921400  0.5778109184832200
  0.9461291380795599  0.6336511140921400  0.5778109184832200
  0.1127958047462266  0.8836511140921400  0.5778109184832200
  0.2794624714128933  0.8836511140921400  0.5778109184832200
  0.4461291380795600  0.8836511140921400  0.5778109184832200
  0.6127958047462266  0.8836511140921400  0.5778109184832200
  0.7794624714128934  0.8836511140921400  0.5778109184832200
  0.9461291380795599  0.8836511140921400  0.5778109184832200
