ITEM: TIMESTEP
0
ITEM: NUMBER OF ATOMS
480
ITEM: BOX BOUNDS xy xz yz pp pp pp
0.0000000000000000e+00 3.7984583318577663e+01 1.0359585189707820e+01
0.0000000000000000e+00 3.2492996764177676e+01 0.0000000000000000e+00
0.0000000000000000e+00 3.0000000000000000e+01 0.0000000000000000e+00
ITEM: ATOMS id type fx fy fz
1 1 0.0138067 0.0333759 -0.00127198
2 1 -0.00040124 -0.000613895 -8.13139e-05
3 1 -3.23527e-10 2.09134e-08 3.13912e-09
4 1 -3.23455e-10 2.09134e-08 3.13913e-09
5 1 -3.23409e-10 2.09134e-08 3.13915e-09
6 1 -3.23546e-10 2.09135e-08 3.13911e-09
7 1 -0.000531788 0.000806188 0.000207721
8 1 -0.00116041 -0.000115782 0.000184019
9 1 -3.23445e-10 2.09134e-08 3.13913e-09
10 1 -3.23495e-10 2.09134e-08 3.13912e-09
11 1 -3.23394e-10 2.09134e-08 3.13914e-09
12 1 -3.23456e-10 2.09133e-08 3.13911e-09
13 1 -3.23396e-10 2.09134e-08 3.13913e-09
14 1 -3.23514e-10 2.09133e-08 3.13913e-09
15 1 -3.23248e-10 2.09134e-08 3.13913e-09
16 1 -3.23307e-10 2.09134e-08 3.13914e-09
17 1 -3.23462e-10 2.09134e-08 3.13914e-09
18 1 -3.23491e-10 2.09134e-08 3.13913e-09
19 1 -3.23504e-10 2.09134e-08 3.13913e-09
20 1 -3.23536e-10 2.09134e-08 3.13913e-09
21 1 -3.23486e-10 2.09134e-08 3.13914e-09
22 1 -3.23304e-10 2.09134e-08 3.13911e-09
23 1 -3.23435e-10 2.09134e-08 3.13915e-09
24 1 -3.23388e-10 2.09134e-08 3.13914e-09
25 1 -3.23548e-10 2.09133e-08 3.13912e-09
26 1 -3.23455e-10 2.09133e-08 3.13913e-09
27 1 -3.23479e-10 2.09133e-08 3.13913e-09
28 1 -3.23494e-10 2.09133e-08 3.13913e-09
29 1 -3.23517e-10 2.09133e-08 3.13912e-09
30 1 -3.2326e-10 2.09132e-08 3.13912e-09
31 1 -3.23373e-10 2.09133e-08 3.13911e-09
32 1 -3.23449e-10 2.09133e-08 3.13914e-09
33 1 -1.49543e-07 2.7758e-05 -8.77096e-06
34 1 -1.14855e-07 -2.82498e-05 8.92852e-06
35 1 1.31162e-07 -9.50617e-08 3.16032e-08
36 1 -3.23439e-10 2.09132e-08 3.13911e-09
37 1 -3.2331e-10 2.09132e-08 3.13911e-09
38 1 -3.23451e-10 2.09132e-08 3.13912e-09
39 1 -3.2357e-10 2.09132e-08 3.13912e-09
40 1 1.31941e-07 1.41701e-07 -2.7225e-08
41 1 8.07358e-06 0.00133054 0.000235857
42 1 0.00542804 0.0028377 0.00429738
43 1 0.00062368 0.00100521 5.83323e-05
44 1 -3.23331e-10 2.09134e-08 3.13914e-09
45 1 -3.23565e-10 2.09134e-08 3.13915e-09
46 1 -3.23292e-10 2.09134e-08 3.13913e-09
47 1 0.000823338 -0.000914521 -5.30974e-05
48 1 0.0117478 0.000828609 -0.00377629
49 1 -0.00979887 -0.000312353 0.000467805
50 1 0.0104689 -0.00219321 -0.00267445
51 1 0.000570683 -0.000873982 0.000560178
52 1 1.20751e-10 -4.40012e-08 -4.4857e-08
53 1 1.20809e-10 -4.40012e-08 -4.4857e-08
54 1 1.2086e-10 -4.40011e-08 -4.4857e-08
55 1 0.000757379 0.000792205 -0.000508035
56 1 0.0153455 -0.000472448 0.00342397
57 1 -3.19461e-05 0.000237467 -7.95651e-05
58 1 -1.26657e-07 -8.26156e-07 2.66185e-07
59 1 1.20833e-10 -4.40012e-08 -4.4857e-08
60 1 1.20879e-10 -4.40012e-08 -4.4857e-08
61 1 1.2071e-10 -4.40012e-08 -4.4857e-08
62 1 1.20784e-10 -4.40012e-08 -4.4857e-08
63 1 -9.68614e-08 6.65987e-07 -3.30041e-07
64 1 4.73668e-08 -7.80144e-05 2.21127e-05
65 1 1.2081e-10 -4.40012e-08 -4.48569e-08
66 1 1.2084e-10 -4.40012e-08 -4.4857e-08
67 1 1.20787e-10 -4.40012e-08 -4.4857e-08
68 1 1.20839e-10 -4.40012e-08 -4.4857e-08
69 1 1.20797e-10 -4.40012e-08 -4.4857e-08
70 1 1.20837e-10 -4.40013e-08 -4.4857e-08
71 1 1.2075e-10 -4.40012e-08 -4.4857e-08
72 1 1.208e-10 -4.40012e-08 -4.48569e-08
73 1 1.20925e-10 -4.4001e-08 -4.48571e-08
74 1 1.20875e-10 -4.40009e-08 -4.48571e-08
75 1 1.20858e-10 -4.40009e-08 -4.48571e-08
76 1 1.20833e-10 -4.40009e-08 -4.48571e-08
77 1 1.20818e-10 -4.40009e-08 -4.48571e-08
78 1 1.20814e-10 -4.40009e-08 -4.48571e-08
79 1 1.20824e-10 -4.40009e-08 -4.48571e-08
80 1 1.20785e-10 -4.40009e-08 -4.48571e-08
81 1 1.20971e-10 -4.40011e-08 -4.4857e-08
82 1 1.20902e-10 -4.4001e-08 -4.48571e-08
83 1 1.20905e-10 -4.4001e-08 -4.48571e-08
84 1 1.20826e-10 -4.4001e-08 -4.48571e-08
85 1 1.20813e-10 -4.4001e-08 -4.48571e-08
86 1 1.20776e-10 -4.4001e-08 -4.4857e-08
87 1 1.20881e-10 -4.4001e-08 -4.4857e-08
88 1 1.20725e-10 -4.4001e-08 -4.4857e-08
89 1 -0.00235338 2.30086e-05 -0.00161669
90 1 -0.00237817 -8.47506e-05 0.00160762
91 1 -0.00104165 0.00152996 0.000673804
92 1 1.20896e-10 -4.4001e-08 -4.4857e-08
93 1 1.20839e-10 -4.4001e-08 -4.4857e-08
94 1 1.20867e-10 -4.40011e-08 -4.4857e-08
95 1 1.20809e-10 -4.40009e-08 -4.4857e-08
96 1 -0.00115269 -0.00171487 -0.0007719
97 1 1.56028e-10 4.49694e-08 4.55619e-08
98 1 1.56029e-10 4.49694e-08 4.5562e-08
99 1 1.56029e-10 4.49694e-08 4.55619e-08
100 1 1.56088e-10 4.49694e-08 4.55619e-08
101 1 1.55998e-10 4.49694e-08 4.55619e-08
102 1 1.56172e-10 4.49694e-08 4.55619e-08
103 1 1.56025e-10 4.49694e-08 4.55619e-08
104 1 1.55961e-10 4.49694e-08 4.55619e-08
105 1 1.56029e-10 4.49692e-08 4.5562e-08
106 1 1.5601e-10 4.49692e-08 4.55621e-08
107 1 1.55996e-10 4.49692e-08 4.5562e-08
108 1 1.56042e-10 4.49692e-08 4.5562e-08
109 1 1.56008e-10 4.49692e-08 4.5562e-08
110 1 1.56006e-10 4.49692e-08 4.5562e-08
111 1 1.55979e-10 4.49692e-08 4.5562e-08
112 1 1.56129e-10 4.49692e-08 4.5562e-08
113 1 1.56049e-10 4.49694e-08 4.5562e-08
114 1 1.56034e-10 4.49694e-08 4.55619e-08
115 1 1.56097e-10 4.49693e-08 4.5562e-08
116 1 1.56003e-10 4.49694e-08 4.55619e-08
117 1 1.56004e-10 4.49693e-08 4.55619e-08
118 1 1.55945e-10 4.49694e-08 4.5562e-08
119 1 1.56162e-10 4.49693e-08 4.5562e-08
120 1 1.56092e-10 4.49693e-08 4.55619e-08
121 1 1.56087e-10 4.49697e-08 4.55618e-08
122 1 1.56083e-10 4.49697e-08 4.55618e-08
123 1 1.56143e-10 4.49697e-08 4.55618e-08
124 1 1.56095e-10 4.49697e-08 4.55618e-08
125 1 1.56054e-10 4.49697e-08 4.55618e-08
126 1 1.56103e-10 4.49697e-08 4.55618e-08
127 1 1.5616e-10 4.49697e-08 4.55619e-08
128 1 1.56008e-10 4.49697e-08 4.55618e-08
129 1 1.55987e-10 4.49696e-08 4.55619e-08
130 1 1.56005e-10 4.49696e-08 4.55619e-08
131 1 1.55963e-10 4.49696e-08 4.55619e-08
132 1 1.55896e-10 4.49696e-08 4.55619e-08
133 1 1.5605e-10 4.49696e-08 4.55619e-08
134 1 1.56096e-10 4.49696e-08 4.55619e-08
135 1 1.56015e-10 4.49696e-08 4.55619e-08
136 1 1.56101e-10 4.49696e-08 4.55619e-08
137 1 1.56062e-10 4.49697e-08 4.55618e-08
138 1 1.56093e-10 4.49697e-08 4.55618e-08
139 1 1.56003e-10 4.49697e-08 4.55618e-08
140 1 1.56034e-10 4.49697e-08 4.55618e-08
141 1 1.56164e-10 4.49697e-08 4.55618e-08
142 1 1.56153e-10 4.49697e-08 4.55618e-08
143 1 1.56154e-10 4.49697e-08 4.55618e-08
144 1 1.56104e-10 4.49697e-08 4.55618e-08
145 1 -3.41013e-10 -2.13464e-08 -2.95365e-09
146 1 -3.4111e-10 -2.13464e-08 -2.95365e-09
147 1 -3.41038e-10 -2.13464e-08 -2.95366e-09
148 1 -3.41018e-10 -2.13464e-08 -2.95367e-09
149 1 -3.40974e-10 -2.13464e-08 -2.95365e-09
150 1 -3.41053e-10 -2.13464e-08 -2.95369e-09
151 1 -3.41147e-10 -2.13464e-08 -2.95365e-09
152 1 -3.41084e-10 -2.13464e-08 -2.95364e-09
153 1 -3.41045e-10 -2.13463e-08 -2.95364e-09
154 1 -3.41132e-10 -2.13464e-08 -2.95365e-09
155 1 -3.40993e-10 -2.13464e-08 -2.95365e-09
156 1 -3.41061e-10 -2.13464e-08 -2.95368e-09
157 1 -3.41043e-10 -2.13464e-08 -2.95367e-09
158 1 -3.41096e-10 -2.13464e-08 -2.95368e-09
159 1 -3.41084e-10 -2.13464e-08 -2.95365e-09
160 1 -3.41022e-10 -2.13464e-08 -2.95366e-09
161 1 -3.41214e-10 -2.13463e-08 -2.95368e-09
162 1 -3.41093e-10 -2.13463e-08 -2.95364e-09
163 1 -3.41034e-10 -2.13463e-08 -2.95367e-09
164 1 -3.40974e-10 -2.13463e-08 -2.95364e-09
165 1 -3.4093e-10 -2.13463e-08 -2.95366e-09
166 1 -3.41146e-10 -2.13464e-08 -2.95364e-09
167 1 -3.40962e-10 -2.13463e-08 -2.95367e-09
168 1 -3.40966e-10 -2.13463e-08 -2.95366e-09
169 1 -3.4116e-10 -2.13464e-08 -2.95369e-09
170 1 -3.4114e-10 -2.13464e-08 -2.95367e-09
171 1 -3.41064e-10 -2.13464e-08 -2.95367e-09
172 1 -3.41034e-10 -2.13464e-08 -2.95367e-09
173 1 -3.41104e-10 -2.13464e-08 -2.95367e-09
174 1 -3.40958e-10 -2.13464e-08 -2.95368e-09
175 1 -3.41089e-10 -2.13464e-08 -2.95367e-09
176 1 -3.41077e-10 -2.13464e-08 -2.95365e-09
177 1 -3.4097e-10 -2.13464e-08 -2.95365e-09
178 1 -3.41123e-10 -2.13464e-08 -2.95367e-09
179 1 -3.41011e-10 -2.13464e-08 -2.95365e-09
180 1 -3.41025e-10 -2.13464e-08 -2.95365e-09
181 1 -3.40949e-10 -2.13464e-08 -2.95366e-09
182 1 -3.41093e-10 -2.13464e-08 -2.95368e-09
183 1 -3.41193e-10 -2.13464e-08 -2.95365e-09
184 1 -3.40925e-10 -2.13464e-08 -2.95366e-09
185 1 -3.41126e-10 -2.13461e-08 -2.95366e-09
186 1 -3.41086e-10 -2.13461e-08 -2.95365e-09
187 1 -3.40969e-10 -2.13461e-08 -2.95364e-09
188 1 -3.40932e-10 -2.13461e-08 -2.95365e-09
189 1 -3.40982e-10 -2.13461e-08 -2.95366e-09
190 1 -3.41125e-10 -2.13461e-08 -2.95366e-09
191 1 -3.411e-10 -2.13461e-08 -2.95364e-09
192 1 -3.41028e-10 -2.13461e-08 -2.95362e-09
193 2 0.000861491 0.000423154 -0.000113878
194 2 0.00179923 0.00331199 0.00138733
195 2 -8.57007e-05 -3.47022e-05 -2.89189e-05
196 2 -1.63754e-11 1.40085e-08 -6.22558e-08
197 2 -1.64252e-11 1.40085e-08 -6.22558e-08
198 2 -1.64629e-11 1.40085e-08 -6.22559e-08
199 2 -5.7281e-05 2.30794e-05 1.74942e-05
200 2 0.00141854 -0.00279022 -0.00100174
201 2 -1.11378e-11 7.35328e-07 1.99021e-08
202 2 -1.64228e-11 1.40085e-08 -6.22558e-08
203 2 -1.63997e-11 1.40085e-08 -6.22558e-08
204 2 -1.64945e-11 1.40085e-08 -6.22559e-08
205 2 -1.64553e-11 1.40085e-08 -6.22558e-08
206 2 -1.64101e-11 1.40085e-08 -6.22559e-08
207 2 -1.65322e-11 1.40085e-08 -6.22558e-08
208 2 -2.19225e-11 -7.01686e-07 -1.43773e-07
209 2 -1.65041e-11 1.40085e-08 -6.22559e-08
210 2 -1.64629e-11 1.40085e-08 -6.22559e-08
211 2 -1.64272e-11 1.40085e-08 -6.22558e-08
212 2 -1.63954e-11 1.40085e-08 -6.22559e-08
213 2 -1.64519e-11 1.40085e-08 -6.22558e-08
214 2 -1.6533e-11 1.40085e-08 -6.22558e-08
215 2 -1.64283e-11 1.40085e-08 -6.22559e-08
216 2 -1.65034e-11 1.40085e-08 -6.22558e-08
217 2 -1.64828e-11 1.40085e-08 -6.22559e-08
218 2 -1.64372e-11 1.40084e-08 -6.22559e-08
219 2 -1.64787e-11 1.40084e-08 -6.22559e-08
220 2 -1.65036e-11 1.40084e-08 -6.22559e-08
221 2 -1.64976e-11 1.40084e-08 -6.22559e-08
222 2 -1.65551e-11 1.40084e-08 -6.22558e-08
223 2 -1.66664e-11 1.40085e-08 -6.22559e-08
224 2 -1.64811e-11 1.40084e-08 -6.22559e-08
225 2 5.01569e-07 1.17086e-06 -4.72987e-07
226 2 -1.0108e-06 -3.3472e-09 -5.60939e-08
227 2 5.09186e-07 -1.16045e-06 3.54727e-07
228 2 -1.6503e-11 1.40084e-08 -6.22558e-08
229 2 -1.65114e-11 1.40085e-08 -6.22558e-08
230 2 -1.65365e-11 1.40084e-08 -6.22559e-08
231 2 -1.63659e-11 1.40085e-08 -6.22559e-08
232 2 -1.64441e-11 1.40084e-08 -6.22558e-08
233 2 0.0178589 0.0201632 -0.00124351
234 2 0.0169504 -0.020602 0.00137993
235 2 -0.002854 0.00095577 -7.70562e-05
236 2 -1.65995e-11 1.40085e-08 -6.22559e-08
237 2 -1.64767e-11 1.40085e-08 -6.22559e-08
238 2 -1.65026e-11 1.40085e-08 -6.22558e-08
239 2 -1.64324e-11 1.40086e-08 -6.22559e-08
240 2 -0.00257925 -0.000864614 -6.90129e-05
241 2 -0.0979977 -0.0356245 -0.00104992
242 2 0.00498333 0.000879826 -0.00386872
243 2 -0.00208358 -0.00014516 -0.000512885
244 2 3.69512e-10 2.38354e-08 9.53311e-08
245 2 3.69515e-10 2.38354e-08 9.53311e-08
246 2 3.69502e-10 2.38354e-08 9.53311e-08
247 2 -0.00222869 0.000144468 0.000481518
248 2 0.000283418 -0.000849174 0.00436239
249 2 3.13618e-05 -0.000393853 -0.000285752
250 2 -2.66588e-05 -1.66344e-05 6.04852e-06
251 2 3.69502e-10 2.38355e-08 9.53311e-08
252 2 3.69485e-10 2.38355e-08 9.53311e-08
253 2 3.69484e-10 2.38355e-08 9.53311e-08
254 2 3.69495e-10 2.38355e-08 9.53311e-08
255 2 1.9968e-05 -1.67115e-05 -6.48465e-06
256 2 0.000226607 0.000294603 0.000287088
257 2 3.69488e-10 2.38357e-08 9.5331e-08
258 2 3.69504e-10 2.38357e-08 9.53311e-08
259 2 3.69503e-10 2.38357e-08 9.53311e-08
260 2 3.69496e-10 2.38357e-08 9.5331e-08
261 2 3.69503e-10 2.38357e-08 9.53311e-08
262 2 3.69491e-10 2.38357e-08 9.53311e-08
263 2 3.69533e-10 2.38357e-08 9.53311e-08
264 2 3.69513e-10 2.38357e-08 9.53311e-08
265 2 3.69493e-10 2.38354e-08 9.53312e-08
266 2 3.69492e-10 2.38354e-08 9.53312e-08
267 2 3.69491e-10 2.38354e-08 9.53312e-08
268 2 3.695e-10 2.38354e-08 9.53312e-08
269 2 3.69507e-10 2.38354e-08 9.53312e-08
270 2 3.69492e-10 2.38354e-08 9.53312e-08
271 2 3.69481e-10 2.38354e-08 9.53312e-08
272 2 3.69531e-10 2.38354e-08 9.53312e-08
273 2 3.69507e-10 2.38356e-08 9.53311e-08
274 2 3.69527e-10 2.38356e-08 9.53311e-08
275 2 3.69524e-10 2.38356e-08 9.53311e-08
276 2 3.69526e-10 2.38356e-08 9.53311e-08
277 2 3.6951e-10 2.38356e-08 9.53311e-08
278 2 3.69512e-10 2.38356e-08 9.53311e-08
279 2 3.6953e-10 2.38356e-08 9.53311e-08
280 2 3.69514e-10 2.38356e-08 9.53311e-08
281 2 8.35185e-05 0.000918611 2.30437e-05
282 2 8.09882e-05 -0.000928954 -2.47288e-05
283 2 2.0235e-05 -3.91104e-05 4.29861e-06
284 2 3.69543e-10 2.38357e-08 9.53311e-08
285 2 3.69502e-10 2.38357e-08 9.53311e-08
286 2 3.69538e-10 2.38357e-08 9.53311e-08
287 2 3.69521e-10 2.38357e-08 9.53311e-08
288 2 1.95841e-05 3.79063e-05 -4.0775e-06
289 2 0.0112785 0.0118688 -0.00416758
290 2 -0.0030456 -0.00116554 0.000808893
291 2 -1.50374e-10 -1.47563e-08 8.64264e-09
292 2 -1.50442e-10 -1.47562e-08 8.64262e-09
293 2 -1.50446e-10 -1.47562e-08 8.64262e-09
294 2 -1.50371e-10 -1.47563e-08 8.64263e-09
295 2 -0.00277425 0.00104337 -0.00068457
296 2 0.0116135 -0.011149 0.00403224
297 2 9.91964e-07 2.30787e-06 -8.1352e-07
298 2 -1.50473e-10 -1.47563e-08 8.64261e-09
299 2 -1.50466e-10 -1.47562e-08 8.64264e-09
300 2 -1.50418e-10 -1.47563e-08 8.64265e-09
301 2 -1.50346e-10 -1.47562e-08 8.64262e-09
302 2 -1.50373e-10 -1.47563e-08 8.64264e-09
303 2 9.84318e-07 -2.31957e-06 8.24499e-07
304 2 -1.97673e-06 3.65255e-09 2.12626e-09
305 2 -1.50366e-10 -1.47563e-08 8.64263e-09
306 2 -1.50378e-10 -1.47563e-08 8.64263e-09
307 2 -1.50355e-10 -1.47563e-08 8.64263e-09
308 2 -1.50415e-10 -1.47563e-08 8.64265e-09
309 2 -1.50401e-10 -1.47563e-08 8.64262e-09
310 2 -1.50399e-10 -1.47563e-08 8.64263e-09
311 2 -1.50489e-10 -1.47563e-08 8.64263e-09
312 2 -1.50386e-10 -1.47562e-08 8.64261e-09
313 2 -1.50371e-10 -1.47563e-08 8.64265e-09
314 2 -1.50406e-10 -1.47563e-08 8.64265e-09
315 2 -1.50383e-10 -1.47563e-08 8.64267e-09
316 2 -1.50383e-10 -1.47563e-08 8.64265e-09
317 2 -1.50278e-10 -1.47563e-08 8.64265e-09
318 2 -1.5038e-10 -1.47563e-08 8.64268e-09
319 2 -1.50442e-10 -1.47563e-08 8.64265e-09
320 2 -1.50482e-10 -1.47563e-08 8.6426e-09
321 2 -1.47169e-10 4.37235e-07 6.24074e-08
322 2 -1.53807e-10 -4.73578e-07 -4.59345e-08
323 2 -1.50456e-10 -1.47563e-08 8.64268e-09
324 2 -1.50434e-10 -1.47563e-08 8.64266e-09
325 2 -1.50353e-10 -1.47563e-08 8.64268e-09
326 2 -1.50462e-10 -1.47563e-08 8.64264e-09
327 2 -1.5043e-10 -1.47563e-08 8.64269e-09
328 2 -1.50517e-10 -1.47562e-08 8.64262e-09
329 2 0.000589167 1.11186e-05 -5.27928e-06
330 2 0.00240934 -0.00510003 -0.00386369
331 2 0.000346942 -0.000135445 -0.000150984
332 2 -1.50479e-10 -1.47563e-08 8.64267e-09
333 2 -1.50467e-10 -1.47563e-08 8.64265e-09
334 2 -1.50334e-10 -1.47563e-08 8.64268e-09
335 2 0.000346683 0.000135594 0.00015027
336 2 0.00178113 0.00425173 0.00331289
337 2 -1.32114e-10 1.51554e-08 -8.78182e-09
338 2 -1.3202e-10 1.51554e-08 -8.78183e-09
339 2 -1.32113e-10 1.51554e-08 -8.78182e-09
340 2 -1.32095e-10 1.51554e-08 -8.78181e-09
341 2 -1.32095e-10 1.51554e-08 -8.78184e-09
342 2 -1.32135e-10 1.51554e-08 -8.78179e-09
343 2 -1.32137e-10 1.51554e-08 -8.78183e-09
344 2 -1.31978e-10 1.51554e-08 -8.78185e-09
345 2 -1.32147e-10 1.51554e-08 -8.78186e-09
346 2 -1.32028e-10 1.51553e-08 -8.78183e-09
347 2 -1.32057e-10 1.51554e-08 -8.78182e-09
348 2 -1.32111e-10 1.51553e-08 -8.78182e-09
349 2 -1.32084e-10 1.51554e-08 -8.78182e-09
350 2 -1.32077e-10 1.51553e-08 -8.78182e-09
351 2 -1.31987e-10 1.51554e-08 -8.78182e-09
352 2 -1.32086e-10 1.51553e-08 -8.78181e-09
353 2 -1.32103e-10 1.51553e-08 -8.78188e-09
354 2 -1.32114e-10 1.51553e-08 -8.78185e-09
355 2 -1.32131e-10 1.51553e-08 -8.78184e-09
356 2 -1.32135e-10 1.51554e-08 -8.78187e-09
357 2 -1.32118e-10 1.51553e-08 -8.78185e-09
358 2 -1.32047e-10 1.51554e-08 -8.78183e-09
359 2 -1.32117e-10 1.51553e-08 -8.78182e-09
360 2 -1.32231e-10 1.51553e-08 -8.78187e-09
361 2 -1.32108e-10 1.51553e-08 -8.78183e-09
362 2 -1.32122e-10 1.51553e-08 -8.78179e-09
363 2 -1.32144e-10 1.51553e-08 -8.78179e-09
364 2 -1.32145e-10 1.51553e-08 -8.7818e-09
365 2 -1.32075e-10 1.51553e-08 -8.7818e-09
366 2 -1.32124e-10 1.51553e-08 -8.78178e-09
367 2 -1.32148e-10 1.51553e-08 -8.78179e-09
368 2 -1.32166e-10 1.51553e-08 -8.78182e-09
369 2 -1.32047e-10 1.51553e-08 -8.78182e-09
370 2 -1.32012e-10 1.51553e-08 -8.78182e-09
371 2 -1.31997e-10 1.51553e-08 -8.78182e-09
372 2 -1.31903e-10 1.51553e-08 -8.7818e-09
373 2 -1.32025e-10 1.51553e-08 -8.78178e-09
374 2 -1.32108e-10 1.51553e-08 -8.78179e-09
375 2 -1.31991e-10 1.51553e-08 -8.78181e-09
376 2 -1.32195e-10 1.51553e-08 -8.7818e-09
377 2 -1.32125e-10 1.51553e-08 -8.78185e-09
378 2 -1.32117e-10 1.51553e-08 -8.78182e-09
379 2 -1.32082e-10 1.51553e-08 -8.78185e-09
380 2 -1.3208e-10 1.51553e-08 -8.78183e-09
381 2 -1.32155e-10 1.51553e-08 -8.7818e-09
382 2 -1.32179e-10 1.51553e-08 -8.78182e-09
383 2 -1.32104e-10 1.51553e-08 -8.78184e-09
384 2 -1.32199e-10 1.51553e-08 -8.78185e-09
385 2 3.52472e-10 -2.44095e-08 -9.74358e-08
386 2 3.52476e-10 -2.44094e-08 -9.74358e-08
387 2 3.52472e-10 -2.44094e-08 -9.74358e-08
388 2 3.52472e-10 -2.44094e-08 -9.74358e-08
389 2 3.52478e-10 -2.44094e-08 -9.74358e-08
390 2 3.5249e-10 -2.44094e-08 -9.74358e-08
391 2 3.52494e-10 -2.44095e-08 -9.74358e-08
392 2 3.52469e-10 -2.44094e-08 -9.74358e-08
393 2 3.52479e-10 -2.44092e-08 -9.74359e-08
394 2 3.52477e-10 -2.44092e-08 -9.74359e-08
395 2 3.52478e-10 -2.44092e-08 -9.74359e-08
396 2 3.52475e-10 -2.44092e-08 -9.74359e-08
397 2 3.52466e-10 -2.44093e-08 -9.74359e-08
398 2 3.52475e-10 -2.44092e-08 -9.74359e-08
399 2 3.52464e-10 -2.44092e-08 -9.74359e-08
400 2 3.52496e-10 -2.44092e-08 -9.74359e-08
401 2 3.52487e-10 -2.4409e-08 -9.7436e-08
402 2 3.52477e-10 -2.4409e-08 -9.7436e-08
403 2 3.52488e-10 -2.4409e-08 -9.7436e-08
404 2 3.52491e-10 -2.4409e-08 -9.7436e-08
405 2 3.52509e-10 -2.4409e-08 -9.7436e-08
406 2 3.52503e-10 -2.4409e-08 -9.7436e-08
407 2 3.52488e-10 -2.4409e-08 -9.7436e-08
408 2 3.5248e-10 -2.4409e-08 -9.7436e-08
409 2 3.5249e-10 -2.44092e-08 -9.74359e-08
410 2 3.525e-10 -2.44092e-08 -9.74359e-08
411 2 3.52509e-10 -2.44092e-08 -9.74359e-08
412 2 3.52496e-10 -2.44092e-08 -9.74359e-08
413 2 3.52485e-10 -2.44092e-08 -9.74359e-08
414 2 3.52463e-10 -2.44092e-08 -9.74359e-08
415 2 3.52518e-10 -2.44092e-08 -9.74359e-08
416 2 3.52488e-10 -2.44092e-08 -9.74359e-08
417 2 3.5248e-10 -2.44094e-08 -9.74358e-08
418 2 3.52483e-10 -2.44094e-08 -9.74358e-08
419 2 3.5251e-10 -2.44094e-08 -9.74358e-08
420 2 3.52447e-10 -2.44094e-08 -9.74358e-08
421 2 3.52508e-10 -2.44094e-08 -9.74358e-08
422 2 3.52479e-10 -2.44094e-08 -9.74358e-08
423 2 3.52535e-10 -2.44094e-08 -9.74358e-08
424 2 3.52487e-10 -2.44094e-08 -9.74358e-08
425 2 3.52472e-10 -2.44095e-08 -9.74358e-08
426 2 3.52471e-10 -2.44095e-08 -9.74358e-08
427 2 3.52489e-10 -2.44095e-08 -9.74358e-08
428 2 3.52463e-10 -2.44095e-08 -9.74358e-08
429 2 3.52496e-10 -2.44095e-08 -9.74358e-08
430 2 3.5249e-10 -2.44095e-08 -9.74358e-08
431 2 3.52533e-10 -2.44095e-08 -9.74358e-08
432 2 3.52478e-10 -2.44095e-08 -9.74359e-08
433 2 -3.53528e-11 -1.43692e-08 6.36095e-08
434 2 -3.53565e-11 -1.43692e-08 6.36094e-08
435 2 -3.53798e-11 -1.43692e-08 6.36094e-08
436 2 -3.54549e-11 -1.43692e-08 6.36095e-08
437 2 -3.53785e-11 -1.43692e-08 6.36095e-08
438 2 -3.53768e-11 -1.43692e-08 6.36095e-08
439 2 -3.53172e-11 -1.43692e-08 6.36094e-08
440 2 -3.54006e-11 -1.43691e-08 6.36094e-08
441 2 -3.53624e-11 -1.43692e-08 6.36095e-08
442 2 -3.53823e-11 -1.43692e-08 6.36094e-08
443 2 -3.53494e-11 -1.43692e-08 6.36095e-08
444 2 -3.5395e-11 -1.43692e-08 6.36094e-08
445 2 -3.53364e-11 -1.43692e-08 6.36095e-08
446 2 -3.54152e-11 -1.43692e-08 6.36094e-08
447 2 -3.53504e-11 -1.43692e-08 6.36095e-08
448 2 -3.54485e-11 -1.43692e-08 6.36095e-08
449 2 -3.5415e-11 -1.43692e-08 6.36095e-08
450 2 -3.53417e-11 -1.43692e-08 6.36095e-08
451 2 -3.5424e-11 -1.43692e-08 6.36095e-08
452 2 -3.54397e-11 -1.43692e-08 6.36095e-08
453 2 -3.54112e-11 -1.43692e-08 6.36095e-08
454 2 -3.52705e-11 -1.43692e-08 6.36094e-08
455 2 -3.54256e-11 -1.43692e-08 6.36095e-08
456 2 -3.52229e-11 -1.43692e-08 6.36095e-08
457 2 -3.53761e-11 -1.43692e-08 6.36094e-08
458 2 -3.53636e-11 -1.43692e-08 6.36094e-08
459 2 -3.54326e-11 -1.43692e-08 6.36094e-08
460 2 -3.53815e-11 -1.43692e-08 6.36094e-08
461 2 -3.54226e-11 -1.43692e-08 6.36094e-08
462 2 -3.54181e-11 -1.43692e-08 6.36094e-08
463 2 -3.53798e-11 -1.43692e-08 6.36094e-08
464 2 -3.52443e-11 -1.43692e-08 6.36094e-08
465 2 -3.53433e-11 -1.43692e-08 6.36094e-08
466 2 -3.54373e-11 -1.43692e-08 6.36094e-08
467 2 -3.54828e-11 -1.43692e-08 6.36094e-08
468 2 -3.54365e-11 -1.43692e-08 6.36094e-08
469 2 -3.5427e-11 -1.43692e-08 6.36095e-08
470 2 -3.53988e-11 -1.43692e-08 6.36094e-08
471 2 -3.53606e-11 -1.43692e-08 6.36094e-08
472 2 -3.55467e-11 -1.43692e-08 6.36094e-08
473 2 -3.54219e-11 -1.43692e-08 6.36095e-08
474 2 -3.54285e-11 -1.43692e-08 6.36094e-08
475 2 -3.54499e-11 -1.43692e-08 6.36095e-08
476 2 -3.54863e-11 -1.43692e-08 6.36095e-08
477 2 -3.54095e-11 -1.43692e-08 6.36095e-08
478 2 -3.54051e-11 -1.43692e-08 6.36095e-08
479 2 -3.5421e-11 -1.43692e-08 6.36095e-08
480 2 -3.52767e-11 -1.43693e-08 6.36095e-08
