ITEM: TIMESTEP
0
ITEM: NUMBER OF ATOMS
480
ITEM: BOX BOUNDS xy xz yz pp pp pp
0.0000000000000000e+00 3.7984583318577663e+01 1.0359585189707820e+01
0.0000000000000000e+00 3.2492996764177676e+01 0.0000000000000000e+00
0.0000000000000000e+00 3.0000000000000000e+01 0.0000000000000000e+00
ITEM: ATOMS id type fx fy fz
1 1 0.00442826 0.000136003 -0.00210448
2 1 0.000311347 0.000553241 0.00015021
3 1 -3.23527e-10 2.09134e-08 3.13912e-09
4 1 -3.23455e-10 2.09134e-08 3.13913e-09
5 1 -3.23409e-10 2.09134e-08 3.13915e-09
6 1 -3.23546e-10 2.09135e-08 3.13911e-09
7 1 1.59058e-05 6.07888e-05 2.20697e-05
8 1 -0.00374951 0.000354512 -0.00221536
9 1 -3.23445e-10 2.09134e-08 3.13913e-09
10 1 -3.23495e-10 2.09134e-08 3.13912e-09
11 1 -3.23394e-10 2.09134e-08 3.13914e-09
12 1 -3.23456e-10 2.09133e-08 3.13911e-09
13 1 -3.23396e-10 2.09134e-08 3.13913e-09
14 1 -3.23514e-10 2.09133e-08 3.13913e-09
15 1 -3.23248e-10 2.09134e-08 3.13913e-09
16 1 -3.23307e-10 2.09134e-08 3.13914e-09
17 1 -3.23462e-10 2.09134e-08 3.13914e-09
18 1 -3.23491e-10 2.09134e-08 3.13913e-09
19 1 -3.23504e-10 2.09134e-08 3.13913e-09
20 1 -3.23536e-10 2.09134e-08 3.13913e-09
21 1 -3.23486e-10 2.09134e-08 3.13914e-09
22 1 -3.23304e-10 2.09134e-08 3.13911e-09
23 1 -3.23435e-10 2.09134e-08 3.13915e-09
24 1 -3.23388e-10 2.09134e-08 3.13914e-09
25 1 -3.23548e-10 2.09133e-08 3.13912e-09
26 1 -3.23455e-10 2.09133e-08 3.13913e-09
27 1 -3.23479e-10 2.09133e-08 3.13913e-09
28 1 -3.23494e-10 2.09133e-08 3.13913e-09
29 1 -3.23517e-10 2.09133e-08 3.13912e-09
30 1 -3.2326e-10 2.09132e-08 3.13912e-09
31 1 -3.23373e-10 2.09133e-08 3.13911e-09
32 1 -3.23449e-10 2.09133e-08 3.13914e-09
33 1 4.35685e-06 -6.38648e-05 1.82369e-05
34 1 -4.27561e-06 -4.57813e-05 1.25616e-05
35 1 2.55714e-07 -2.20808e-07 6.52324e-08
36 1 -3.23439e-10 2.09132e-08 3.13911e-09
37 1 -3.2331e-10 2.09132e-08 3.13911e-09
38 1 -3.23451e-10 2.09132e-08 3.13912e-09
39 1 -3.2357e-10 2.09132e-08 3.13912e-09
40 1 -3.3943e-07 -2.93261e-07 8.28732e-08
41 1 0.00107441 -0.262118 -0.0230241
42 1 -0.00973583 0.00321686 0.00189743
43 1 0.000603929 -1.90687e-05 -8.80713e-08
44 1 -3.23331e-10 2.09134e-08 3.13914e-09
45 1 -3.23565e-10 2.09134e-08 3.13915e-09
46 1 -3.23292e-10 2.09134e-08 3.13913e-09
47 1 -0.00100633 0.000588391 3.53975e-05
48 1 0.00713875 0.00524057 0.00456491
49 1 0.00238765 -0.155409 0.10113
50 1 -0.00323915 0.00271199 0.0010962
51 1 -0.000933999 0.000426842 -0.000284865
52 1 1.20751e-10 -4.40012e-08 -4.4857e-08
53 1 1.20809e-10 -4.40012e-08 -4.4857e-08
54 1 1.2086e-10 -4.40011e-08 -4.4857e-08
55 1 0.000497101 -6.31423e-05 2.68461e-05
56 1 -0.00662042 0.00308971 -0.00107414
57 1 1.18193e-05 -0.00015294 3.98532e-05
58 1 -3.05969e-07 3.47958e-07 -2.5877e-07
59 1 1.20833e-10 -4.40012e-08 -4.4857e-08
60 1 1.20879e-10 -4.40012e-08 -4.4857e-08
61 1 1.2071e-10 -4.40012e-08 -4.4857e-08
62 1 1.20784e-10 -4.40012e-08 -4.4857e-08
63 1 3.65726e-07 -7.37368e-08 -8.96859e-08
64 1 -1.18815e-05 -0.0001072 2.68291e-05
65 1 1.2081e-10 -4.40012e-08 -4.48569e-08
66 1 1.2084e-10 -4.40012e-08 -4.4857e-08
67 1 1.20787e-10 -4.40012e-08 -4.4857e-08
68 1 1.20839e-10 -4.40012e-08 -4.4857e-08
69 1 1.20797e-10 -4.40012e-08 -4.4857e-08
70 1 1.20837e-10 -4.40013e-08 -4.4857e-08
71 1 1.2075e-10 -4.40012e-08 -4.4857e-08
72 1 1.208e-10 -4.40012e-08 -4.48569e-08
73 1 1.20925e-10 -4.4001e-08 -4.48571e-08
74 1 1.20875e-10 -4.40009e-08 -4.48571e-08
75 1 1.20858e-10 -4.40009e-08 -4.48571e-08
76 1 1.20833e-10 -4.40009e-08 -4.48571e-08
77 1 1.20818e-10 -4.40009e-08 -4.48571e-08
78 1 1.20814e-10 -4.40009e-08 -4.48571e-08
79 1 1.20824e-10 -4.40009e-08 -4.48571e-08
80 1 1.20785e-10 -4.40009e-08 -4.48571e-08
81 1 1.20971e-10 -4.40011e-08 -4.4857e-08
82 1 1.20902e-10 -4.4001e-08 -4.48571e-08
83 1 1.20905e-10 -4.4001e-08 -4.48571e-08
84 1 1.20826e-10 -4.4001e-08 -4.48571e-08
85 1 1.20813e-10 -4.4001e-08 -4.48571e-08
86 1 1.20776e-10 -4.4001e-08 -4.4857e-08
87 1 1.20881e-10 -4.4001e-08 -4.4857e-08
88 1 1.20725e-10 -4.4001e-08 -4.4857e-08
89 1 0.000180451 -0.00083491 0.00271704
90 1 0.00126226 -0.000781939 0.00173816
91 1 -0.000243325 0.000290272 0.000156924
92 1 1.20896e-10 -4.4001e-08 -4.4857e-08
93 1 1.20839e-10 -4.4001e-08 -4.4857e-08
94 1 1.20867e-10 -4.40011e-08 -4.4857e-08
95 1 1.20809e-10 -4.40009e-08 -4.4857e-08
96 1 0.000866976 0.00121018 0.000560729
97 1 1.56028e-10 4.49694e-08 4.55619e-08
98 1 1.56029e-10 4.49694e-08 4.5562e-08
99 1 1.56029e-10 4.49694e-08 4.55619e-08
100 1 1.56088e-10 4.49694e-08 4.55619e-08
101 1 1.55998e-10 4.49694e-08 4.55619e-08
102 1 1.56172e-10 4.49694e-08 4.55619e-08
103 1 1.56025e-10 4.49694e-08 4.55619e-08
104 1 1.55961e-10 4.49694e-08 4.55619e-08
105 1 1.56029e-10 4.49692e-08 4.5562e-08
106 1 1.5601e-10 4.49692e-08 4.55621e-08
107 1 1.55996e-10 4.49692e-08 4.5562e-08
108 1 1.56042e-10 4.49692e-08 4.5562e-08
109 1 1.56008e-10 4.49692e-08 4.5562e-08
110 1 1.56006e-10 4.49692e-08 4.5562e-08
111 1 1.55979e-10 4.49692e-08 4.5562e-08
112 1 1.56129e-10 4.49692e-08 4.5562e-08
113 1 1.56049e-10 4.49694e-08 4.5562e-08
114 1 1.56034e-10 4.49694e-08 4.55619e-08
115 1 1.56097e-10 4.49693e-08 4.5562e-08
116 1 1.56003e-10 4.49694e-08 4.55619e-08
117 1 1.56004e-10 4.49693e-08 4.55619e-08
118 1 1.55945e-10 4.49694e-08 4.5562e-08
119 1 1.56162e-10 4.49693e-08 4.5562e-08
120 1 1.56092e-10 4.49693e-08 4.55619e-08
121 1 1.56087e-10 4.49697e-08 4.55618e-08
122 1 1.56083e-10 4.49697e-08 4.55618e-08
123 1 1.56143e-10 4.49697e-08 4.55618e-08
124 1 1.56095e-10 4.49697e-08 4.55618e-08
125 1 1.56054e-10 4.49697e-08 4.55618e-08
126 1 1.56103e-10 4.49697e-08 4.55618e-08
127 1 1.5616e-10 4.49697e-08 4.55619e-08
128 1 1.56008e-10 4.49697e-08 4.55618e-08
129 1 1.55987e-10 4.49696e-08 4.55619e-08
130 1 1.56005e-10 4.49696e-08 4.55619e-08
131 1 1.55963e-10 4.49696e-08 4.55619e-08
132 1 1.55896e-10 4.49696e-08 4.55619e-08
133 1 1.5605e-10 4.49696e-08 4.55619e-08
134 1 1.56096e-10 4.49696e-08 4.55619e-08
135 1 1.56015e-10 4.49696e-08 4.55619e-08
136 1 1.56101e-10 4.49696e-08 4.55619e-08
137 1 1.56062e-10 4.49697e-08 4.55618e-08
138 1 1.56093e-10 4.49697e-08 4.55618e-08
139 1 1.56003e-10 4.49697e-08 4.55618e-08
140 1 1.56034e-10 4.49697e-08 4.55618e-08
141 1 1.56164e-10 4.49697e-08 4.55618e-08
142 1 1.56153e-10 4.49697e-08 4.55618e-08
143 1 1.56154e-10 4.49697e-08 4.55618e-08
144 1 1.56104e-10 4.49697e-08 4.55618e-08
145 1 -3.41013e-10 -2.13464e-08 -2.95365e-09
146 1 -3.4111e-10 -2.13464e-08 -2.95365e-09
147 1 -3.41038e-10 -2.13464e-08 -2.95366e-09
148 1 -3.41018e-10 -2.13464e-08 -2.95367e-09
149 1 -3.40974e-10 -2.13464e-08 -2.95365e-09
150 1 -3.41053e-10 -2.13464e-08 -2.95369e-09
151 1 -3.41147e-10 -2.13464e-08 -2.95365e-09
152 1 -3.41084e-10 -2.13464e-08 -2.95364e-09
153 1 -3.41045e-10 -2.13463e-08 -2.95364e-09
154 1 -3.41132e-10 -2.13464e-08 -2.95365e-09
155 1 -3.40993e-10 -2.13464e-08 -2.95365e-09
156 1 -3.41061e-10 -2.13464e-08 -2.95368e-09
157 1 -3.41043e-10 -2.13464e-08 -2.95367e-09
158 1 -3.41096e-10 -2.13464e-08 -2.95368e-09
159 1 -3.41084e-10 -2.13464e-08 -2.95365e-09
160 1 -3.41022e-10 -2.13464e-08 -2.95366e-09
161 1 -3.41214e-10 -2.13463e-08 -2.95368e-09
162 1 -3.41093e-10 -2.13463e-08 -2.95364e-09
163 1 -3.41034e-10 -2.13463e-08 -2.95367e-09
164 1 -3.40974e-10 -2.13463e-08 -2.95364e-09
165 1 -3.4093e-10 -2.13463e-08 -2.95366e-09
166 1 -3.41146e-10 -2.13464e-08 -2.95364e-09
167 1 -3.40962e-10 -2.13463e-08 -2.95367e-09
168 1 -3.40966e-10 -2.13463e-08 -2.95366e-09
169 1 -3.4116e-10 -2.13464e-08 -2.95369e-09
170 1 -3.4114e-10 -2.13464e-08 -2.95367e-09
171 1 -3.41064e-10 -2.13464e-08 -2.95367e-09
172 1 -3.41034e-10 -2.13464e-08 -2.95367e-09
173 1 -3.41104e-10 -2.13464e-08 -2.95367e-09
174 1 -3.40958e-10 -2.13464e-08 -2.95368e-09
175 1 -3.41089e-10 -2.13464e-08 -2.95367e-09
176 1 -3.41077e-10 -2.13464e-08 -2.95365e-09
177 1 -3.4097e-10 -2.13464e-08 -2.95365e-09
178 1 -3.41123e-10 -2.13464e-08 -2.95367e-09
179 1 -3.41011e-10 -2.13464e-08 -2.95365e-09
180 1 -3.41025e-10 -2.13464e-08 -2.95365e-09
181 1 -3.40949e-10 -2.13464e-08 -2.95366e-09
182 1 -3.41093e-10 -2.13464e-08 -2.95368e-09
183 1 -3.41193e-10 -2.13464e-08 -2.95365e-09
184 1 -3.40925e-10 -2.13464e-08 -2.95366e-09
185 1 -3.41126e-10 -2.13461e-08 -2.95366e-09
186 1 -3.41086e-10 -2.13461e-08 -2.95365e-09
187 1 -3.40969e-10 -2.13461e-08 -2.95364e-09
188 1 -3.40932e-10 -2.13461e-08 -2.95365e-09
189 1 -3.40982e-10 -2.13461e-08 -2.95366e-09
190 1 -3.41125e-10 -2.13461e-08 -2.95366e-09
191 1 -3.411e-10 -2.13461e-08 -2.95364e-09
192 1 -3.41028e-10 -2.13461e-08 -2.95362e-09
193 2 -0.000150724 -0.0356052 0.00121053
194 2 -0.0032889 -0.00274491 -0.00104809
195 2 4.42752e-05 1.55533e-05 1.31761e-05
196 2 -1.63754e-11 1.40085e-08 -6.22558e-08
197 2 -1.64252e-11 1.40085e-08 -6.22558e-08
198 2 -1.64629e-11 1.40085e-08 -6.22559e-08
199 2 -8.24162e-06 9.46348e-07 1.96586e-06
200 2 0.00252695 -0.00106676 -0.000415924
201 2 -2.85745e-11 -1.60303e-06 -2.46436e-07
202 2 -1.64228e-11 1.40085e-08 -6.22558e-08
203 2 -1.63997e-11 1.40085e-08 -6.22558e-08
204 2 -1.64945e-11 1.40085e-08 -6.22559e-08
205 2 -1.64553e-11 1.40085e-08 -6.22558e-08
206 2 -1.64101e-11 1.40085e-08 -6.22559e-08
207 2 -1.65322e-11 1.40085e-08 -6.22558e-08
208 2 -2.55134e-11 -1.18326e-06 -1.98624e-07
209 2 -1.65041e-11 1.40085e-08 -6.22559e-08
210 2 -1.64629e-11 1.40085e-08 -6.22559e-08
211 2 -1.64272e-11 1.40085e-08 -6.22558e-08
212 2 -1.63954e-11 1.40085e-08 -6.22559e-08
213 2 -1.64519e-11 1.40085e-08 -6.22558e-08
214 2 -1.6533e-11 1.40085e-08 -6.22558e-08
215 2 -1.64283e-11 1.40085e-08 -6.22559e-08
216 2 -1.65034e-11 1.40085e-08 -6.22558e-08
217 2 -1.64828e-11 1.40085e-08 -6.22559e-08
218 2 -1.64372e-11 1.40084e-08 -6.22559e-08
219 2 -1.64787e-11 1.40084e-08 -6.22559e-08
220 2 -1.65036e-11 1.40084e-08 -6.22559e-08
221 2 -1.64976e-11 1.40084e-08 -6.22559e-08
222 2 -1.65551e-11 1.40084e-08 -6.22558e-08
223 2 -1.66664e-11 1.40085e-08 -6.22559e-08
224 2 -1.64811e-11 1.40084e-08 -6.22559e-08
225 2 -1.27407e-06 -2.92447e-06 9.81027e-07
226 2 3.24815e-07 -5.11429e-06 1.75851e-06
227 2 9.49373e-07 -2.17573e-06 7.15194e-07
228 2 -1.6503e-11 1.40084e-08 -6.22558e-08
229 2 -1.65114e-11 1.40085e-08 -6.22558e-08
230 2 -1.65365e-11 1.40084e-08 -6.22559e-08
231 2 -1.63659e-11 1.40085e-08 -6.22559e-08
232 2 -1.64441e-11 1.40084e-08 -6.22558e-08
233 2 -0.0250261 -0.0335962 0.000665861
234 2 0.0147793 -0.0215138 -0.00014992
235 2 -8.34356e-05 -0.000822914 0.000171274
236 2 -1.65995e-11 1.40085e-08 -6.22559e-08
237 2 -1.64767e-11 1.40085e-08 -6.22559e-08
238 2 -1.65026e-11 1.40085e-08 -6.22558e-08
239 2 -1.64324e-11 1.40086e-08 -6.22559e-08
240 2 0.00184864 -0.000219138 0.000119702
241 2 0.0233657 0.54659 -0.0998126
242 2 -0.000244479 -0.00827989 0.0021177
243 2 0.000516163 -0.000342392 0.000308981
244 2 3.69512e-10 2.38354e-08 9.53311e-08
245 2 3.69515e-10 2.38354e-08 9.53311e-08
246 2 3.69502e-10 2.38354e-08 9.53311e-08
247 2 0.00079994 -0.000451744 1.28924e-05
248 2 -0.00122896 -0.00738306 -0.000494985
249 2 -0.000912474 -0.000457989 0.000764096
250 2 -4.21075e-05 -2.40696e-05 -6.30335e-06
251 2 3.69502e-10 2.38355e-08 9.53311e-08
252 2 3.69485e-10 2.38355e-08 9.53311e-08
253 2 3.69484e-10 2.38355e-08 9.53311e-08
254 2 3.69495e-10 2.38355e-08 9.53311e-08
255 2 3.02776e-05 -1.39545e-05 -2.34892e-06
256 2 0.000856708 -0.000680411 0.000585486
257 2 3.69488e-10 2.38357e-08 9.5331e-08
258 2 3.69504e-10 2.38357e-08 9.53311e-08
259 2 3.69503e-10 2.38357e-08 9.53311e-08
260 2 3.69496e-10 2.38357e-08 9.5331e-08
261 2 3.69503e-10 2.38357e-08 9.53311e-08
262 2 3.69491e-10 2.38357e-08 9.53311e-08
263 2 3.69533e-10 2.38357e-08 9.53311e-08
264 2 3.69513e-10 2.38357e-08 9.53311e-08
265 2 3.69493e-10 2.38354e-08 9.53312e-08
266 2 3.69492e-10 2.38354e-08 9.53312e-08
267 2 3.69491e-10 2.38354e-08 9.53312e-08
268 2 3.695e-10 2.38354e-08 9.53312e-08
269 2 3.69507e-10 2.38354e-08 9.53312e-08
270 2 3.69492e-10 2.38354e-08 9.53312e-08
271 2 3.69481e-10 2.38354e-08 9.53312e-08
272 2 3.69531e-10 2.38354e-08 9.53312e-08
273 2 3.69507e-10 2.38356e-08 9.53311e-08
274 2 3.69527e-10 2.38356e-08 9.53311e-08
275 2 3.69524e-10 2.38356e-08 9.53311e-08
276 2 3.69526e-10 2.38356e-08 9.53311e-08
277 2 3.6951e-10 2.38356e-08 9.53311e-08
278 2 3.69512e-10 2.38356e-08 9.53311e-08
279 2 3.6953e-10 2.38356e-08 9.53311e-08
280 2 3.69514e-10 2.38356e-08 9.53311e-08
281 2 0.000340927 -0.000859245 -0.000307304
282 2 -0.00039451 -0.000289508 -0.000292239
283 2 1.00666e-05 -7.44412e-06 5.26049e-06
284 2 3.69543e-10 2.38357e-08 9.53311e-08
285 2 3.69502e-10 2.38357e-08 9.53311e-08
286 2 3.69538e-10 2.38357e-08 9.53311e-08
287 2 3.69521e-10 2.38357e-08 9.53311e-08
288 2 -2.25216e-05 -3.1298e-05 7.88006e-06
289 2 -0.00992973 -0.0158409 0.00580365
290 2 0.00190624 -2.11662e-05 -2.68377e-05
291 2 -1.50374e-10 -1.47563e-08 8.64264e-09
292 2 -1.50442e-10 -1.47562e-08 8.64262e-09
293 2 -1.50446e-10 -1.47562e-08 8.64262e-09
294 2 -1.50371e-10 -1.47563e-08 8.64263e-09
295 2 -0.000222684 -0.000668093 0.000394942
296 2 0.00331481 -0.00944231 0.0035756
297 2 -2.22426e-06 -5.22159e-06 1.85176e-06
298 2 -1.50473e-10 -1.47563e-08 8.64261e-09
299 2 -1.50466e-10 -1.47562e-08 8.64264e-09
300 2 -1.50418e-10 -1.47563e-08 8.64265e-09
301 2 -1.50346e-10 -1.47562e-08 8.64262e-09
302 2 -1.50373e-10 -1.47563e-08 8.64264e-09
303 2 1.64675e-06 -3.87042e-06 1.37347e-06
304 2 5.77418e-07 -9.07743e-06 3.21664e-06
305 2 -1.50366e-10 -1.47563e-08 8.64263e-09
306 2 -1.50378e-10 -1.47563e-08 8.64263e-09
307 2 -1.50355e-10 -1.47563e-08 8.64263e-09
308 2 -1.50415e-10 -1.47563e-08 8.64265e-09
309 2 -1.50401e-10 -1.47563e-08 8.64262e-09
310 2 -1.50399e-10 -1.47563e-08 8.64263e-09
311 2 -1.50489e-10 -1.47563e-08 8.64263e-09
312 2 -1.50386e-10 -1.47562e-08 8.64261e-09
313 2 -1.50371e-10 -1.47563e-08 8.64265e-09
314 2 -1.50406e-10 -1.47563e-08 8.64265e-09
315 2 -1.50383e-10 -1.47563e-08 8.64267e-09
316 2 -1.50383e-10 -1.47563e-08 8.64265e-09
317 2 -1.50278e-10 -1.47563e-08 8.64265e-09
318 2 -1.5038e-10 -1.47563e-08 8.64268e-09
319 2 -1.50442e-10 -1.47563e-08 8.64265e-09
320 2 -1.50482e-10 -1.47563e-08 8.6426e-09
321 2 -1.5874e-10 -1.16284e-06 -1.27923e-07
322 2 -1.56675e-10 -8.70213e-07 -9.31145e-08
323 2 -1.50456e-10 -1.47563e-08 8.64268e-09
324 2 -1.50434e-10 -1.47563e-08 8.64266e-09
325 2 -1.50353e-10 -1.47563e-08 8.64268e-09
326 2 -1.50462e-10 -1.47563e-08 8.64264e-09
327 2 -1.5043e-10 -1.47563e-08 8.64269e-09
328 2 -1.50517e-10 -1.47562e-08 8.64262e-09
329 2 -0.000204597 0.0042168 0.00833645
330 2 0.00418493 -0.00268369 -0.00223027
331 2 7.46295e-05 -2.96826e-05 -3.2387e-05
332 2 -1.50479e-10 -1.47563e-08 8.64267e-09
333 2 -1.50467e-10 -1.47563e-08 8.64265e-09
334 2 -1.50334e-10 -1.47563e-08 8.64268e-09
335 2 -0.000287695 -0.00011295 -0.000125105
336 2 -0.00579091 -0.00588386 -0.00465019
337 2 -1.32114e-10 1.51554e-08 -8.78182e-09
338 2 -1.3202e-10 1.51554e-08 -8.78183e-09
339 2 -1.32113e-10 1.51554e-08 -8.78182e-09
340 2 -1.32095e-10 1.51554e-08 -8.78181e-09
341 2 -1.32095e-10 1.51554e-08 -8.78184e-09
342 2 -1.32135e-10 1.51554e-08 -8.78179e-09
343 2 -1.32137e-10 1.51554e-08 -8.78183e-09
344 2 -1.31978e-10 1.51554e-08 -8.78185e-09
345 2 -1.32147e-10 1.51554e-08 -8.78186e-09
346 2 -1.32028e-10 1.51553e-08 -8.78183e-09
347 2 -1.32057e-10 1.51554e-08 -8.78182e-09
348 2 -1.32111e-10 1.51553e-08 -8.78182e-09
349 2 -1.32084e-10 1.51554e-08 -8.78182e-09
350 2 -1.32077e-10 1.51553e-08 -8.78182e-09
351 2 -1.31987e-10 1.51554e-08 -8.78182e-09
352 2 -1.32086e-10 1.51553e-08 -8.78181e-09
353 2 -1.32103e-10 1.51553e-08 -8.78188e-09
354 2 -1.32114e-10 1.51553e-08 -8.78185e-09
355 2 -1.32131e-10 1.51553e-08 -8.78184e-09
356 2 -1.32135e-10 1.51554e-08 -8.78187e-09
357 2 -1.32118e-10 1.51553e-08 -8.78185e-09
358 2 -1.32047e-10 1.51554e-08 -8.78183e-09
359 2 -1.32117e-10 1.51553e-08 -8.78182e-09
360 2 -1.32231e-10 1.51553e-08 -8.78187e-09
361 2 -1.32108e-10 1.51553e-08 -8.78183e-09
362 2 -1.32122e-10 1.51553e-08 -8.78179e-09
363 2 -1.32144e-10 1.51553e-08 -8.78179e-09
364 2 -1.32145e-10 1.51553e-08 -8.7818e-09
365 2 -1.32075e-10 1.51553e-08 -8.7818e-09
366 2 -1.32124e-10 1.51553e-08 -8.78178e-09
367 2 -1.32148e-10 1.51553e-08 -8.78179e-09
368 2 -1.32166e-10 1.51553e-08 -8.78182e-09
369 2 -1.32047e-10 1.51553e-08 -8.78182e-09
370 2 -1.32012e-10 1.51553e-08 -8.78182e-09
371 2 -1.31997e-10 1.51553e-08 -8.78182e-09
372 2 -1.31903e-10 1.51553e-08 -8.7818e-09
373 2 -1.32025e-10 1.51553e-08 -8.78178e-09
374 2 -1.32108e-10 1.51553e-08 -8.78179e-09
375 2 -1.31991e-10 1.51553e-08 -8.78181e-09
376 2 -1.32195e-10 1.51553e-08 -8.7818e-09
377 2 -1.32125e-10 1.51553e-08 -8.78185e-09
378 2 -1.32117e-10 1.51553e-08 -8.78182e-09
379 2 -1.32082e-10 1.51553e-08 -8.78185e-09
380 2 -1.3208e-10 1.51553e-08 -8.78183e-09
381 2 -1.32155e-10 1.51553e-08 -8.7818e-09
382 2 -1.32179e-10 1.51553e-08 -8.78182e-09
383 2 -1.32104e-10 1.51553e-08 -8.78184e-09
384 2 -1.32199e-10 1.51553e-08 -8.78185e-09
385 2 3.52472e-10 -2.44095e-08 -9.74358e-08
386 2 3.52476e-10 -2.44094e-08 -9.74358e-08
387 2 3.52472e-10 -2.44094e-08 -9.74358e-08
388 2 3.52472e-10 -2.44094e-08 -9.74358e-08
389 2 3.52478e-10 -2.44094e-08 -9.74358e-08
390 2 3.5249e-10 -2.44094e-08 -9.74358e-08
391 2 3.52494e-10 -2.44095e-08 -9.74358e-08
392 2 3.52469e-10 -2.44094e-08 -9.74358e-08
393 2 3.52479e-10 -2.44092e-08 -9.74359e-08
394 2 3.52477e-10 -2.44092e-08 -9.74359e-08
395 2 3.52478e-10 -2.44092e-08 -9.74359e-08
396 2 3.52475e-10 -2.44092e-08 -9.74359e-08
397 2 3.52466e-10 -2.44093e-08 -9.74359e-08
398 2 3.52475e-10 -2.44092e-08 -9.74359e-08
399 2 3.52464e-10 -2.44092e-08 -9.74359e-08
400 2 3.52496e-10 -2.44092e-08 -9.74359e-08
401 2 3.52487e-10 -2.4409e-08 -9.7436e-08
402 2 3.52477e-10 -2.4409e-08 -9.7436e-08
403 2 3.52488e-10 -2.4409e-08 -9.7436e-08
404 2 3.52491e-10 -2.4409e-08 -9.7436e-08
405 2 3.52509e-10 -2.4409e-08 -9.7436e-08
406 2 3.52503e-10 -2.4409e-08 -9.7436e-08
407 2 3.52488e-10 -2.4409e-08 -9.7436e-08
408 2 3.5248e-10 -2.4409e-08 -9.7436e-08
409 2 3.5249e-10 -2.44092e-08 -9.74359e-08
410 2 3.525e-10 -2.44092e-08 -9.74359e-08
411 2 3.52509e-10 -2.44092e-08 -9.74359e-08
412 2 3.52496e-10 -2.44092e-08 -9.74359e-08
413 2 3.52485e-10 -2.44092e-08 -9.74359e-08
414 2 3.52463e-10 -2.44092e-08 -9.74359e-08
415 2 3.52518e-10 -2.44092e-08 -9.74359e-08
416 2 3.52488e-10 -2.44092e-08 -9.74359e-08
417 2 3.5248e-10 -2.44094e-08 -9.74358e-08
418 2 3.52483e-10 -2.44094e-08 -9.74358e-08
419 2 3.5251e-10 -2.44094e-08 -9.74358e-08
420 2 3.52447e-10 -2.44094e-08 -9.74358e-08
421 2 3.52508e-10 -2.44094e-08 -9.74358e-08
422 2 3.52479e-10 -2.44094e-08 -9.74358e-08
423 2 3.52535e-10 -2.44094e-08 -9.74358e-08
424 2 3.52487e-10 -2.44094e-08 -9.74358e-08
425 2 3.52472e-10 -2.44095e-08 -9.74358e-08
426 2 3.52471e-10 -2.44095e-08 -9.74358e-08
427 2 3.52489e-10 -2.44095e-08 -9.74358e-08
428 2 3.52463e-10 -2.44095e-08 -9.74358e-08
429 2 3.52496e-10 -2.44095e-08 -9.74358e-08
430 2 3.5249e-10 -2.44095e-08 -9.74358e-08
431 2 3.52533e-10 -2.44095e-08 -9.74358e-08
432 2 3.52478e-10 -2.44095e-08 -9.74359e-08
433 2 -3.53528e-11 -1.43692e-08 6.36095e-08
434 2 -3.53565e-11 -1.43692e-08 6.36094e-08
435 2 -3.53798e-11 -1.43692e-08 6.36094e-08
436 2 -3.54549e-11 -1.43692e-08 6.36095e-08
437 2 -3.53785e-11 -1.43692e-08 6.36095e-08
438 2 -3.53768e-11 -1.43692e-08 6.36095e-08
439 2 -3.53172e-11 -1.43692e-08 6.36094e-08
440 2 -3.54006e-11 -1.43691e-08 6.36094e-08
441 2 -3.53624e-11 -1.43692e-08 6.36095e-08
442 2 -3.53823e-11 -1.43692e-08 6.36094e-08
443 2 -3.53494e-11 -1.43692e-08 6.36095e-08
444 2 -3.5395e-11 -1.43692e-08 6.36094e-08
445 2 -3.53364e-11 -1.43692e-08 6.36095e-08
446 2 -3.54152e-11 -1.43692e-08 6.36094e-08
447 2 -3.53504e-11 -1.43692e-08 6.36095e-08
448 2 -3.54485e-11 -1.43692e-08 6.36095e-08
449 2 -3.5415e-11 -1.43692e-08 6.36095e-08
450 2 -3.53417e-11 -1.43692e-08 6.36095e-08
451 2 -3.5424e-11 -1.43692e-08 6.36095e-08
452 2 -3.54397e-11 -1.43692e-08 6.36095e-08
453 2 -3.54112e-11 -1.43692e-08 6.36095e-08
454 2 -3.52705e-11 -1.43692e-08 6.36094e-08
455 2 -3.54256e-11 -1.43692e-08 6.36095e-08
456 2 -3.52229e-11 -1.43692e-08 6.36095e-08
457 2 -3.53761e-11 -1.43692e-08 6.36094e-08
458 2 -3.53636e-11 -1.43692e-08 6.36094e-08
459 2 -3.54326e-11 -1.43692e-08 6.36094e-08
460 2 -3.53815e-11 -1.43692e-08 6.36094e-08
461 2 -3.54226e-11 -1.43692e-08 6.36094e-08
462 2 -3.54181e-11 -1.43692e-08 6.36094e-08
463 2 -3.53798e-11 -1.43692e-08 6.36094e-08
464 2 -3.52443e-11 -1.43692e-08 6.36094e-08
465 2 -3.53433e-11 -1.43692e-08 6.36094e-08
466 2 -3.54373e-11 -1.43692e-08 6.36094e-08
467 2 -3.54828e-11 -1.43692e-08 6.36094e-08
468 2 -3.54365e-11 -1.43692e-08 6.36094e-08
469 2 -3.5427e-11 -1.43692e-08 6.36095e-08
470 2 -3.53988e-11 -1.43692e-08 6.36094e-08
471 2 -3.53606e-11 -1.43692e-08 6.36094e-08
472 2 -3.55467e-11 -1.43692e-08 6.36094e-08
473 2 -3.54219e-11 -1.43692e-08 6.36095e-08
474 2 -3.54285e-11 -1.43692e-08 6.36094e-08
475 2 -3.54499e-11 -1.43692e-08 6.36095e-08
476 2 -3.54863e-11 -1.43692e-08 6.36095e-08
477 2 -3.54095e-11 -1.43692e-08 6.36095e-08
478 2 -3.54051e-11 -1.43692e-08 6.36095e-08
479 2 -3.5421e-11 -1.43692e-08 6.36095e-08
480 2 -3.52767e-11 -1.43693e-08 6.36095e-08
